188
Properties=species:S:1:pos:R:3 XYZ=T file=T generated=T by=T Avogadro.=T energy=-1245.360107421875 stress="inf inf inf inf inf -inf inf -inf inf" pbc="F F F"
N     18.5607506631   30.8205647580   22.9911536840
C     17.2283758114   31.4463953146   22.9154696090
C     16.8802415716   32.2918828145   24.1367227303
N     16.9172857578   31.5411344521   25.4070979421
C     15.6998939188   30.7157805599   25.5030755649
C     15.7435868280   29.7121366560   26.6375782428
N     16.8822351818   28.8091716980   26.4619958905
C     16.6177095287   27.7406878558   25.4809951239
C     17.8828179444   27.1598581736   24.8286094588
N     18.6544048336   28.1045494518   24.0006809615
C     17.9534367279   28.4261381602   22.7537569164
C     18.5793874763   29.6539591310   22.0962979143
C     19.6288540651   31.7501566736   22.5896311417
C     20.0884071771   32.6812012652   23.6679342257
O     20.1045333639   32.3315897183   24.9355484888
O     20.5400381844   33.7668708944   23.3531367972
C     16.9969869054   32.5253048801   26.5027221236
C     17.9922264783   32.1961499864   27.5698652449
O     19.0370680906   31.4228755522   27.3655778163
O     17.8795656565   32.7467282493   28.6495609551
C     17.2443327055   28.2521468909   27.7674608128
C     18.7126920547   28.0969444485   27.8357868952
O     19.5158932068   28.7482909626   27.0282655908
O     19.1982655066   27.3550186067   28.6691989180
C     19.9673352627   27.5327086028   23.6589345144
C     21.0768567305   28.0813396371   24.5004928273
O     21.1189987311   29.3581420998   24.8489854513
N     22.0686789921   27.1925711288   24.8148263645
H     17.1361619279   32.0632025019   21.9947100241
H     16.4253903125   30.6960058063   22.7915153536
H     17.6146376488   33.1225453550   24.1207396088
H     15.8839604563   32.7649696663   23.9849722653
H     14.8028073351   31.3592173024   25.6333440520
H     15.5093216849   30.1508965325   24.5743134759
H     14.7904546108   29.1440303623   26.7081536696
H     15.8287811312   30.3210726277   27.5641722018
H     16.0541898819   26.9097226882   25.9578822153
H     15.9214070374   28.0732628676   24.6910258466
H     18.5225789722   26.7437420625   25.6338840228
H     17.5759874530   26.2907676859   24.2075934718
H     17.9811026935   27.5658213181   22.0493702541
H     16.8826135232   28.6307960030   22.9242263094
H     19.6120806329   29.4050659729   21.7846344762
H     18.0647680940   29.8760542272   21.1357039467
H     20.3972478037   20.3218931723   24.0107989119
H     18.7004638732   19.8520501261   24.1454231021
H     19.9310261333   26.4223164817   23.7317736865
H     16.0003271004   32.7571230535   26.9368168831
H     17.3544915995   33.5209317824   26.1597548554
H     20.2927407475   27.6644331831   22.6079932132
H     17.0031067699   28.9241569206   28.6211019511
H     16.7357686760   27.2866752916   27.9894545342
C     23.1170350485   27.2894694963   25.8275929366
H     21.9875857594   26.2492338684   24.3728176921
H     26.4516382977   27.4156002225   23.3123436032
H     23.9016157747   30.0722191965   25.5959056711
C     24.5301710069   27.3298190811   25.2249954485
C     24.9668589304   28.5663330472   24.4395776130
H     25.2530597233   27.2042328037   26.0622126875
H     24.6472013368   26.4704351025   24.5318596064
H     27.3882328117   31.5931461675   23.5986051586
C     26.4004645935   28.3105255277   23.9679194726
C     24.9421948365   29.8270640208   25.3007834364
H     28.0468707685   29.2755441748   22.9667731626
C     25.5269220631   31.0150680044   24.5495251186
H     25.5101210731   31.9126095458   25.2014440586
C     26.9940919603   29.5022066107   23.2377531726
C     26.9605796406   30.7229663786   24.1387785781
C     22.9850210045   26.0313097203   26.7113086305
H     22.9620884717   28.1750450528   26.4811322831
O     21.7489117235   26.0595334944   27.3610498525
N     23.1298447863   24.8040586659   25.9151264645
C     22.7764322050   23.5548426438   26.5995667146
C     21.3543834697   23.1041002085   26.2386294277
S     21.0883724607   22.9318678927   24.4401074581
N     24.5387936800   21.9369908951   27.2730608255
C     23.7824359012   22.4795472742   26.2787414072
O     23.9516658862   22.1320038617   25.1199858925
H     14.3361987706   23.6946529262   23.2752376027
H     20.6345169949   23.8621293790   26.6099832615
H     21.1520362330   22.1330322597   26.7395199592
C     25.5867937683   20.9377219938   27.0758538332
C     25.1040266225   19.5553909319   27.5194717825
O     29.0500755861   26.0047594253   25.5266119247
C     26.8434316789   21.3066915468   27.8662885566
O     24.1519664218   19.6299683544   28.5393497191
H     27.1308631163   25.9843001376   27.3675763196
N     24.6480458689   18.7575013763   26.3860562639
H     28.6278010013   21.5072090341   25.7834036781
H     28.5819134894   26.5453873694   24.8419196801
C     27.6926670739   25.0375291650   27.2283192237
C     28.1902887323   24.9389957448   25.7939752715
H     26.4873165384   23.9465145753   28.6373259698
H     25.8970630753   20.8791878260   26.0104429040
C     27.5806063261   22.5565824899   27.3801965443
H     26.6021681336   21.4101008203   28.9453463686
H     27.5688807622   20.4706220852   27.7748959315
C     28.0469024793   22.4415880707   25.9317174273
H     29.2438780444   23.5489263499   24.5077081214
C     26.8048238199   23.8526222408   27.5781872674
C     28.9272905509   23.6273877895   25.5690515924
C     24.0612516973   17.4605988037   26.7280008812
C     24.8849944373   16.5671490764   27.6803655593
H     25.4862397319   18.5856597342   25.7847545454
H     27.2125548194   17.7708645154   29.0937630651
C     23.6202956147   16.7672225733   25.4349107035
H     29.2359814116   17.4186713699   28.1800641235
C     26.4061551581   16.4266470541   27.5545457301
H     23.1050820777   17.6671915171   27.2549911516
O     24.7018188880   16.4098300536   24.6314676413
H     24.7315959834   16.9542758463   28.7099517187
H     24.4337888181   15.5529672447   27.6856325123
C     27.2056877541   17.6429514078   27.9902030787
C     28.5063921659   16.2935932286   26.6753446328
C     27.0742618462   16.0721572610   26.2523865496
N     28.5409877064   17.5459825232   27.4096560821
H     30.4758858980   16.4225751984   25.7894449173
C     29.3108794411   14.8565859126   24.8592352568
H     29.9414234045   14.7900770981   23.9484936022
H     25.9143073048   14.3976027662   25.4982014495
H     27.8284228763   13.4709391538   24.1341278730
C     29.4270027002   16.2463431362   25.4716526826
C     26.9637004810   14.6412487595   25.7569541381
C     27.8622484642   14.5061387595   24.5290624561
N     22.7198847895   15.6336643043   25.6651782994
O     20.8296432634   17.2838886133   24.4454145857
H     21.9960461085   15.9503862633   26.3505693654
C     21.9846656988   15.2069668471   24.4660339419
C     22.7889604558   14.1509626787   23.7000816384
C     23.1215296553   12.9414134955   24.5731428217
C     21.5426492999   16.4131879245   23.6176441596
N     20.7340329490   16.0712361104   22.4437958203
C     23.7827185936   11.8082163590   23.7916370796
H     23.7670009530   13.2381615977   25.4263135253
H     22.1717396982   12.5402188309   24.9870299169
C     25.1619734084   12.1711796509   23.2567756809
H     23.8960826147   10.9393085730   24.4742070964
H     23.1204625800   11.5026950594   22.9538104717
N     25.7490283087   11.0378007199   22.5583708649
H     25.1105291793   13.0366300646   22.5632300317
H     25.8076333209   12.4325640662   24.1186616174
H     25.1821944100   10.8526304183   21.6998095174
H     26.6993770595   11.3256231153   22.2320807747
C     20.6350857969   17.1997651649   21.5098386770
H     21.2447656527   15.3264230621   21.9254656117
C     19.8402846867   18.3232004954   22.1798363855
H     19.1610548297   18.6058301292   19.4432449251
C     20.0077160392   16.7237819036   20.1836099551
O     18.5189373412   17.9294568880   22.3976439083
C     17.8551129875   20.8916488843   21.5764317269
N     19.9630189268   19.6275891780   21.5229582877
N     16.8790018355   21.5522509879   22.4394992422
S     19.0770426186   22.2173386881   24.5962392176
H     19.7901151685   21.6625587600   21.9294245372
C     19.2562391157   20.7253739691   22.1976705680
H     22.1892607767   13.7500235061   22.8590065760
O     17.3404767322   19.6871165349   21.0947382708
C     19.3692829541   20.6348209638   23.7313360956
H     23.7099240842   14.6074748064   23.2865841329
C     15.5531359553   21.6732154582   21.8215690568
H     15.2838739516   20.7577065226   21.2519376800
C     19.8672019778   17.8135158009   19.1266383999
O     20.8018845427   15.7065625312   19.6392967427
H     21.6602335795   17.5730497746   21.2929240466
H     20.2039022902   15.1130886463   19.1157686723
H     20.8565058516   18.2604070003   18.8947424269
H     19.4507408161   17.3747983944   18.1955604128
H     17.2211395227   22.5112648175   22.6741134361
C     14.4913005635   21.7975422057   22.9187233632
H     16.2086278149   21.9657694549   19.2835768734
H     13.6495446415   20.6498541084   24.5567248659
C     15.4979442240   22.8558868119   20.8494491997
O     14.7412655287   22.9113335127   23.7282247308
O     14.2285661516   22.9949544014   20.2841908106
C     14.4482786736   20.5490392711   23.7924683168
O     16.4574089734   22.7500560311   19.8373924119
H     21.0559545313   14.6934308599   24.8005857448
H     13.4815194979   21.8780787710   22.4577352198
H     14.2248291044   19.6528205071   23.1755254771
H     15.4158673316   20.3912123791   24.3132755159
H     24.1424973127   24.7586454441   25.6631138938
H     22.7993613210   23.7106286331   27.7006262560
H     24.3774116498   22.2589834914   28.2545999036
H     20.9832412400   19.8567540184   21.5506581567
H     18.9939685739   16.3226941346   20.4085436210
H     19.3651375965   32.2997668478   21.6589905833
H     20.5643336591   31.1950103089   22.3638156537
Pm    19.0196154953   30.3087954052   25.3247874917
