143
Properties=species:S:1:pos:R:3 XYZ=T file=T generated=T by=T Avogadro.=T energy=-945.031005859375 stress="inf -inf inf -inf inf inf inf inf inf" pbc="F F F"
N        1.67397703      -8.64204486       8.34018795       0.05503449      -0.01254727       0.02590104
C        2.35114080      -9.94511512       8.19126695      -0.00398165      -0.01990369      -0.00553331
C        2.31429232     -10.52558209       6.78301011       0.00637969       0.01805660      -0.01371700
N        0.95172899     -10.76003444       6.27435848      -0.00934178       0.05905987       0.01309577
C        0.40121579     -12.01629022       6.81137190       0.03070956       0.00907588       0.00490692
C       -1.11824678     -12.10796120       6.80693649      -0.00691026       0.02066129       0.00549759
N       -1.76561141     -11.03108957       7.57696060      -0.03669190      -0.05399737       0.04871850
C       -1.64803442     -11.28143983       9.01649929      -0.00015768      -0.03613079       0.02932677
C       -1.96345593     -10.08510493       9.90131758       0.00623176      -0.02120092      -0.02046418
N       -1.06731397      -8.93111028       9.67142801       0.01613194      -0.00775485       0.02628815
C        0.23465985      -9.18473180      10.31043186       0.01640416       0.02991828       0.02500501
C        1.37819213      -8.35752110       9.75158347      -0.00106126       0.02455056      -0.00562720
C        2.51626099      -7.56983709       7.75965016      -0.00110272      -0.00395203      -0.01403868
C        2.37566640      -7.50010119       6.23002035       0.02266580      -0.00248447      -0.03460324
O        1.15024346      -7.57250942       5.83558797       0.02826953       0.00913705      -0.05825865
O        3.36688631      -7.39933019       5.52909723      -0.03808713       0.00542611       0.08609986
C        0.94296030     -10.76120678       4.79431543      -0.02734983      -0.00476472       0.01952351
C       -0.47536880     -10.62111763       4.21940329      -0.01355898      -0.03104925       0.02055418
O       -1.21277270      -9.76824156       4.85810968       0.04406953       0.02735841      -0.01003465
O       -0.81060623     -11.28979701       3.26124385       0.03616983       0.00487971       0.03427768
C       -3.18421223     -10.89308240       7.18567272      -0.00880735       0.04868865      -0.01650852
C       -3.78206391      -9.54784748       7.62982221      -0.06282932       0.03303653      -0.01590359
O       -3.01729615      -8.52518642       7.43081163       0.05257857      -0.04473424      -0.01618935
O       -4.89163859      -9.52450699       8.14273160       0.04436779       0.05271444       0.02506977
C       -1.69571296      -7.68063212      10.14926968       0.00185588       0.00162691       0.03676730
C       -1.83358695      -6.61771983       9.07467868      -0.03481156      -0.04315674       0.00775960
O       -0.92757057      -6.48106087       8.23055852      -0.00770581      -0.05694675      -0.00146684
N       -2.86352774      -5.76662440       9.11503758       0.01396297       0.00116283       0.01988551
Ho      -0.69357684      -8.61913697       6.81623992      -0.00452292      -0.02299818      -0.06948924
H        3.40907836      -9.85416489       8.48220548      -0.04595274      -0.00205992       0.04283493
H        1.89425310     -10.64647878       8.89121276      -0.00434345      -0.01098211      -0.01395568
H        2.82450191      -9.85041187       6.09753955      -0.01776290       0.00819597      -0.01252440
H        2.89812307     -11.45836714       6.78730321      -0.00712016       0.02726367      -0.00440241
H        0.79478676     -12.87717950       6.25540550       0.01508385      -0.01113006      -0.06451793
H        0.77493525     -12.13092057       7.82964204       0.00659160       0.01501058       0.04683948
H       -1.40046495     -13.09769107       7.19715378       0.00281756       0.02582756      -0.01949579
H       -1.49445992     -12.04798980       5.78815126       0.01371020      -0.04185076      -0.01463589
H       -2.31645353     -12.10305124       9.31688714      -0.02664852       0.00502607       0.00629640
H       -0.63462365     -11.63717783       9.20787120       0.02159011       0.02687917       0.04160594
H       -2.99097596      -9.76588046       9.73867582       0.01770985      -0.00359303       0.00160149
H       -1.90013187     -10.41639843      10.94843346      -0.02705500       0.01831988      -0.02615002
H        0.16832912      -9.00691301      11.39355403       0.00949202      -0.00929012       0.02066141
H        0.45788230     -10.24654710      10.19608089      -0.03227236       0.04697752       0.01961397
H        1.12508091      -7.29834421       9.81737390      -0.03034990       0.02320963       0.00130962
H        2.26497893      -8.51389486      10.38738506      -0.00431538      -0.00534919      -0.04500253
H        2.15917051      -6.61315924       8.15183641      -0.00801726      -0.06935203      -0.03970946
H        3.56828571      -7.69830210       8.04295593      -0.07425976       0.04258021      -0.01744466
H       -2.65859022      -7.89161373      10.61024580      -0.01124787      -0.04306965      -0.01379637
H        1.50502220      -9.88223468       4.46495798      -0.04383118      -0.00450984       0.00018988
H        1.42298456     -11.65876798       4.39269851      -0.01130603      -0.00638154      -0.00642659
H       -1.08075875      -7.22670935      10.93428835       0.03643644       0.02369545       0.03216356
H       -3.21714843     -10.90951371       6.09478035      -0.01723025       0.04237110      -0.03605658
H       -3.79095433     -11.72005075       7.57364355       0.02546318       0.05861351       0.00987093
H      -15.46576516      -0.52466638      24.05455270      -0.03548902      -0.00047648      -0.04206963
H      -17.81699873      -1.13614050      24.42974638      -0.01698728       0.01415738       0.01069662
H      -18.38880564       0.02358166      23.25811286       0.00496058      -0.02785277       0.03019550
H       -3.18337063       4.43558279      11.43847657       0.00916466      -0.02948612       0.01347670
H      -17.56148080      -3.03427541      23.64051051       0.03100248       0.00627821      -0.07091933
H       -4.39264029      -2.09113234      17.00562714      -0.03170428       0.01995708      -0.00788063
H      -18.02264988       1.68115587      22.58253641       0.06451495       0.04854053      -0.05170651
H       -4.18445419      -3.88872087      10.63642825       0.01837469      -0.02423790       0.03841720
H       -3.19740253      -6.19798028      12.36501302       0.02388214       0.00853157      -0.01834137
H       -0.91716900       3.42970751      11.36029388       0.01560053       0.02188671      -0.03513886
H       -2.19308064      -4.95219703      11.61727340      -0.00376299      -0.02452087      -0.00482363
H       -5.87229578      -2.27264221      14.51412248       0.06993480       0.00485364       0.09014784
H      -10.96102415       0.49314295      23.99201610      -0.00694042       0.00309388      -0.05945343
H      -16.00983627       0.50096866      21.65254157       0.01837422      -0.02337998       0.02327937
H       -2.59230435      -4.51723245      14.04226897       0.03259678      -0.01064280       0.01982075
H       -3.26146115      -3.22086708      13.06033535       0.00241754       0.00430804      -0.03241941
H       -4.79675518      -5.60595446      14.16277525      -0.01771690       0.00591967       0.03166113
H       -6.44369868      -4.83164330      10.92374644       0.04877670      -0.04002357       0.00278801
H       -5.80134082      -6.12968588      11.92397050      -0.02271939       0.03182849      -0.00661083
H       -5.76645494      -3.15531001      12.61294978       0.03041573      -0.00606838      -0.02895989
H       -6.82865255      -4.36304068      13.32846708       0.01808992      -0.01910111       0.01806414
H       -6.39679470      -0.08037240      15.84870411       0.01834035       0.00999531      -0.01563218
H       -5.27017915       0.17201604      17.15906442      -0.03461090       0.06704053       0.02873489
H       -5.62317287       1.72710054      14.49942410      -0.01045547      -0.00357148      -0.01585503
H       -2.83330755      -1.26766525      15.76259682      -0.00447325      -0.02388875       0.00243913
H       -1.12143716      -0.31717508      14.29789145       0.00353946      -0.03436738      -0.00894662
H       -0.40295168       1.41213640      12.67223895      -0.02512796       0.01732970       0.01667716
H      -16.42353775       0.83205349      24.63025440       0.00552081      -0.01823050      -0.00639324
C       -4.27364121      -4.91757431      11.01760647       0.02289120      -0.01223844      -0.03184400
C       -3.17600632      -5.14290747      12.05846034       0.00520536      -0.01760918      -0.04162772
C       -3.35989479      -4.28623797      13.30331036       0.01900965       0.00703669       0.01062146
C       -4.74211363      -4.53834577      13.92386523      -0.01941296      -0.00425333      -0.03137168
C       -5.66266821      -5.07579099      11.65072820       0.02839372       0.01692927      -0.01124359
C       -5.83112057      -4.21183236      12.90477922      -0.00526649       0.03453323      -0.00142247
C       -4.78351171      -3.84146042      15.27033900       0.00394106      -0.01220787      -0.06520373
O       -4.16617186      -4.29539907      16.21900301      -0.06716877       0.05082929       0.00977576
N       -5.48523505      -2.66885232      15.35813704      -0.02922851      -0.01009944      -0.03949097
C       -5.34241121      -1.82960391      16.53619203      -0.00331968      -0.02332830      -0.00718823
C       -5.39219043      -0.33830964      16.19987414       0.02464816       0.01550692       0.00775130
C       -4.36220789       0.17096663      15.22837442       0.02208972      -0.02090245      -0.04542163
C       -4.64097544       1.26863078      14.44529721      -0.02380985      -0.02566689       0.00787585
C       -3.07366143      -0.40673836      15.15142671       0.05754027       0.02653828      -0.01326746
C       -2.11040410       0.12379514      14.33079524      -0.01102385       0.00001335      -0.00519909
C       -2.37172320       1.26351379      13.53867397       0.01029003      -0.02195787       0.01668327
C       -3.67273260       1.84544956      13.59440124      -0.04080626      -0.00079225       0.00522482
C       -1.39130278       1.85723927      12.71268654      -0.00078833       0.01059002      -0.02259560
C       -1.68070240       2.97996411      11.98033095       0.02223901      -0.04008446       0.01311526
C       -2.96824099       3.55181359      12.02765732      -0.00882246      -0.00177687      -0.02561265
C       -3.94405759       2.99042877      12.81009883      -0.01625139       0.01156768       0.04213473
C       -6.38514707      -2.06366071      17.63353929      -0.02086402       0.02577585      -0.02063406
O       -6.17499309      -1.64193168      18.75781388      -0.00422421       0.00234556      -0.00649798
N       -7.53958569      -2.66076657      17.26592908       0.02286994      -0.05587435       0.01811841
C       -8.56620157      -2.94196114      18.26099924      -0.02279986       0.03136122       0.05057567
C       -9.31233479      -1.68640923      18.70600698      -0.03624682       0.03239465       0.03515677
C      -10.11313966      -1.90206932      19.98513999      -0.00665853       0.01627406       0.03091824
C      -10.83634792      -0.63022285      20.43929723      -0.02392627      -0.00255430       0.03715813
C      -11.11166811      -0.57117990      21.94680173       0.00273901       0.00646651       0.02840027
N      -12.09103258       0.43835471      22.32561106      -0.00565925       0.02193159       0.04093680
C       -9.82944162      -0.35740229      22.76469404       0.04010415       0.01509100      -0.01572700
C      -13.43784995       0.07960212      22.44601591      -0.01540381      -0.03451395      -0.06712145
O      -13.80945896      -1.08166690      22.44349733       0.02144963      -0.01381850       0.00587952
N      -14.26831560       1.14020497      22.63102600       0.00293276       0.00007594       0.00498804
C      -15.70899119       0.99963269      22.58306776       0.00637898       0.01533729      -0.00943413
C      -16.25291616       0.17481862      23.77370287      -0.01534000       0.01115991      -0.02552330
C      -17.54102208      -0.62607536      23.50416296       0.01292202      -0.00939426       0.01696801
C      -17.42096078      -1.61876092      22.35577906       0.08565654       0.03983432      -0.06228620
O      -17.31397280      -1.28266963      21.20714509      -0.09347763      -0.10245685       0.19866252
O      -17.44810117      -2.93162896      22.68744381      -0.00282858       0.15625635      -0.02525604
C      -16.26183181       2.42319139      22.53933742       0.00788295      -0.01173145      -0.03664577
O      -15.56829898       3.40122603      22.45870407      -0.03304419      -0.00380141       0.05891816
O      -17.60032729       2.55043229      22.59659029      -0.02482527      -0.09309959      -0.02529569
O      -10.01953024       0.24945597      23.95025706       0.00030869      -0.04249468       0.00761202
O       -8.73949459      -0.70753365      22.40985046      -0.03142154       0.00194210       0.00302702
H       -4.93688910       3.42373460      12.85063275       0.01639002      -0.00143754       0.00212594
H       -7.57741467      -3.08732853      16.35548397       0.01547659       0.00324063       0.02787055
H       -9.25144706      -3.67841374      17.83731450       0.02801006       0.01169273       0.03229557
H       -8.07110163      -3.38855958      19.12792886      -0.04568079      -0.02313884       0.01711237
H       -8.56846436      -0.91155624      18.90265196      -0.01960200      -0.01131222      -0.04272075
H       -9.96161755      -1.32641847      17.90142428       0.02047810      -0.01654312      -0.02188934
H      -10.84870279      -2.70463538      19.85831727       0.04089075       0.01568285       0.01047240
H       -9.41939359      -2.21056331      20.76749771       0.00573823      -0.02849342      -0.01101962
H      -10.25634977       0.25641215      20.15561157       0.01419353      -0.05306730       0.03498381
H      -11.80325712      -0.55672497      19.93569835       0.00219551       0.03603107      -0.01412041
H      -11.53447033      -1.52445522      22.28101049      -0.01041263      -0.01469037      -0.04562032
H      -11.91732463       1.35986809      21.94804275       0.01062099       0.00138488       0.00193976
H      -13.94028270       2.09174590      22.55818808      -0.01270214       0.01998578       0.00184978
C       -4.13314894      -5.87898281       9.83260350       0.00263265      -0.01238221      -0.03139060
H       -4.26606905      -6.91190120      10.15728666      -0.00953041      -0.00221285      -0.01328042
H       -4.92059017      -5.69911216       9.09658401      -0.02673858      -0.00251567       0.02729040
H       -2.82717439      -5.07880183       8.37511568       0.00055370      -0.02936599       0.03254905
