58
Properties=species:S:1:pos:R:3:forces:R:3 XYZ=T file=T generated=T by=T Avogadro.=T energy=-379.1859436035156 stress="inf inf -inf inf inf nan -inf nan inf" pbc="F F F"
N        1.98458596      -2.18238066       7.09953507      -0.00472197      -0.00195861      -0.00016966
C        2.79306060      -3.38791970       6.89890809      -0.00436547      -0.00037724      -0.00132540
C        2.58694764      -4.04533228       5.54564090      -0.00069970      -0.00082858      -0.00036323
N        1.18878333      -4.41847889       5.26264699      -0.00299545       0.00754072      -0.00197944
C        0.77157302      -5.61277158       6.00101782       0.00093040       0.00288656       0.00084680
C       -0.74058469      -5.76733432       6.07915139      -0.00140238       0.00160202       0.00122097
N       -1.41587275      -4.66900953       6.79276979      -0.00101094       0.00222135       0.00382835
C       -1.27303402      -4.78940059       8.24422126       0.00231725      -0.00020564       0.00498778
C       -1.51842626      -3.47640896       8.97193618      -0.00099063       0.00225257      -0.00079519
N       -0.56064230      -2.42101204       8.59651344       0.00614378       0.00136820      -0.00441852
C        0.75425622      -2.65648899       9.20806482       0.00585738       0.00170377       0.00040528
C        1.86687533      -1.87746950       8.53461079       0.00099415      -0.00176838      -0.00070356
C        2.52758928      -0.99788238       6.39954416      -0.00049472      -0.00295937       0.00158417
C        1.54559056       0.18239865       6.55163306      -0.00128379      -0.00246561       0.00221321
O        0.30235341      -0.14924968       6.40061044      -0.00320327       0.00379293      -0.00159099
O        1.96746886       1.29103208       6.82786970       0.00050604      -0.00054240       0.00210872
C        1.04334380      -4.59252375       3.80045027      -0.00111791       0.00366592      -0.00515690
C        1.23977997      -3.25616915       3.06302262       0.00400138       0.00262785       0.00486720
O        0.85671289      -2.22874541       3.75350762       0.00313672      -0.00199616       0.00222701
O        1.70721699      -3.25539012       1.94408388      -0.00386006      -0.00036001       0.00195408
C       -2.84347072      -4.65760558       6.40874018       0.00203505      -0.00269863      -0.00239873
C       -3.04925591      -4.23256683       4.94628482       0.00644243       0.00309711       0.00189722
O       -2.16538187      -3.38916596       4.52648466      -0.00100416       0.00087512       0.00213808
O       -3.99752215      -4.67475554       4.32948498      -0.00683665      -0.00260204      -0.00185668
C       -1.07275548      -1.10215484       8.96302856       0.00167903       0.00044468       0.00071257
C       -2.10763053      -0.61298503       7.97116379       0.00576381       0.00197661      -0.00417870
O       -2.45332642      -1.30203520       6.99890601      -0.00219668       0.00474611      -0.00651719
N       -2.63502131       0.59120776       8.20285809      -0.00164197       0.00323871      -0.00156701
Pm      -0.45247613      -2.29263865       5.68103539       0.00189413       0.00296974       0.00169817
H        3.86508525      -3.16508756       7.01577944      -0.00438756      -0.00376935      -0.00126942
H        2.54423799      -4.09069472       7.69810072       0.00172818      -0.00512922      -0.00613904
H        2.90407736      -3.35986816       4.76025735       0.00018396      -0.00046194       0.00304353
H        3.24178577      -4.92549378       5.47683686       0.00514905       0.00110978      -0.00195095
H        1.19171124      -6.52088539       5.54364939       0.00303707      -0.00186116       0.00195931
H        1.19356547      -5.55703305       7.00684923      -0.00234877      -0.00038561       0.00642464
H       -0.97763452      -6.73539191       6.54317490       0.00478178      -0.00456655      -0.00316046
H       -1.15477391      -5.79910264       5.07173098       0.00036560      -0.00495113      -0.00122714
H       -1.96643809      -5.54492425       8.64465809      -0.00449413       0.00197503      -0.00121808
H       -0.27027088      -5.15712863       8.46831929       0.00737786      -0.00158343      -0.00139521
H       -2.51730533      -3.11084863       8.73693247      -0.00576624       0.00353928       0.00183264
H       -1.48888690      -3.65932872      10.05714585       0.00069825      -0.00579957      -0.00242707
H        0.73735124      -2.41191708      10.28203934       0.00275085      -0.00083505      -0.00155756
H        0.96236941      -3.72518340       9.14322191      -0.00159776       0.00359514       0.00425583
H        1.69975259      -0.80622870       8.64406380      -0.00403766      -0.00321102       0.00324851
H        2.81275783      -2.08387902       9.05610237      -0.00122911       0.00009733       0.00033434
H        2.61549120      -1.22282277       5.33401052      -0.00126133      -0.00097893       0.00046748
H        3.51029187      -0.71179445       6.79076821       0.00224829      -0.00446884       0.00111903
H       -0.25959787      -0.37526060       8.94393578      -0.00313714       0.00166288      -0.00453645
H        1.74617372      -5.33814217       3.41357730      -0.00133565      -0.00127345       0.00236346
H        0.02758881      -4.92374710       3.57737662      -0.00308371       0.00389554       0.00228051
H       -1.49195391      -1.09102811       9.98254531      -0.00156055      -0.00061439       0.00309706
H       -3.36173090      -3.91103031       7.01399432       0.00213514      -0.00318530      -0.00600334
H       -3.30864537      -5.63320816       6.58724212      -0.00167434       0.00074562      -0.00127313
H       -2.76350575       2.44217524       9.11344460       0.00144285      -0.00759020       0.00493570
C       -2.20555034       1.51726656       9.23584030       0.00217187      -0.00364187       0.00009301
H       -3.25113657       0.92642610       7.47944789      -0.00127870      -0.00447010      -0.00480393
H       -2.42291667       1.12217340      10.22902292       0.00114320       0.00561680       0.00573319
H       -1.14169567       1.74917324       9.15388499      -0.00189722       0.00829362      -0.00389471
