143
Properties=species:S:1:pos:R:3:forces:R:3 XYZ=T file=T generated=T by=T Avogadro.=T energy=-945.5747680664062 stress="inf inf inf inf -inf inf inf inf -inf" pbc="F F F"
N        2.16546923      -7.90127666       9.28801487       0.00236112      -0.01160525       0.01512036
C        2.99495693      -9.06999744       8.98734150      -0.00252409      -0.00628096       0.01176983
C        3.30431608      -9.21546175       7.50591114      -0.00204238      -0.00183995       0.00135595
N        2.10388029      -9.33506305       6.65902414      -0.00877020       0.00235613      -0.00941817
C        1.51756221     -10.67567507       6.72544209      -0.00168687      -0.00688812       0.00058274
C        0.07644074     -10.71923708       6.24204858       0.00423193       0.01592682      -0.00397280
N       -0.83665871      -9.88300403       7.03988006       0.00026838      -0.01907206       0.00363389
C       -1.15653890     -10.51652839       8.31706029      -0.00557963      -0.00309661      -0.00586378
C       -1.71110032      -9.53365352       9.33528063      -0.01288986      -0.01079134      -0.00639287
N       -0.77755617      -8.43770422       9.64835565       0.03233800       0.00170505      -0.02372366
C        0.27166316      -8.90645084      10.56576492       0.01864541      -0.00429633       0.01068580
C        1.50918827      -8.02924966      10.59850609      -0.00101796      -0.00321537      -0.00624052
C        2.94123392      -6.64368485       9.26655554      -0.02310371       0.00913256       0.00374664
C        1.99738402      -5.43748501       9.40788035      -0.01661584       0.04407525       0.00721258
O        0.83825423      -5.61449281       8.85588903      -0.01916671       0.01242846      -0.00853267
O        2.37517382      -4.45187586      10.01143192      -0.01897711       0.00506663      -0.01012754
C        2.46174510      -8.97433286       5.27019190       0.01227610       0.00994539      -0.01502505
C        2.85336105      -7.49360381       5.15400191      -0.00573045       0.02557790       0.02894711
O        2.24839403      -6.73073056       6.00792244      -0.01045623       0.01817822       0.01515639
O        3.65079046      -7.15383187       4.30655509       0.03124952      -0.01311207      -0.02481318
C       -2.05157106      -9.62534001       6.24207399       0.00920308       0.00064063       0.01884007
C       -1.78534115      -8.66924441       5.06703652      -0.00070299       0.00614613      -0.00734985
O       -0.84456180      -7.81672575       5.29618298       0.01322138       0.00235677       0.00316457
O       -2.47263968      -8.76343003       4.06941587       0.00194585      -0.00198437      -0.00446105
C       -1.49994244      -7.29685917      10.22486549       0.00311066       0.00164583       0.00458384
C       -2.39208118      -6.65232925       9.18821411       0.00016975       0.00104442      -0.00595126
O       -1.99103501      -6.53979480       8.02179420       0.01582589      -0.03453597      -0.00343728
N       -3.59623479      -6.16783571       9.52913899      -0.00561371       0.01397194      -0.01233570
Sm       0.35920026      -7.28991441       7.24203787      -0.00480023      -0.02741706       0.01569720
H        3.94545064      -9.02887746       9.54075618       0.00496852       0.01047115      -0.00771335
H        2.47552065      -9.95789853       9.35465279      -0.01520063      -0.01970246      -0.02687048
H        3.85675211      -8.34030536       7.16585280       0.00210965       0.00769615       0.00293883
H        3.97134830     -10.07724339       7.36305010      -0.00670762      -0.01573890      -0.00255464
H        2.10863566     -11.38981328       6.13315162      -0.00039642      -0.00095665      -0.00637349
H        1.57254982     -11.02527715       7.75831311       0.01179724       0.00358677       0.01238930
H       -0.26638223     -11.76535736       6.22529651       0.00857385       0.03683701       0.00126222
H        0.02319528     -10.36451735       5.21333138       0.00870709       0.01400061      -0.00762215
H       -1.88407082     -11.33358816       8.18499801      -0.00099748       0.01358730       0.00542836
H       -0.24967523     -10.98255818       8.70842043      -0.02741316      -0.00051497       0.00374219
H       -2.63103571      -9.09635253       8.94662529      -0.01654124       0.00839795      -0.01089597
H       -1.98715635     -10.07963471      10.24965523      -0.01290547      -0.01361361       0.00926465
H       -0.12462104      -9.00047817      11.58815722       0.00092551      -0.00642329       0.02457094
H        0.54478860      -9.91586773      10.25576947       0.01284674      -0.01064518       0.00462133
H        1.24930249      -7.02867478      10.94419321      -0.00039612      -0.01626050      -0.00643719
H        2.20461521      -8.43773077      11.34735276      -0.01502848       0.00719026      -0.01923490
H        3.43855206      -6.54812047       8.29877272      -0.00679888       0.00884316       0.00563544
H        3.69429122      -6.61145536      10.06207969       0.00283703      -0.04639151      -0.01946700
H       -2.03912117      -7.57802620      11.13626195      -0.02910745       0.00289035       0.00551355
H        1.58685663      -9.10854528       4.63117254       0.00195506      -0.00017409      -0.00993365
H        3.27288754      -9.60016306       4.88492081       0.01405105      -0.02948622       0.00520790
H       -0.76775181      -6.52423808      10.47949814      -0.00969088       0.02156478      -0.01122259
H       -2.79560870      -9.12872141       6.86832002       0.00629695       0.00668935       0.01926161
H       -2.49295718     -10.55714346       5.87122127       0.00380462      -0.01105493       0.00519781
H      -15.67004348      -0.43058268      23.80807375       0.02305983      -0.00001442       0.00758305
H      -18.18550228      -0.69424928      24.17553260       0.01766894       0.00959833      -0.00294173
H      -18.45618709      -0.02715867      22.59502382      -0.00497487       0.01152429       0.02005537
H       -3.22819129       3.40453380       9.90931563      -0.01228345       0.00527666      -0.00165261
H      -15.71435446      -1.95451682      22.35723522      -0.02974394       0.01010324       0.00312141
H       -3.86108621      -1.17908772      17.14694110      -0.00573891       0.00153177      -0.01468404
H      -17.94466294       2.86681794      21.03311286      -0.00572696      -0.00319541      -0.00051537
H       -4.62794470      -4.23204798      11.08349805       0.02787466      -0.00952971      -0.00420223
H       -2.71334099      -5.84774688      12.81675256       0.00931608      -0.00463408       0.00189348
H       -0.89691212       2.58892234      10.07073056       0.00733039      -0.00225560      -0.00388280
H       -2.26260348      -4.70148168      11.55633460       0.03280649      -0.00239117      -0.01027572
H       -5.66082628      -2.08864120      15.01732139       0.00344129       0.00396640       0.01921518
H      -11.52659361       0.11430201      23.99563322       0.01351732      -0.00970820       0.02011524
H      -16.13421671      -0.05411184      21.18500379      -0.00982200      -0.02880508      -0.00532138
H       -2.04456470      -3.73543825      13.86006080       0.02595371       0.00629255       0.00594376
H       -3.21060704      -2.83174743      12.90064087       0.02455228       0.00307946      -0.02331887
H       -3.87511059      -5.03512923      14.89263552       0.01171409      -0.00020650      -0.01798543
H       -6.45423520      -5.37087527      12.25814793       0.04063201      -0.00642305       0.00337498
H       -5.30711008      -6.24631123      13.26724628       0.00065463       0.01779675      -0.01725042
H       -5.67492104      -3.21769349      13.22435798      -0.00747039      -0.01686770       0.00008956
H       -6.26251657      -4.30216473      14.48682556       0.01420571      -0.01877807      -0.00536247
H       -6.02821081       0.40511484      15.66852058       0.01671851       0.00325746       0.00187261
H       -4.89605308       1.02988666      16.83973343      -0.01282880      -0.00702366       0.00084862
H       -5.42259009       1.67818064      13.76398941       0.00290857       0.01805784       0.00599932
H       -2.38904335      -0.53669710      15.82568861       0.01301812       0.01547745       0.01067928
H       -0.77784428      -0.01351957      14.07596147      -0.01086338       0.00760645      -0.00095306
H       -0.20715113       1.17285929      11.96840511       0.01732847      -0.02032615      -0.00655652
H      -16.55631441       1.06179794      23.96515221      -0.01334502       0.01064354       0.01247823
C       -4.38016672      -5.12375775      11.67748095      -0.03110841      -0.00145614       0.01316946
C       -3.01119305      -4.91246817      12.32392212      -0.00750992       0.00276071      -0.00591212
C       -3.01612910      -3.80327203      13.37023681      -0.01407772       0.01439863       0.03898243
C       -4.09783669      -4.06591075      14.42862630      -0.04677632       0.00182027       0.02220581
C       -5.47186675      -5.29891602      12.73666073      -0.00687853       0.00794667       0.01906675
C       -5.46328599      -4.15699542      13.75310577      -0.02679539      -0.00980839      -0.00912240
C       -3.95183653      -3.07339128      15.56932259       0.01713479       0.00574641       0.00586671
O       -2.97652538      -3.10588713      16.30065394      -0.01192653      -0.00412314       0.00504088
N       -4.96115640      -2.16468437      15.73878393      -0.00614840      -0.02211770       0.00911365
C       -4.85461334      -1.08260902      16.70147824      -0.00619513      -0.01782368      -0.00639439
C       -5.00521959       0.28993164      16.04167866       0.02077946      -0.00546414      -0.00892584
C       -4.02797928       0.56157335      14.92862323       0.02198757      -0.00298867      -0.00464931
C       -4.40249646       1.31540059      13.83989277      -0.01275185      -0.01512026      -0.00250107
C       -2.69747931       0.08253038      14.99312278       0.00651436      -0.02990777      -0.00195658
C       -1.78999605       0.36914678      14.00640789       0.00196555       0.00712630      -0.00865453
C       -2.14737974       1.17042883      12.89987500      -0.02474850       0.00472238       0.00457606
C       -3.48946741       1.64717665      12.81350391      -0.01253122       0.04189825       0.01668036
C       -1.22775782       1.52682934      11.88869840       0.00431192       0.00093203       0.01102167
C       -1.61162270       2.31803257      10.83729645      -0.00142568      -0.01975501      -0.00363197
C       -2.93875874       2.78288146      10.74688341      -0.00389329       0.00342238      -0.00452796
C       -3.85562854       2.45405435      11.71241454      -0.00785065       0.00534479      -0.00463291
C       -5.80965770      -1.19321387      17.89576006      -0.00415483       0.00332630       0.01042950
O       -5.85780668      -0.29630988      18.72251285       0.00550692       0.03675687      -0.01473582
N       -6.54495568      -2.32178767      17.98732186       0.00894856      -0.01496345       0.00978309
C       -7.33537134      -2.60590178      19.17787062      -0.01355779       0.01008859      -0.00848782
C       -8.60467816      -1.76617082      19.27287824       0.00250953       0.00112891       0.00604814
C       -9.36227538      -2.03332733      20.57099144       0.00879459       0.00024828      -0.01165989
C      -10.33011549      -0.90093459      20.88937130      -0.00754701      -0.01532915      -0.00627849
C      -11.27872983      -1.13946468      22.06997920       0.01609623      -0.02003098       0.00852418
N      -12.23618310      -0.03832439      22.16747162      -0.00200604      -0.01395851      -0.00576770
C      -10.52241053      -1.33374997      23.39022276       0.02016890      -0.00295234      -0.01492858
C      -13.60007798      -0.30462979      22.12929826      -0.00603795      -0.00408423       0.00286724
O      -14.04254857      -1.44112834      22.26387077       0.03226736      -0.02748388       0.01807022
N      -14.39108512       0.77944049      21.97676921      -0.00457861       0.02880734       0.01279570
C      -15.83202397       0.65460049      21.96244278      -0.00237100       0.02191681      -0.03512360
C      -16.42052222       0.19144944      23.31916335       0.00694730       0.00638141      -0.00608045
C      -17.72699405      -0.57671786      23.19157076      -0.00137526      -0.03380179      -0.01761711
C      -17.68363038      -1.98367909      22.60024121       0.00109488      -0.03054619       0.00460601
O      -18.69981731      -2.61500657      22.47598894      -0.01594806       0.01335156      -0.01724142
O      -16.51243020      -2.51016208      22.22886645       0.01134825      -0.00330226       0.00433470
C      -16.37562852       2.02071994      21.59589160       0.00192964      -0.00709790      -0.01015331
O      -15.74823782       3.04855541      21.67309893       0.00564103      -0.00803381      -0.02236427
O      -17.65578378       1.95923539      21.21242816      -0.00526398       0.01557434       0.00917936
O      -10.82007400      -0.45091867      24.35794831      -0.02735740       0.00031334      -0.01438489
O       -9.71456874      -2.20334242      23.55352409       0.00491834       0.00063843       0.00004071
H       -4.87441842       2.81790276      11.64996173      -0.00211756      -0.01259150      -0.00045613
H       -6.36310885      -3.04692585      17.31447103       0.00335487      -0.00411808      -0.00373778
H       -7.57752647      -3.67062969      19.16963725       0.01985791       0.02037492      -0.00153732
H       -6.71188319      -2.40687866      20.05425842      -0.02409741      -0.02994387       0.00676998
H       -8.30955241      -0.71648798      19.22653188       0.03467344       0.01311791       0.00586573
H       -9.24292420      -1.95962023      18.40513385      -0.00752780       0.00554769       0.00716725
H       -9.90954652      -2.97926686      20.50605077      -0.00280203       0.00672299       0.00931415
H       -8.66161716      -2.14969175      21.39729266       0.00442582       0.03134467      -0.00793383
H       -9.76363713       0.02091225      21.06841428       0.00615712      -0.00724444      -0.00498842
H      -10.96905262      -0.71203275      20.01987546       0.00111702      -0.01064276      -0.01733994
H      -11.84223177      -2.05916460      21.90594724      -0.02419037       0.00042272       0.01341361
H      -11.94425938       0.81153478      21.70784481      -0.02189144       0.02993456       0.00690995
H      -14.02615771       1.71713371      21.91974696      -0.00204979       0.02398422       0.01817928
C       -4.38218960      -6.33410556      10.74342898       0.00294331      -0.00037381       0.00378931
H       -4.03389451      -7.21949324      11.27925510      -0.01461942       0.01016456       0.02019092
H       -5.40633601      -6.55230261      10.42523323       0.01675844      -0.00185571      -0.00261649
H       -4.04393004      -5.68041925       8.76586920      -0.01080309       0.00974755      -0.00758880
