58
Properties=species:S:1:pos:R:3:forces:R:3 XYZ=T file=T generated=T by=T Avogadro.=T energy=-379.1393737792969 stress="inf inf -inf inf -inf inf -inf inf inf" pbc="F F F"
N        2.11154158      -2.20511197       6.90730840       0.00472191      -0.00970164       0.00729870
C        2.76843716      -3.50751901       6.77070021       0.00497970      -0.00258430      -0.00298795
C        2.45905670      -4.20882238       5.46034916      -0.00012931      -0.00364767      -0.00074789
N        1.02242076      -4.44776408       5.23364950      -0.00007132      -0.00287116      -0.00316092
C        0.50785281      -5.55629158       6.04058345       0.00580251       0.00098845       0.00075938
C       -1.00757469      -5.53642705       6.16361992       0.00603399      -0.00925994      -0.00233148
N       -1.52983139      -4.34583107       6.85512838       0.00920928      -0.00490031       0.00084144
C       -1.32476752      -4.42366225       8.30174154      -0.00015404       0.00066358      -0.00383815
C       -1.41988046      -3.06490374       8.97628781       0.00174427      -0.01603860       0.00530449
N       -0.39467017      -2.11189411       8.51156620      -0.00781399      -0.00656430       0.00535467
C        0.92248191      -2.42800263       9.08232324      -0.00559410      -0.00819418       0.01408288
C        2.06942895      -1.79500456       8.31927389      -0.00608280       0.00029323       0.00170933
C        2.78208681      -1.14417814       6.12431961      -0.00173318      -0.01230824       0.00159779
C        1.95405310       0.15430436       6.17194853      -0.00541973      -0.01862895      -0.00227206
O        0.67219832      -0.04356277       6.16274682      -0.03446054       0.00904809       0.02664692
O        2.52136251       1.22864375       6.22775470      -0.00622487       0.00959802       0.01244311
C        0.81772550      -4.68522795       3.78881150      -0.00089592       0.00623620      -0.00834839
C        1.09457632      -3.41519465       2.96790110       0.01371109       0.00360423      -0.02637362
O        0.85426303      -2.31974640       3.61622131      -0.00511168      -0.00222921       0.00177982
O        1.48720487      -3.52194974       1.82526202       0.00735372       0.01325934       0.02065706
C       -2.96519843      -4.21346596       6.53157492       0.00838903       0.00350446       0.00191414
C       -3.19750205      -3.78933895       5.07231012      -0.03708035      -0.01985892      -0.01631737
O       -2.26154134      -3.03933836       4.59554115       0.01630080      -0.00909102      -0.00378537
O       -4.21250957      -4.15095157       4.50974893       0.02257156       0.02065271       0.01040864
C       -0.78766383      -0.74597774       8.85359680      -0.00106615       0.00244737      -0.00127077
C       -1.91807431      -0.26454475       7.97129153      -0.01204848      -0.01114339      -0.05139315
O       -2.21527168      -0.84972673       6.92216514      -0.00434138       0.01841110       0.04239868
N       -2.58097798       0.82799508       8.37231345       0.04560363       0.00766686      -0.01455879
Gd      -0.36103756      -2.10659001       5.59157049      -0.01190038      -0.00086455       0.01895317
H        3.86071925      -3.40488561       6.86180300       0.00342375      -0.00576941      -0.00069950
H        2.45427379      -4.13335004       7.60987530       0.00344059       0.00805143      -0.00216302
H        2.82114842      -3.60238634       4.63067350      -0.00123975       0.00381491       0.00790110
H        3.01791004      -5.15458342       5.42391433       0.00220855      -0.00325075      -0.00602841
H        0.81413847      -6.52473552       5.61758208       0.00259096       0.00634462      -0.00652198
H        0.96416812      -5.50253898       7.03122269       0.00281510      -0.00014703      -0.00012356
H       -1.34316107      -6.45511314       6.66596152       0.01264337      -0.00768682       0.00934012
H       -1.45367666      -5.55169805       5.16928837       0.00149217      -0.00047664       0.00169262
H       -2.06045285      -5.09800122       8.76731262      -0.00290415       0.00786541       0.00319204
H       -0.34688149      -4.86809616       8.49535081      -0.00346518       0.00009776      -0.00048427
H       -2.39593980      -2.63034604       8.76254355       0.00166193      -0.00403573       0.00957604
H       -1.36166009      -3.19789669      10.06730173       0.01070645      -0.00756815       0.00418115
H        0.97521186      -2.11841876      10.13796975       0.00308743       0.00228640       0.00495997
H        1.03114981      -3.51304105       9.08253576      -0.00160766      -0.00004920      -0.00329856
H        1.99081919      -0.70856056       8.35541768      -0.00609598       0.00250357      -0.00592875
H        3.01390117      -2.04466727       8.82477325      -0.00863296       0.00107099       0.00466605
H        3.79469328      -0.94866601       6.49472895       0.00515729      -0.00689226      -0.00986798
H        2.83904568      -1.45361482       5.07822439      -0.00214917      -0.00205497      -0.00208104
H       -1.05389920      -0.65201993       9.91789021      -0.00159551       0.00174064      -0.00731313
H        1.44611800      -5.50607080       3.42580609      -0.01108071       0.00481400      -0.00082526
H       -0.22634010      -4.94761330       3.61100787      -0.00630021       0.00838015      -0.00448790
H        0.05031195      -0.06928199       8.66274787      -0.01253897      -0.00096843      -0.01419310
H       -3.50595348      -5.14295319       6.74141543       0.00420424      -0.00165838       0.00731259
H       -3.39524790      -3.42328984       7.14908090      -0.00731930       0.01644978      -0.00601019
C       -2.27406724       1.63537231       9.53744042      -0.00126725       0.00255787      -0.00626275
H       -2.85080441       2.55468060       9.47230266       0.00973217       0.00385800       0.00656215
H       -2.55129584       1.12809114      10.46360982       0.00132554       0.00504714      -0.00906083
H       -1.21657006       1.90190482       9.56635158       0.00140619       0.00236546      -0.00392757
H       -3.27225076       1.16166763       7.72001066      -0.00599256       0.00482088      -0.00486934
