53
Properties=species:S:1:pos:R:3:forces:R:3 XYZ=T file=T generated=T by=T Avogadro.=T energy=-350.0027770996094 stress="inf inf -inf inf -inf nan -inf nan -inf" pbc="F F F"
N        2.88346530      -2.00806374       7.13612252      -0.00289276       0.00258274       0.00429219
C        2.13668400      -2.91998650       6.28966496       0.00383854       0.00116402      -0.00094378
C        2.48012013      -4.41636984       6.40520364      -0.00122047      -0.00415117       0.00077347
N        1.57393973      -5.27861533       5.67936027      -0.00010908      -0.00224467      -0.00035432
C        0.34674498      -5.68642240       6.32860803       0.00110221      -0.00205839       0.00269924
C       -0.78067712      -4.64143471       6.24036764      -0.00407887      -0.00434047       0.00188871
N       -1.95331095      -4.85741959       7.06664435      -0.00430207      -0.00260109      -0.00007011
C       -2.04325124      -4.03221406       8.27425144      -0.00084460      -0.00047638       0.00005418
C       -0.72893733      -3.85548216       9.05137664       0.00713059       0.00438761       0.00188100
N       -0.04516525      -2.60575568       8.72521618       0.00570531       0.00514008      -0.00369542
C        1.36933992      -2.55927963       9.09447085       0.00429821       0.00348774      -0.00210881
C        2.14988085      -1.49901940       8.29882434      -0.00410345       0.00184143       0.00168309
C        3.47793349      -0.91336533       6.39581590      -0.00136191       0.00011140       0.00329220
C        2.53223728       0.06373899       5.62993960      -0.00406700       0.00353932       0.00071174
O        1.42124409      -0.43659407       5.18494514      -0.00353289      -0.00433511      -0.00085348
O        2.90970363       1.20529523       5.45497152      -0.00195503      -0.00067973       0.00439966
C        1.68327422      -5.34241353       4.25183215      -0.00202915       0.00805300      -0.00443560
C        1.13023396      -4.22080115       3.31393095      -0.00523785       0.00027668      -0.00062501
O        0.40596594      -3.29152230       3.84989516       0.00056595      -0.00417292      -0.00270030
O        1.40560091      -4.30842576       2.13425864      -0.00649589      -0.00330993       0.00261116
C       -3.18449610      -4.80573263       6.30865174       0.00105101       0.00319207      -0.00305599
C       -3.51802624      -3.51688963       5.49177713      -0.00075835      -0.00194073       0.00067484
O       -2.53650201      -2.70418002       5.25113673      -0.00080550       0.00323963       0.00677699
O       -4.65658393      -3.38613778       5.08987888       0.00255513       0.00107178      -0.00000536
C       -0.78502434      -1.44551227       9.20513120       0.00013638       0.00142580       0.00089192
C       -1.47923588      -0.57437359       8.13769498      -0.00071955       0.00445664      -0.00011414
O       -1.01516278      -0.70519260       6.94202277       0.00280848      -0.00163304      -0.00055599
O       -2.35305332       0.18906002       8.49063668       0.00582898       0.00072408      -0.00384676
H        1.07433765      -2.80637420       6.52249836       0.00488433       0.00154166      -0.00320907
H        2.27444081      -2.63986858       5.24887611      -0.00386254       0.00326903      -0.00232753
H        3.49961002      -4.56694910       6.03438272      -0.00445646      -0.00218084       0.00002192
H        2.48490490      -4.73559170       7.45037760      -0.00201703       0.00447813       0.00347146
H       -0.00294403      -6.62105228       5.87933972       0.00265656      -0.00049093      -0.00048488
H        0.57748147      -5.91639468       7.37210109       0.00067123      -0.00327240       0.00348333
H       -0.35016280      -3.67503976       6.51153918       0.00141419      -0.00057817      -0.00268230
H       -1.08061933      -4.58073211       5.19830058       0.00281440      -0.00084195      -0.00284201
H       -2.43555389      -3.03178719       8.02972354       0.00156075      -0.00018960      -0.00348072
H       -2.78782266      -4.50156803       8.92273868      -0.00515085      -0.00159580      -0.00339901
H       -0.94959403      -3.91779653      10.12853230      -0.00235845       0.00033711       0.00358462
H       -0.06126810      -4.68874454       8.83104249       0.00242844      -0.00128227       0.00302688
H        1.49263669      -2.35445402      10.16963615      -0.00463601      -0.00201637      -0.00217116
H        1.81438312      -3.53952624       8.92018238      -0.00261499       0.00087011      -0.00240183
H        1.44040404      -0.71392933       7.99044019      -0.00200438      -0.00046459      -0.00173385
H        2.88984957      -1.02037984       8.94499208      -0.00450298      -0.00058812      -0.00231943
H        4.08041885      -0.30065563       7.06452932       0.00315677       0.00220537      -0.00058982
H        4.15041824      -1.31992014       5.63397978      -0.00299159      -0.00609910       0.00218889
H       -1.55434493      -1.72123864       9.93109875       0.00153413      -0.00025409       0.00595573
H        2.73518958      -5.43672120       3.96874096      -0.00133306      -0.00529230      -0.00222395
H        1.19684184      -6.25424063       3.89104522       0.00708005       0.00392926       0.00235255
H       -0.11615391      -0.75699715       9.73175863       0.00070667      -0.00311130       0.00093219
H       -3.18482552      -5.60722214       5.56402966       0.00189274       0.00071239       0.00396156
H       -4.03618005      -4.98602724       6.96434337       0.00739449      -0.00324265      -0.00387260
La      -0.58990587      -1.52526537       4.90191231       0.00722708       0.00140791      -0.00450641
