141
Properties=species:S:1:pos:R:3:forces:R:3 XYZ=T file=T generated=T by=T Avogadro.=T energy=-926.6326293945312 stress="-inf inf inf inf -inf -inf inf -inf -inf" pbc="F F F"
N       -3.54516383      -0.87465277       6.65671861       0.00253408      -0.04699993       0.07236630
C       -3.52991956      -0.57416654       5.21190392       0.01543921      -0.01961684       0.08352797
C       -2.38084077       0.32409743       4.68724590      -0.01869267      -0.00863630      -0.00230575
N       -1.34964217      -0.28678097       3.84253412      -0.03095271      -0.00717941      -0.00238068
C       -0.59579819      -1.33881963       4.46432609      -0.03032133       0.01031373       0.01169369
C        0.46753345      -0.87590428       5.47772382      -0.00809181      -0.04046813      -0.00948015
N        0.59746931      -1.84690758       6.56154995      -0.00273290       0.00175893      -0.01279680
C        0.76548130      -1.30402649       7.90802948      -0.03378537      -0.02258283      -0.02675869
C        0.08030508      -2.19020401       8.95671754      -0.06100982       0.05521369      -0.04384523
N       -1.22382205      -1.73850779       9.49534102      -0.05438182      -0.04211855      -0.04351234
C       -2.18119990      -0.92035774       8.73076149       0.00957096       0.02073002      -0.00522587
C       -2.31807896      -1.35605371       7.26589343       0.02591129      -0.00183022       0.03040469
C       -4.71231690      -1.65828454       7.02311718      -0.04272250      -0.01318431       0.02176872
C       -4.83446736      -3.12221928       6.56486195       0.07960892       0.02977180       0.01383781
O       -3.86208886      -3.60902707       5.83982680       0.08267847      -0.00123678      -0.03882241
O       -5.78510626      -3.78009416       6.93618706      -0.15422642      -0.06101060      -0.00926003
C       -1.73175964      -0.51151125       2.45348610      -0.01352066      -0.02551281      -0.01113325
C       -2.61455392      -1.71589883       2.07460878      -0.04172361       0.00787210      -0.06020260
O       -2.44367688      -2.79592431       2.81671480       0.00813729       0.00201124       0.01429257
O       -3.36856205      -1.67221638       1.13287013       0.02916580       0.07578745       0.03135610
C        1.45431972      -2.98180550       6.26548714      -0.00400120      -0.02399319       0.02947047
C        0.84588045      -4.18432585       5.51487921       0.11538368      -0.09461141      -0.04285210
O       -0.46745639      -4.23572122       5.42158760       0.00309986      -0.01322044       0.02047780
O        1.58810930      -5.03807869       5.08258255      -0.09095997       0.12913644       0.02950138
C       -1.59490552      -2.27638680      10.61196592       0.05142802       0.10495138      -0.03555441
C       -2.92382136      -4.82198071       8.91467731      -0.03810495      -0.01178442       0.00684398
O       -2.03228829      -4.60438713       9.74038817       0.04514414      -0.06447783      -0.07695007
N       -4.23105144      -4.79543050       9.17961247       0.01401009      -0.04668127       0.01459019
C       -4.74735692      -4.57814939      10.52464998       0.01171821      -0.01977187      -0.01791175
C       -4.49077652      -5.78725747      11.42008561      -0.01312056       0.02516496      -0.02932622
C       -4.92715015      -5.48904818      12.84129345       0.03256068      -0.01907787      -0.01121238
C       -6.38739742      -5.00246800      12.93859839       0.00117713      -0.02221817      -0.02344328
C       -6.23120682      -4.22481813      10.49967406       0.03884241      -0.01876582       0.03636843
C       -6.69904260      -3.89944633      11.92301437       0.00687310       0.02515987       0.00750995
C       -6.50915301      -4.65052653      14.41512176       0.01885220      -0.02417451       0.01794344
O       -6.41735289      -5.50880134      15.27139705      -0.01334080       0.02640164      -0.01045907
N       -6.57036153      -3.31909482      14.73610462      -0.02587499       0.09923553      -0.06411771
C       -5.93704309      -2.82395879      15.95365589       0.00214916      -0.00037807       0.02769941
C       -5.95880741      -1.29123632      15.98292372      -0.00542468       0.00351113       0.01501775
C       -5.02883888      -0.50037817      15.09347330      -0.00364555       0.00289966       0.00627309
C       -4.88064773       0.83917365      15.38374041       0.00362459      -0.00220260       0.00331232
C       -4.32160200      -1.03122038      13.99235642       0.00760936      -0.00014884       0.02360080
C       -3.51662356      -0.22209986      13.22388390       0.00326081      -0.00004914      -0.00293827
C       -3.36447042       1.15157300      13.49824713      -0.01048819      -0.00443907      -0.00664616
C       -4.06696329       1.69294499      14.61515311       0.00662479      -0.00262751      -0.00582594
C       -2.54889578       2.00857793      12.72229504       0.00442868      -0.01101069      -0.00627536
C       -2.43443355       3.33861385      13.03184366      -0.00388160      -0.00526065      -0.00236883
C       -3.12718566       3.87249954      14.13891898      -0.01026392      -0.00003375       0.00175528
C       -3.92074458       3.06781900      14.91268437      -0.02261379      -0.00233802       0.01255485
C       -6.60190545      -3.24641073      17.26862499       0.00729162      -0.00158783       0.00070655
O       -5.95352910      -3.16200209      18.29711006       0.00002360      -0.00279233      -0.00226319
N       -7.91725914      -3.54348652      17.22378097      -0.03249812       0.08872626       0.00216600
C       -8.71892014      -3.42662865      18.42870661       0.04795589      -0.01069060      -0.00714725
C       -9.24794974      -2.00291667      18.61598215      -0.00233823      -0.04404992       0.00152773
C       -9.56672634      -1.65435809      20.06114934      -0.00108691      -0.00780910       0.00505230
C      -10.31096799      -0.33003584      20.15659031      -0.01382525       0.00748245       0.00326115
C      -10.29632186       0.28445029      21.55661633      -0.04855692       0.00354385       0.01126001
N      -11.46171280       1.11817254      21.84967755      -0.02089226       0.01329705       0.01842940
C       -9.00426083       1.05549899      21.81496871      -0.00239134      -0.00511843      -0.03624922
C      -12.61081412       0.42756565      22.29312768      -0.00392874      -0.03765762       0.01721400
O      -12.53897065      -0.71096575      22.71815918      -0.02675004       0.03079379      -0.01721537
N      -13.73657445       1.19441324      22.25180791       0.00220235       0.00869048      -0.01269919
C      -15.12138808       0.76968897      22.45034569       0.01947127      -0.00309092      -0.00284940
C      -15.31437744      -0.38974422      23.42310599      -0.00787902       0.02271730       0.00514963
C      -16.69673792      -1.03044991      23.29877385      -0.01844802       0.01540390       0.01236326
C      -16.85549395      -1.82071682      22.01205287       0.05409086      -0.04000966      -0.04317504
O      -15.99254067      -1.98175308      21.19775686      -0.05829811       0.01814008       0.03696561
O      -18.08067681      -2.36782690      21.82395318      -0.00219905      -0.01430899      -0.03574264
C      -15.84707496       2.08025169      22.80926953       0.01893237      -0.14318681       0.10070938
O      -15.72686346       3.06535499      22.13887126       0.00457193       0.11023778      -0.09152234
O      -16.61283351       2.09167926      23.91700322      -0.00923118       0.00392509      -0.00755531
O       -9.13989639       2.11056434      22.63558597       0.00539374      -0.01224740       0.02226391
O       -7.94567391       0.74641454      21.34282409      -0.06625271       0.03617340       0.03936276
H       -3.57358197      -1.48992438       4.59834606       0.02563670       0.05682048      -0.01735877
H       -4.47666783      -0.05851818       5.02479700       0.01897532      -0.06666185      -0.03617193
H       -2.82552440       1.11717538       4.08558515       0.01298507       0.03867349       0.02627082
H       -1.89338716       0.81853444       5.53235082      -0.05329698       0.02461742      -0.00351673
H       -1.25881662      -1.96894757       5.10449954       0.02871512      -0.00133643      -0.00731980
H       -0.15765832      -1.99138572       3.70427920       0.00346635       0.04811214       0.02050823
H        1.41324145      -0.66800811       4.95634274       0.00207698      -0.02452255       0.01661788
H        0.12765665       0.07585227       5.89313219       0.07780796      -0.01008573       0.01922955
H        1.82456525      -1.18848227       8.19018222      -0.02674910      -0.02238250      -0.01686174
H        0.34545009      -0.29521004       7.93960870      -0.00571290      -0.01443788       0.00933426
H       -0.12527381      -3.18105013       8.53555999       0.07299092      -0.01816148      -0.03151299
H        0.70464744      -2.33427485       9.83954213       0.04825151      -0.01231059      -0.07038793
H       -3.12458645      -1.00590291       9.26854329      -0.03114486       0.02095614      -0.03687628
H       -1.87687319       0.12859504       8.77947712       0.05260271       0.03116921       0.01696360
H       -2.18596664      -2.44858747       7.21394126      -0.05891673      -0.01361859      -0.00324903
H       -1.48576340      -0.92323281       6.73633594       0.00200710       0.00500205      -0.03608896
H       -4.80762490      -1.71887764       8.10956047      -0.00421661       0.07091743       0.01851624
H       -5.61575433      -1.14972680       6.68452019      -0.04745042       0.02366039      -0.01341920
H       -3.03348821       4.92551162      14.37240020       0.01761942       0.00394999       0.00102330
H       -2.22390725       0.38244790       2.07494424       0.00717045      -0.01025811      -0.01189480
H       -0.81562054      -0.63422823       1.86633467       0.01302829      -0.01090164      -0.02645236
H      -16.50158486       1.25266333      24.38271220      -0.01540925       0.00246191      -0.00026208
H        2.36793506      -2.70478995       5.72112257      -0.00517681      -0.00146967      -0.01419371
H        1.80744838      -3.41439129       7.20513830       0.03501697      -0.00907397       0.04888391
H       -1.81329036       3.98871329      12.42847350       0.00796960      -0.01757066      -0.00988515
H       -0.89900656      -2.90011587      11.14919988      -0.03625694       0.00822005       0.00125740
H       -2.58383753      -2.09504498      10.99818798      -0.00789964      -0.03848441      -0.01978905
H      -10.09000760       2.16558793      22.84781793       0.01978463       0.00106686       0.01489082
H       -4.88722146      -4.90671192       8.41611819      -0.00331816       0.03420962      -0.02104300
H       -4.81505225      -6.36249112      13.48056355      -0.00932534      -0.04663399       0.03636789
H       -4.27367644      -4.71853745      13.27067531       0.04625472       0.04576115      -0.07102400
H       -7.04278428      -5.85801599      12.75925864      -0.02659991      -0.04581121      -0.02502243
H       -6.41098643      -3.35943158       9.85234516       0.02623209      -0.09367874      -0.00424017
H       -6.80090775      -5.05970841      10.07363048       0.01974861       0.01320110       0.07345570
H       -6.18922108      -2.96992930      12.20411707       0.06618953      -0.00233012      -0.01383953
H       -7.76884352      -3.67761764      11.92540619      -0.02291659       0.00499966      -0.01227406
H       -6.99122909      -0.97632667      15.78246152      -0.01010439       0.02459294       0.04089004
H       -5.75258149      -1.00147355      17.01447690      -0.03264998       0.01325580       0.01487604
H       -5.40188647       1.25481579      16.24036332      -0.01255474       0.00274284      -0.01253957
H       -4.39343990      -2.08812056      13.75916565       0.00122644       0.00522293       0.02992905
H       -2.96452796      -0.63479061      12.38823390       0.00837771       0.01053674       0.01115987
H       -2.01119048       1.59638804      11.87511381      -0.00639436      -0.01841719      -0.01176285
H       -4.45477753       3.47015834      15.76434337      -0.00863567       0.02377377       0.01257780
H       -8.36167671      -3.51951798      16.32277232      -0.04071292      -0.05093969      -0.06014115
H       -9.53438157      -4.15073392      18.40295825       0.02833393      -0.00136751      -0.00357694
H       -8.05545832      -3.69121813      19.25000706       0.01281434       0.00016529       0.04977140
H       -8.48629346      -1.30247450      18.26199115      -0.00753382      -0.00630355       0.00182429
H      -10.13409508      -1.85261473      17.98959241      -0.00441989      -0.00841254      -0.02862604
H      -10.17045457      -2.43564978      20.53239572      -0.01526852      -0.01809677      -0.01040292
H       -8.63003307      -1.59176688      20.61687830       0.01253223      -0.00047853       0.01033577
H       -9.88336063       0.38646692      19.44803339       0.00386423       0.01882058       0.01069389
H      -11.35351512      -0.48398478      19.86940390      -0.02005878       0.00444188      -0.00686952
H      -10.32971636      -0.51914060      22.29807096       0.00752836      -0.02532646      -0.01370052
H      -11.64953390       1.80693805      21.13142477       0.01449444       0.01645587       0.00192639
H      -13.68324650       2.10292702      21.81407267       0.02393293      -0.00420777       0.03178202
H      -15.53750935       0.46260475      21.48282831       0.01723334       0.01454630      -0.01957041
H      -15.11608130      -0.07451299      24.45396341       0.00547549       0.02546639       0.01597105
H      -14.55857100      -1.14057647      23.20619401      -0.01006573       0.00062770       0.02074108
H      -16.86374764      -1.72097367      24.13215968       0.02152834      -0.02629903      -0.01802799
H      -17.51757398      -0.30399904      23.34182721      -0.00647175       0.05012432       0.00643599
H      -18.67355403      -2.13582622      22.54730681      -0.00264844      -0.01497637       0.02789867
H       -2.69947957      -5.04999007       7.85850601      -0.02512714       0.00237655       0.07269952
H       -4.19870260      -3.72555195      10.94905106      -0.01483521      -0.01485506       0.02552940
H       -5.04114509      -6.64522947      11.01742462       0.01090434       0.01167206       0.02606775
H       -3.42715159      -6.03636219      11.40572437      -0.06429726      -0.00679160      -0.05043760
H       -6.59902621      -2.67338917      13.96313521       0.02283834       0.02549687       0.07920112
H       -4.90944005      -3.19061169      16.01529999       0.03137571       0.00375594       0.04752427
Lu      -2.26140224      -3.74992638       4.58799563       0.07787025      -0.01053041      -0.05338934
