190
XYZ file generated by Avogadro.
N     -5.4445082921   -1.0058321472    5.8553947022
C     -5.4293644422    0.0071267684    4.0084885395
O     -8.7760952853   -1.1017316324   12.0428695036
C     -0.5146756965   -5.1750111244    1.3239097837
C     -3.9471391117   -2.1035651261    5.1002273158
C     -4.5785210080    1.2928205623    2.3762335742
N     -3.9917128963    1.7717878629    0.4150428594
C     -3.0606316223    0.6439590737    0.1934275449
C     -1.7619322631    0.8011270476    1.0542934096
C     -6.5752122417   -1.1657209323    8.0798808934
N     -0.9071009472   -0.3822655939    1.2933732973
C     -1.4706666131   -1.7304432759    1.4815440837
C     -0.7542152834   -2.6537510945    2.5123838954
N     -1.4288474666   -3.9543438797    2.6417380205
C     -3.0547853784   -3.3768441928    3.6420090158
C     -3.5205411299    3.1383674508   -1.1288610279
C     -3.1811559710    3.6997418040   -3.1883026430
O     -3.3562311421    2.6851367875   -3.8343765155
C     -7.9984646441   -0.7763971285   10.1741535060
C      1.1296891391   -6.2631154864    0.7119614918
O      1.7779591713   -6.5068198071    1.7105392350
C      0.5547860483   -0.2296128332    1.2281108060
C      1.2514896191   -0.0492465641    2.5677729544
O      2.1098096614   -0.8474114502    2.9303667814
H     -5.6746291396   -0.8510282296    3.3698324901
H     -6.3931511809    0.5168361722    4.0963409465
H     -5.2568398837    2.1385780797    2.5103015970
H     -3.6851113856    1.5918421294    2.9138417644
H     -3.5849511814   -0.2783649782    0.4577337785
H     -2.7876657676    0.5751017751   -0.8644423025
H     -1.1611226112    1.5825204160    0.5828304806
H     -2.0103473027    1.1804042426    2.0413891426
H      0.2875472929   -2.8113076709    2.2229187579
H     -0.7636134205   -2.1576798052    3.4864183678
H     -2.5173592916   -1.6233293317    1.7757108177
H     -1.4459935215   -2.2266384769    0.5094292010
H     -3.7854218038   -3.3180284910    2.8295159857
H     -3.2771892934   -4.3307377139    4.1249169329
H     -3.6562538748   -2.6477998445    5.9987192590
H     -3.2283133838   -1.2912739048    4.9909763251
H     -9.7610026189   -0.9783127617   13.6934796040
O     -8.5650613207    0.2411795104    9.8370857726
H     -6.8819421932   -2.2108203322    7.9719142910
H     -5.6447890366   -1.1810801809    8.6471279028
O     -2.7218623334    4.9431789008   -4.3439622235
H     -2.4139383870    5.5431015710   -5.7562718418
H     -3.9095032772    4.0819994806   -0.7461684725
H     -2.4489054978    3.1694217099   -0.9149578273
O      1.8773211235   -7.0358560357   -0.5939345029
H      2.9504283996   -7.8519826648   -1.2119896836
H     -1.3080246904   -5.8805879797    1.0702175045
H     -0.4960112445   -4.4908887153    0.4678075719
H      0.8147929286    0.6150383733    0.5825631384
N      0.9961671413    1.0775523535    3.2668069715
C      1.6936902721    1.5485998968    4.4877081159
H      0.2833937572    1.6998830465    2.9038558410
H      3.4457658122    4.3738629593    4.6365245525
H      3.3497047482    6.0846468326    2.8551565073
C      3.2409211227    1.6821723728    4.3284494452
C      3.5280761546    2.7170879836    3.2558227103
H      3.6935359718    2.0071784532    5.2672606663
H      3.7053359346    0.7260113491    4.0794587010
H      3.6731685709    1.2838719183    1.6483548122
C      3.6416023157    2.3368451259    1.9186748043
C      3.4986988218    4.0703801379    3.5932885765
H      3.4281972469    5.4014180732    0.4692927585
C      3.4555056886    5.0358522504    2.5904193556
H      3.7039916212    3.0068919567   -0.1257406242
C      3.6409971743    3.3060264414    0.9169934174
C      3.5039560038    4.6512459879    1.2524871392
C      1.3203353192    0.8676492070    5.8123978683
H      1.3287558747    2.5642030752    4.6555686736
O      1.8112126283    1.1625767882    6.8439022750
N      0.2267415784    0.0383088278    5.7346770163
C     -0.1824119199   -0.8199430141    6.8537236560
C     -1.6862138625   -0.6869546169    7.2069685066
S     -1.9718043841    0.2805961017    8.7331522304
N      0.8291528309   -2.7964701296    7.7193492086
C      0.3082267229   -2.2445274968    6.5977888749
O      0.5882907755   -2.6627830157    5.5050947819
H     -1.3899938654   -0.5458424359    9.6097458556
H     -2.2108907524   -0.1644031524    6.4042056279
H     -2.1446181539   -1.6692995668    7.3455539760
C      1.5954881057   -4.0410113261    7.7810711160
C      0.2554547274   -5.2053246805    7.3302475602
O      7.5369788546    0.3307182193   12.4330307449
C      2.7162719785   -3.6516861542    9.2543626562
O     -0.6527156164   -5.1176417119    8.1339391127
H      4.9877180253    0.9641961088   10.6057084162
N     -0.2334046050   -6.0129627387    6.0827110135
H      5.2064012830   -3.8360737602   11.0338693011
H      8.1657442532    1.2861715349   13.0579719214
C      5.1107275536   -0.1055785366   10.7757626168
C      6.2816292500   -0.4400318658   11.6748563975
H      3.3408624339   -0.4316702405    9.4945875498
H      2.2739718774   -4.0813824844    6.9264791923
C      3.9378213860   -2.4514219350    9.9656577726
H      2.0289363037   -3.8130629941   10.0925180563
H      3.3101931261   -4.5696157255    9.2724542534
C      5.0869862144   -2.7621521474   10.8683011798
H      6.8328266798   -2.4723137685   12.1338357948
C      4.1067816788   -0.9659887861   10.0649129131
C      6.0785657934   -1.9163205523   11.5707333490
C     -1.6254729660   -7.0550006352    5.6519205261
C     -1.6093987946   -8.0342837546    6.8764662522
H      0.5377509361   -6.2020797085    5.4588173770
H     -0.2674208305   -7.4853741955    9.5344126690
C     -2.3144588837   -8.0208627481    4.2015311770
H      2.2388573375   -7.9226910611    9.5377000608
C     -0.2288028439   -8.3249445725    7.4697086312
H     -2.4600154633   -6.3688804776    5.8212877798
O     -1.4850442016   -8.1073699981    3.3150407564
H     -2.1901063138   -7.5485792222    7.6735453634
H     -2.1365946259   -8.9560923135    6.6367485749
C      0.2392341440   -7.9426691758    8.6902800041
C      1.9744391771   -8.5370061390    7.5798462948
C      0.9803799661   -8.7894691959    6.6919033646
N      1.6660920954   -8.0901460947    8.7086919185
H      4.1755728277   -8.7460196117    7.7934656244
C      3.4379578186   -9.5866354161    5.9591278133
H      4.4465008821   -9.9665496906    5.6256193406
H      0.2033559109   -9.5941167889    4.8826426757
H      2.4598401714  -10.3876598449    4.1979892758
C      3.3608842915   -8.9572455596    7.1235571581
C      1.0381654097   -9.3831665166    5.5394131064
C      2.3705317677   -9.8581738657    5.1055050375
N     -3.6911539221   -8.6582070054    3.7266154405
O     -6.8100885598   -9.8153375251    1.8017986422
H     -4.4224177530   -8.2924744031    4.3224139805
C     -4.4711413330  -10.0685478048    2.8513608806
C     -5.1119849503  -10.6818873369    4.1636903702
C     -5.8413437211  -12.0694333437    4.1809070163
C     -5.8011222286  -10.5031437610    1.6153678426
N     -6.1263808322  -11.6698104252    0.6139165434
C     -4.9151622686  -13.3028954726    4.1325699796
H     -6.4212067100  -12.1348877854    5.1079662821
H     -6.5870261806  -12.1470572386    3.3888056704
C     -4.0412967535  -13.4648191942    5.3996418188
H     -5.5341007938  -14.2008899307    4.0372787036
H     -4.2950362206  -13.2422012849    3.2373953971
N     -2.8977075446  -14.3437400356    5.1141581756
H     -3.6538458204  -12.5010056334    5.7319472563
H     -4.6334238980  -13.8926322521    6.2149657295
H     -2.4402166629  -14.0499163618    4.2538939693
H     -2.2075213336  -14.2608112153    5.8592793377
C     -7.3243934391  -12.4422564279   -0.5405756409
H     -5.2835907922  -12.2273965067    0.5258298904
C     -9.2092515927  -11.5595811170   -0.3558928874
H     -8.5534289540  -14.9918515946   -0.0643541464
C     -6.6702167218  -14.5117756104   -1.0504951226
O     -9.6972767801  -12.1380376985    0.5948191790
C    -13.7816838766   -8.1193024392   -0.3831755298
N    -10.3547997995  -10.3286658872   -0.7750286673
N    -15.2736616630   -7.4151102317   -0.9606592870
S    -12.9072036524  -11.3510971327    1.6499657199
H     -9.9404398050   -9.7487192130   -1.4924624116
C    -12.2153198147   -9.5715680218   -0.4311180211
H    -12.7939506754  -10.3814960530   -0.8781948143
O    -13.7048517186   -7.6031011269    0.7111853157
C    -12.0357675128   -9.8598524817    1.0953065938
H     -5.8668312597   -9.9645575085    4.5002223432
C    -17.0268424205   -6.4022108690   -0.5524493572
H     -7.0640559403  -11.9485887288   -1.4814770209
C     -7.9364104066  -15.3538799685   -0.8858344866
O     -5.5966906798  -15.9461288697   -2.1007053658
H     -5.0903736759  -17.3485456372   -2.4828892999
H     -6.1262148426  -14.6444097525   -0.1112956379
H     -8.5089503470  -15.3542223062   -1.8145750190
H     -7.6458520941  -16.3867518971   -0.6692286186
H    -15.3310224346   -7.6352811947   -1.9428348267
C    -16.7959621955   -6.1246756381    0.9176148121
H      0.9629983800   -1.1365313593    0.7763711696
H    -16.7637364793   -7.0468643725    2.8609456755
C    -18.5298417272   -4.9955959752   -1.0598729204
O    -15.9379149830   -5.3302301445    1.2454348525
O    -17.9736336196   -4.1755034672   -1.7565939446
C    -17.2540164535   -7.1925110723    1.8952804623
O    -20.1473766395   -4.4220143346   -0.7962731390
H    -21.3324066429   -3.4653267398   -0.9845803695
H    -14.0266623239  -11.0235679394    1.0051633008
H    -18.3347890375   -7.1436516358    2.0490880952
H    -17.0006235215   -8.1927297771    1.5345830387
H     -0.1367816619   -0.1725929351    4.8318546588
H      0.3512150632   -0.4980302318    7.7457977068
H      0.3469236572   -2.5683311242    8.5704238278
H     -3.6447622283  -10.7222647385    2.5533021985
H     -4.3649130678  -10.6874560435    4.9570320682
H    -10.9776410702   -9.9989264664    1.3434910530
H    -12.3108780411   -9.0207701769    1.7284728587
H    -17.6961169270   -7.2691812169   -0.5576766642
