53
Properties=species:S:1:pos:R:3:forces:R:3 XYZ=T file=T generated=T by=T Avogadro.=T energy=-351.97454833984375 stress="inf inf -inf inf inf nan -inf nan inf" pbc="F F F"
N        2.16284930      -2.18782518       6.96177175       0.00292638       0.00025675      -0.00146456
C        2.81720621      -3.49055858       6.89772036       0.00048643      -0.00077876      -0.00040260
C        2.57366111      -4.21326297       5.58291343      -0.00194950      -0.00369139      -0.00002706
N        1.15638740      -4.49061066       5.32271556      -0.00067421      -0.00268565      -0.00224310
C        0.66887991      -5.61599202       6.11260602      -0.00038183      -0.00077900      -0.00000554
C       -0.84699830      -5.65009148       6.22219030      -0.00163239       0.00060338       0.00342840
N       -1.41155029      -4.46733290       6.88111818      -0.00293308      -0.00016358       0.00124389
C       -1.23407395      -4.51003933       8.32785799      -0.00030288       0.00033832       0.00058718
C       -1.38424722      -3.14644429       8.98185990       0.00272703       0.00188661       0.00159517
N       -0.39748689      -2.16540213       8.51615350       0.00063719       0.00259405       0.00175402
C        0.91400485      -2.38532627       9.11493133       0.00074442       0.00017425       0.00047070
C        2.03575124      -1.71060773       8.34351402       0.00327182      -0.00202253      -0.00148736
C        2.87619543      -1.17401542       6.16671814      -0.00149822       0.00101900       0.00005402
C        2.05811330       0.12638812       6.05455220      -0.00053617      -0.00236011       0.00589716
O        0.78582807      -0.06286147       6.05614208      -0.00239635       0.00230423       0.00190982
O        2.65602060       1.18217163       5.96786148      -0.00421178       0.00038004       0.00027889
C        0.96428981      -4.70633538       3.87778241       0.00110042       0.00153422      -0.00053504
C        1.26243997      -3.42615301       3.07458263       0.00335193      -0.00040233       0.00477958
O        0.98929922      -2.34284871       3.71208057       0.00238827       0.00335765       0.00030220
O        1.70660036      -3.53905791       1.94776377      -0.00263035       0.00289072       0.00093412
C       -2.82918342      -4.33085510       6.50444287       0.00036231      -0.00000799      -0.00136745
C       -2.98934970      -4.04884201       4.99893012       0.00366879      -0.00372065       0.00183010
O       -2.00541175      -3.39280453       4.49095501       0.00092661      -0.00110900      -0.00333393
O       -3.99520388      -4.44034311       4.43893121       0.00135660       0.00467962      -0.00065947
C       -0.90400596      -0.80863995       8.77853778      -0.00091398      -0.00000672      -0.00139546
C       -2.16772311      -0.50757474       7.94917332       0.00080240      -0.00454873       0.00218040
O       -2.20791373      -1.12988985       6.82400941      -0.00343651      -0.00093079      -0.00113750
O       -2.98622970       0.26866216       8.40360920       0.00085950      -0.00004339      -0.00458729
La      -0.37259613      -2.10417020       5.65297777       0.00172980      -0.00290467       0.00294773
H        3.90390190      -3.39339267       7.04595266       0.00231731       0.00077780      -0.00326125
H        2.45396637      -4.10049226       7.72723842      -0.00367580       0.00310910       0.00306192
H        2.94365072      -3.59951395       4.76316417       0.00003642      -0.00456959       0.00024000
H        3.16470484      -5.14067437       5.57053067       0.00309604      -0.00126162      -0.00074596
H        1.00962012      -6.57368198       5.68947017      -0.00277141      -0.00206846      -0.00336146
H        1.10980756      -5.55488339       7.10962224       0.00373213       0.00446067      -0.00007269
H       -1.14471457      -6.57176803       6.74314890      -0.00112741      -0.00320876      -0.00154573
H       -1.27667387      -5.70397905       5.22334380      -0.00155824      -0.00113998       0.00358707
H       -1.95238219      -5.20130525       8.79563572      -0.00337142       0.00161815       0.00141038
H       -0.24310447      -4.91504608       8.54333653       0.00210574      -0.00149051      -0.00500382
H       -2.37300883      -2.74734529       8.76200514       0.00192663       0.00100859       0.00301771
H       -1.33196018      -3.26864302      10.07342129      -0.00234775      -0.00023786       0.00234410
H        0.94186757      -2.02479887      10.15486695       0.00108965       0.00391056       0.00094625
H        1.09555705      -3.46085453       9.16510953      -0.00451045      -0.00287664      -0.00206469
H        1.85349724      -0.63761048       8.30555141       0.00415970      -0.00148037       0.00016699
H        2.97835251      -1.84715583       8.89340105       0.00247222       0.00049680       0.00252335
H        2.99329576      -1.53932796       5.14505151      -0.00257281       0.00438160      -0.00064358
H        3.86583455      -0.95489278       6.58379214      -0.00198022      -0.00215743      -0.00170936
H       -0.15845416      -0.08162144       8.45149653      -0.00335121       0.00094694      -0.00226377
H        1.58364843      -5.52945255       3.50487857      -0.00180218       0.00035182       0.00141578
H       -0.08551893      -4.93620050       3.68905250       0.00222734       0.00243125      -0.00363412
H       -1.11210604      -0.65221618       9.84294200       0.00234805      -0.00052422      -0.00256917
H       -3.24762690      -3.45805626       7.00934251      -0.00178273      -0.00027186      -0.00389284
H       -3.40710397      -5.21873157       6.78252340       0.00149843       0.00193092       0.00050847
