53
Properties=species:S:1:pos:R:3:forces:R:3 XYZ=T file=T generated=T by=T Avogadro.=T energy=-379.2021484375 stress="-inf inf inf inf inf -inf inf -inf -inf" pbc="F F F"
N      1.0194723874   -3.8032823771    4.9609218777
C      1.6370141232   -4.9012031924    5.7145131909
C      1.2871475713   -6.2491997248    5.1148348337
N     -0.1711809910   -6.4143089227    5.0352788872
C     -0.6565621244   -6.9255882334    6.3243936051
C     -2.1499361260   -6.7110887703    6.4734558969
N     -2.4951135028   -5.2936427262    6.2922522409
C     -2.2005912161   -4.5634210868    7.5305838231
C     -2.2278689184   -3.0641931591    7.3086305537
N     -1.2991238944   -2.6869734480    6.2337405365
C      0.0400465043   -2.5167309066    6.8136857186
C      1.1128812418   -2.5628396858    5.7443042853
C      1.7230580553   -3.6099889188    3.6915300249
C      0.9380299089   -2.6322891705    2.8531349619
O     -0.3229366806   -3.1634944405    2.5968727125
O      1.5999772793   -2.4148983740    1.6447549690
C     -0.4664357344   -7.3937659724    3.9872031534
C     -0.2123574728   -6.7388130877    2.6531645170
O     -1.1295925829   -5.7042378847    2.5022186719
O     -0.3985902994   -7.6693234983    1.6308187890
C     -3.9212869124   -5.1900543400    5.9783916297
C     -4.1539376837   -5.7617223118    4.6025805421
O     -3.4265564613   -5.0228390158    3.6737222905
O     -5.5109235331   -5.6855234611    4.2888666441
C     -1.7475477812   -1.4133833649    5.6666828970
C     -2.9843152941   -1.6821106965    4.8469419504
O     -2.6196835053   -2.4832298822    3.7706000054
O     -3.5034651953   -0.4795386535    4.3680567565
La    -1.3113967966   -4.3191845707    4.3703915373
H      2.7419832029   -4.7845315887    5.7630779370
H      1.2961492300   -4.9197709012    6.7657577628
H      1.7813191081   -6.3309642544    4.1269405278
H      1.7607512843   -7.0640065315    5.7066272425
H     -0.4185164296   -8.0052444378    6.4477132542
H     -0.1478352930   -6.4400619075    7.1779473728
H     -2.4958408824   -7.0897800317    7.4601516723
H     -2.6549624318   -7.3614406508    5.7334223009
H     -2.9121894924   -4.8379948148    8.3397885350
H     -1.1978065771   -4.8093839624    7.9246150605
H     -3.2720050826   -2.7597977832    7.0994803101
H     -1.9935240248   -2.5338674050    8.2585007690
H      0.1170044890   -1.5633900989    7.3817823787
H      0.2664050568   -3.2966802540    7.5644231678
H      0.9890150658   -1.6599422715    5.1151545381
H      2.1189711413   -2.4483439648    6.2043307357
H      2.7604749127   -3.2441799417    3.8555747375
H      1.7735491755   -4.5385566217    3.0891696464
H     -1.9574060385   -0.6677141106    6.4651631663
H      0.1556018656   -8.3088052332    4.1031375777
H     -1.5308238057   -7.7053295446    3.9827161510
H     -1.0043605791   -0.9692821847    4.9737182859
H     -4.5419432637   -5.7175066137    6.7353068807
H     -4.2652297866   -4.1386458973    5.9183918173
