9029
Lattice="45.0 0.0 0.0 0.0 45.0 0.0 0.0 0.0 45.0" Properties=species:S:1:pos:R:3 Built=T with=T Packmol=T pbc="T T T"
N       20.10608600      26.51063600      19.95938400
C       19.89820000      27.86844000      20.48966600
O       19.34641300      25.22577300      17.65305000
C       22.26164300      23.73811200      17.87493500
C       21.10306500      25.78491100      20.78817100
C       21.08209100      28.77842800      20.20284100
N       21.40265300      28.80890500      18.76730500
C       22.75857700      29.34469300      18.47965900
C       23.88097200      28.97774900      19.44619300
C       18.83241500      25.75561900      19.90894900
N       23.95781400      27.57778500      19.84529900
C       24.08404200      26.66003800      18.71565400
C       23.73287100      25.22087700      19.08152100
N       22.30460700      24.84696500      18.86066300
C       21.59293400      24.52224100      20.11067400
C       20.42927800      29.67236200      18.04876800
C       20.39942200      29.39278900      16.54073900
O       20.51134600      28.12885800      16.27017400
C       18.75987200      24.78968100      18.72192500
C       22.73956300      24.28186200      16.52124400
O       23.48715800      23.65441900      15.80762100
C       25.03085900      27.33971700      20.82553300
C       24.57343400      26.77318600      22.16852800
O       24.99573400      25.70179100      22.58788800
H       17.14181800      21.98449200      23.14125100
H       18.01257500      26.46474800      19.76302800
H       19.71470900      27.84541400      21.57304500
H       20.86152400      29.78705100      20.58166300
H       23.01314800      29.04153500      17.46047000
H       22.71674900      30.44090400      18.46328000
H       24.81557300      29.32630900      18.97632200
H       23.77188100      29.57422900      20.35955800
H       24.34561800      24.55766700      18.46940100
H       24.00429700      25.02846900      20.12378600
H       23.43517800      26.99270500      17.90242800
H       25.09992000      26.68439500      18.28832100
H       21.22367400      23.41247200      17.76726800
H       22.87635500      22.88929700      18.18551700
H       20.75196400      23.86710900      19.87351600
H       22.23081800      23.96925300      20.80799200
Lu      20.98737100      26.53018700      17.56166600
O       18.16571100      23.73120100      18.82400500
H       21.95035300      26.45028700      20.95154700
H       18.99276100      28.26567700      20.03045800
O       20.24144300      30.29597700      15.75077300
H       14.41723500      22.35811700      17.73740400
H       19.58594000      20.68572600      20.01256900
H       21.95189900      28.39563800      20.73010100
O       22.26826100      25.47581600      16.27926200
H       18.38400500      17.08805400      20.00038400
H       20.63386000      30.73077400      18.23766800
H       19.42582300      29.45301400      18.42206700
H       25.57358800      28.26916800      21.03445700
N       23.69444000      27.54850000      22.85602600
C       23.46204700      27.50300300      24.30440400
H       23.53456400      28.45858900      22.45234000
H       27.14332400      27.61006700      23.81125400
H       24.24410100      30.26004500      25.51287600
C       24.77504900      27.62157700      25.11721500
C       25.60631800      28.80299500      24.71556200
H       24.48241400      27.69122600      26.16818900
H       25.34447200      26.69991100      24.99066900
H       27.75451200      31.85064000      23.63431500
C       26.81305500      28.61785200      24.04008400
C       25.17905400      30.10528400      24.98321100
H       28.52932300      29.54633500      23.14652600
C       25.94662000      31.19599300      24.59432200
H       25.60428600      32.20001200      24.81160100
C       27.58856100      29.70926700      23.65923200
C       27.15521800      31.00047900      23.93444800
C       22.68498800      26.32489400      24.90624200
H       22.83710500      28.36880300      24.52168600
O       21.96697400      26.54979100      25.87153900
N       22.93323700      25.08511200      24.43775800
C       22.55659700      23.92459800      25.23283000
C       21.17913000      23.34662900      24.91541800
S       20.96785800      22.89760200      23.16082900
N       24.40732200      22.66106700      26.15650600
C       23.65222500      22.88542000      25.05735300
O       23.83416300      22.33090900      23.98310200
H       13.25924700      23.55032400      21.57385800
H       20.43520100      24.10609700      25.14724600
H       20.99418100      22.47265800      25.54257100
C       25.43920700      21.63944500      26.19385500
C       24.77669500      20.35583300      26.70700900
O       29.29614000      26.64919800      25.16292500
C       26.58867300      22.06370900      27.11300300
O       24.45537700      20.23524200      27.88409900
H       27.24225400      26.68511800      26.88834300
N       24.52248000      19.43134700      25.76996500
H       28.70535600      22.21045100      25.40531800
H       28.87324300      27.45765900      25.47086200
C       27.56628400      25.70229200      26.56319800
C       28.62753500      25.57590900      25.67014900
H       26.09921500      24.68258000      27.73442900
H       25.78604100      21.51366900      25.16784300
C       27.31288300      23.29063800      26.63326000
H       26.17593400      22.21420700      28.11381900
H       27.27634200      21.21703900      27.18677000
C       28.38039700      23.19027300      25.73880300
H       29.87172200      24.22682300      24.57422900
C       26.92123900      24.56598100      27.03588900
C       29.03966700      24.31153400      25.26102400
C       23.81815900      18.21289900      26.07690500
C       24.61410700      17.25632600      27.02536700
H       24.80652900      19.55978200      24.80911900
H       26.62283800      18.61416300      28.66401200
C       23.47496700      17.55170200      24.74443400
H       28.99771200      18.26831500      27.95312900
C       26.09859000      17.33258300      26.93821100
H       22.89222800      18.47145500      26.59853200
O       24.23830000      17.59483900      23.79614900
H       24.31842200      17.52020100      28.03995400
H       24.27143900      16.23314800      26.84467900
C       26.90229000      18.01491400      27.81361800
C       28.30648500      17.07622500      26.34111300
C       26.97893200      16.71926200      25.98606800
N       28.22351900      17.87037000      27.45569700
H       30.41900900      16.93317300      25.89929300
C       29.17771900      15.83608700      24.51867000
H       30.01425100      15.48844200      23.92650800
H       25.77621500      15.63084500      24.56783000
H       27.73082400      14.83897100      23.28144500
C       29.41307800      16.64634500      25.61675600
C       26.77703400      15.90055500      24.87247800
C       27.87428900      15.46704200      24.15153000
N       22.29145400      16.88341700      24.74911800
O       21.49524800      18.77986100      22.97993300
H       21.66826400      17.11938500      25.50334800
C       21.65206000      16.42017100      23.52865900
C       22.45388000      15.31209000      22.83725100
C       22.40856100      14.00687000      23.62678200
C       21.28085000      17.63176700      22.63830700
N       20.63124400      17.29422600      21.50654700
C       23.32220400      12.91295400      23.08004000
H       22.67563100      14.20965400      24.66925600
H       21.37609900      13.64528000      23.64437300
C       24.78704100      13.13810000      23.42652200
H       23.02642300      11.93702200      23.47208100
H       23.21624200      12.85262500      21.98972900
N       25.61476600      12.08703700      22.83933000
H       25.08599900      14.15375900      23.12146500
H       24.90996200      13.08841000      24.51305900
H       25.60271700      12.16872900      21.82938900
H       26.58165800      12.20017300      23.11770900
C       20.06996000      18.26288500      20.59957700
H       20.52224100      16.32834600      21.24969600
C       19.11384800      19.21089400      21.34356800
H       18.14118700      19.11221500      18.65424000
C       19.28093100      17.50226600      19.52130300
O       18.43831000      18.83336500      22.28129500
C       16.62576600      20.80980300      20.81602000
N       19.05778700      20.46988100      20.84060500
N       15.56978100      21.57672000      21.19418400
S       19.00355500      23.39687100      22.89378000
H       18.12604400      22.27086100      20.58888400
C       18.00652900      21.38357300      21.22017000
H       18.64965800      25.21239600      20.83844800
O       16.50306200      19.80203200      20.14909900
C       18.12162100      21.81430600      22.69312100
H       23.47592000      15.66310800      22.69615500
C       14.21533900      21.30796400      20.76001800
H       14.15938800      20.25524200      20.47759900
C       18.87490900      18.36915400      18.34839900
O       20.13687500      16.42689500      19.10298600
H       20.87066800      18.84082400      20.12277200
H       19.72568700      16.00372200      18.34365300
H       19.74805400      18.84995800      17.90277200
H       18.40189800      17.75326200      17.58031800
H       15.69784700      22.43941900      21.69900300
C       13.22505000      21.64889700      21.88153400
H       25.76369800      26.63006800      20.43898700
H       12.63955700      21.01668800      23.83849900
C       13.94856200      22.17999100      19.53927000
O       13.45251700      22.97888400      22.33079400
O       13.32379600      23.21690700      19.56495400
C       13.35898800      20.72825900      23.07344100
O       14.53341400      21.70127500      18.43956400
H       20.67415300      25.53542500      21.76563800
H       12.21630600      21.56809500      21.45894900
H       13.17103500      19.69244000      22.79144700
H       14.35999600      20.79318600      23.49943200
H       23.62154300      24.97413200      23.69615400
H       22.50338800      24.26292800      26.27107000
H       24.10104800      23.02834200      27.04347000
H       20.69288000      15.99315600      23.84195300
H       22.04800700      15.14004700      21.83734600
H       18.61459000      21.03999900      23.27584100
O       35.45717900      40.34966800      21.04298400
H       34.80053400      39.74266000      21.39238900
H       35.11838100      40.59566600      20.17849400
O       16.85671100      39.90854100      20.63688700
H       16.21280500      39.22300300      20.44414700
H       16.40301800      40.72820500      20.42485900
O       34.76108300      42.75742700      29.27817900
H       35.43875300      42.69364500      28.60111200
H       34.27843600      43.55812000      29.05776400
O       34.03408400      27.12018300      15.81170400
H       33.86648800      27.04145500      14.86966500
H       33.23815300      27.52795000      16.16222100
O       37.56975600      12.46088500      43.60426900
H       36.65584300      12.28689900      43.84137000
H       38.08132500      12.02181000      44.28848600
O       32.98188000      40.00224000      35.82159900
H       33.81707100      40.34689800      35.49695900
H       33.23052300      39.40174500      36.52886500
O       38.93794500      13.24744200      29.19594700
H       38.20690000      13.82637500      29.42427600
H       39.70216800      13.82860400      29.16668400
O       37.81542700      37.50957100      37.07242600
H       37.95687500      37.96395400      36.23860700
H       36.86834000      37.57165200      37.22012500
O       41.87686100      33.09506600      34.28963900
H       41.17128100      32.46521400      34.12481100
H       41.86013200      33.22834200      35.24074300
O       13.95106100      12.63382100      30.61650200
H       14.66703200      12.03930900      30.38056400
H       14.29146200      13.13226500      31.36371200
O       18.27274500       0.99665500      32.42179300
H       19.22613400       0.97263600      32.31134700
H       18.14531100       1.25435400      33.33830400
O       28.10383600      37.65187100      33.33849300
H       28.94730600      37.31829000      33.02383800
H       27.57478100      36.86341300      33.48367100
O       38.98116000      23.53760300      22.12442400
H       38.04271700      23.39990900      21.97579500
H       39.23358700      24.19008800      21.46625500
O        9.47262200       6.15013700       5.80376800
H        9.38355800       7.07177300       6.05749900
H       10.11830000       6.15992800       5.09267900
O       27.56706500       2.04453800       0.68147000
H       28.45343800       2.35621500       0.48417300
H       27.08183400       2.83927600       0.91723400
O       12.98206100       6.20485400      17.35157500
H       13.12541600       6.92768500      17.96695200
H       12.28886000       6.52280700      16.76760600
O        8.21895700      33.33640200      11.66348200
H        8.51463900      34.12632100      12.12209400
H        7.31407600      33.53338300      11.40847100
O       25.16079400       1.61126300      38.18290700
H       25.60708000       2.40610300      38.48420800
H       24.22631100       1.81117100      38.27996200
O       20.99020700      19.16374900      31.31182900
H       21.26690300      20.04726500      31.56592600
H       20.06059500      19.25962900      31.08986200
O       21.40329600      32.07785400      11.29023100
H       22.10482100      31.42283600      11.26702700
H       21.35000900      32.40222700      10.38768800
O        5.79300900      21.23427500      16.62112700
H        5.51593500      20.98610000      15.73604900
H        5.77421900      22.19462200      16.61636000
O       34.68202000      28.99568000      37.34590200
H       35.31353300      29.43462500      37.92057000
H       33.83172100      29.14723800      37.76621500
O       39.80513200      36.44880400      31.44048200
H       39.24712300      36.56248900      32.21341600
H       40.34784100      37.24106200      31.41960000
O       23.42866100      19.00315800       4.29445400
H       23.99447300      18.24389300       4.13603000
H       23.92860100      19.54958100       4.90611100
O       19.98200400      36.50754300      34.08724000
H       20.43179200      37.25791300      34.48266400
H       19.89285400      36.74423600      33.16059500
O       37.42639500      36.53326000      39.27341800
H       37.20488300      37.45781300      39.40705300
H       37.41860400      36.15612100      40.15679100
O       34.10487100       8.29742700      27.56440400
H       34.59514400       8.34381700      26.74026400
H       33.20110800       8.50798300      27.31637000
O       36.71677100      10.66284600       4.67664100
H       36.50586300       9.92457300       4.10027700
H       36.78233600      10.27132400       5.55131500
O       26.19204200      39.23881500      31.63979000
H       25.70328900      40.01846700      31.36594800
H       25.52273300      38.55491900      31.72317700
O       33.22346200      44.82837700      39.06439900
H       32.36423200      44.43613900      39.23644100
H       33.85052600      44.19685200      39.42579900
O       25.71661100      35.34919700      19.72226800
H       25.13397800      34.61468400      19.92904000
H       25.38523200      35.68856900      18.88700900
O       28.41258800      13.51988500       7.46292300
H       29.01043800      12.90555100       7.89523500
H       27.90554500      12.97303700       6.85752500
O       23.39794100      17.10249400      34.16741600
H       24.15302100      16.67847900      33.75294100
H       22.75504700      17.18986500      33.45911100
O       12.61501600      24.26249000       7.37110500
H       12.13682100      24.46519400       8.17854800
H       11.94408500      23.91659500       6.77709300
O       20.34280300      23.86160000      33.68302500
H       21.09827300      23.30656200      33.89020600
H       20.32821200      24.51642000      34.38562000
O        4.04693800      13.57245800      12.60886000
H        3.59092300      14.37534500      12.87182100
H        4.66121600      13.85912900      11.92832800
O        9.63245200      41.48372500      33.02953100
H        9.85698200      41.66837500      32.11453700
H        8.68380700      41.33356500      33.01661600
O       27.20829200      42.91463500      36.36451000
H       26.50891100      43.36308800      35.88338600
H       27.27103500      43.39308600      37.19504500
O       15.68804300      27.14875000      29.82015900
H       16.12757500      27.31022100      28.98202800
H       14.78604200      27.44661600      29.67763700
O       10.50443100      22.27918900      38.90534900
H       10.55576400      21.44519700      39.37815700
H        9.95181300      22.08767900      38.14339100
O        8.54760000      12.24955400      40.77801700
H        8.22863500      12.15011500      39.87796300
H        8.47051300      13.19036200      40.95572200
O       36.40698600      32.90484200      20.30669800
H       36.36429800      33.46133600      21.08786200
H       37.34646000      32.81975900      20.12561400
O       26.45036700      35.58858700      12.11993400
H       25.64847400      35.58850400      12.64784700
H       26.46698000      36.45790100      11.71169400
O       28.53425000       8.45848100      20.40594800
H       28.21908800       7.55618100      20.31510900
H       28.76567200       8.72138700      19.51153900
O        9.76773700      14.66813100      44.73619600
H       10.36829900      13.92258000      44.80833200
H        9.13423900      14.40000100      44.06580200
O        8.92780500      37.82850600      42.00715500
H        8.60017300      38.24330100      41.20570300
H        8.42922400      38.24728200      42.71333200
O       34.95873600       1.23938000      18.01292500
H       34.94933300       0.28081400      18.06572900
H       34.55837800       1.43523900      17.16204600
O       40.93176100       7.13376600      33.29238100
H       40.18376900       7.36818900      33.84670800
H       40.83966500       7.69456600      32.51800100
O       37.44498300      29.20073700      15.51577300
H       38.16085100      29.52253700      14.96286900
H       37.40659500      28.25875300      15.33183200
O       15.34274300      12.54165900      28.31404500
H       14.50625700      12.12575400      28.09259900
H       15.15074300      13.48277800      28.30545900
O       28.91948900      30.49078400       3.22184100
H       28.02221500      30.35371300       2.90905400
H       29.01015000      29.88288500       3.96000200
O       15.20442600      29.82171400      30.68770800
H       15.89459800      29.70462300      30.03068700
H       15.67888500      29.91847000      31.51726700
O       38.56095200      27.57997100      19.40676200
H       39.47017800      27.82693700      19.59126300
H       38.47984700      27.66395300      18.45334100
O        0.82691900      38.12201400      32.05363000
H        0.00909900      37.62597200      32.13632600
H        0.78886700      38.76501300      32.76619300
O        4.92944600      23.53011500      15.07790400
H        3.98928300      23.43587700      14.90779000
H        5.26298100      24.00893900      14.31493400
O       30.00871800      17.43255100      14.02572000
H       29.28169200      17.33768700      14.64552600
H       30.62269500      18.02478900      14.46722800
O        7.06304600      28.00657300       7.83765100
H        6.17351400      27.77195500       7.56304000
H        7.63387300      27.48468100       7.26806600
O       11.93226000      10.16636200       8.37518700
H       11.92503600       9.64982300       7.56595300
H       11.68499000      11.05135000       8.09537300
O        6.67530000      42.67758500       3.96784100
H        6.41372500      43.30506500       3.28992400
H        6.33967600      43.05538800       4.78470200
O       16.61766900       5.69144100       5.97419400
H       17.10936200       5.93219800       5.18552500
H       16.98230400       4.84107300       6.23218000
O       34.85628100      14.97881200       6.72338200
H       35.15654600      14.44923300       7.46575200
H       33.89808900      14.92610500       6.76499200
O       44.96462200      10.44190900      10.73551600
H       44.94268900       9.48251900      10.76406500
H       44.12795600      10.68764700      10.33271900
O       23.92366100      40.88024700       8.72288700
H       23.46123400      41.16307600       9.51528500
H       23.39569600      40.15204900       8.38580900
O       41.42421500       0.01598500      23.70702600
H       41.92171700       0.74453700      24.08574700
H       41.33589700       0.24485500      22.77833800
O       15.85154000      22.16611100      27.16596300
H       16.13953800      21.61762500      27.89941100
H       15.48598500      22.95004600      27.58364500
O       36.54116700      44.12404000       1.90954700
H       37.16078900      44.79108600       1.60484600
H       36.17475300      43.75280000       1.10297200
O        8.41374500       7.75430500      18.24253800
H        8.51337300       8.69204500      18.42265600
H        9.17751900       7.53250600      17.70393200
O       36.05503600      41.57165800       5.36351800
H       36.48256700      40.73521500       5.16526400
H       36.64909500      42.00198700       5.98364200
O       44.23980400       8.25259100      35.27376000
H       44.74765700       8.66197400      34.56933500
H       44.55692400       8.67788700      36.07451000
O       39.04070200      37.97662300      20.44006000
H       39.23322700      37.05507200      20.25190000
H       38.49835800      37.94993800      21.23239400
O        8.05121900       5.50450500       8.59175000
H        7.49480200       5.84527800       9.29602200
H        8.04330000       6.19650500       7.92563000
O        5.05184700       6.32953700      35.17182200
H        5.28891100       7.24494200      35.00580800
H        4.88678800       5.96393700      34.29904900
O       39.63992000      19.84179700       9.78080600
H       40.00272100      19.08599700       9.31297500
H       40.22692200      20.56726800       9.55329400
O       17.71055000      13.83483100       4.65154300
H       16.88097700      13.97287600       4.18842700
H       17.87284100      14.66691400       5.10314200
O       39.49109900      33.61289200       6.44992500
H       38.99207500      34.12981500       5.81314300
H       39.17526400      32.71408700       6.32728500
O       41.74808700      23.90782600      13.01580200
H       42.69373500      24.03847900      12.91380200
H       41.56869700      23.08858700      12.54749900
O       32.35569000       3.31017900      32.68490400
H       32.31256000       4.08958100      33.24383000
H       33.08665700       2.80015800      33.04296400
O       43.44705100      44.78762700      14.52357900
H       43.33841900      43.84264200      14.65368300
H       44.28451200      44.99193200      14.94732500
O       19.78703900      43.85186200      14.47271400
H       18.93312200      44.28550600      14.53982900
H       19.99395300      43.59194800      15.37397600
O       42.24104600      23.90786200       4.69318700
H       41.63636500      24.64572200       4.80111300
H       41.97606500      23.28128900       5.37129700
O       26.62250900      26.58675800       9.08394600
H       26.37558600      27.42367700       9.48434600
H       26.78072200      26.80140500       8.16115800
O       26.56629300       8.04269200      36.51840300
H       27.42175100       8.43117900      36.71587500
H       26.29496800       7.63172200      37.34310200
O        7.90603700       4.13107900      44.99657900
H        8.78947800       3.78126400      44.85915400
H        7.33130900       3.36568700      44.91592600
O       37.15555100      40.71217600      17.36589400
H       37.97184500      40.32185100      17.68688700
H       36.47185800      40.32072100      17.91541100
O        6.68140400      35.85387800      18.04594900
H        6.92185600      36.46771500      17.34801500
H        5.75620600      36.04308800      18.22159200
O       36.64538200      22.96268600      37.84106600
H       35.89056000      22.52145100      37.44448100
H       36.95751600      22.34708600      38.50908700
O       15.01334800      37.56963100      39.58533300
H       15.93032600      37.52434500      39.30457700
H       15.01226100      38.21998600      40.29221300
O       31.86111200      43.32985900      28.42654700
H       32.13344400      43.99698500      29.06097800
H       31.04664800      42.97340000      28.79017800
O       34.17201300      17.64626400      20.51624400
H       34.68814800      16.99621700      20.03378300
H       34.72813600      17.88678400      21.26157700
O       16.27470700      15.37384400      32.18776700
H       16.71975200      14.54918600      31.97896000
H       15.95455500      15.25144500      33.08507600
O        0.61311100      39.97240400      10.01033700
H        1.37035800      40.27383900       9.50295300
H        0.25492100      39.24528600       9.49493200
O       35.10142500       2.08292100       9.33485900
H       34.84623400       1.96962700      10.25342700
H       35.49978700       2.95642000       9.30406300
O       26.54796900      29.52168600      33.48710500
H       25.71112500      29.75370000      33.89647800
H       26.52944600      29.96833900      32.63692800
O       16.55206000      11.27780300      36.04586900
H       15.66959500      11.29346600      35.66806400
H       16.70631300      10.35265500      36.25310700
O        6.11391200      22.25623100      18.93691000
H        6.28563700      21.32771400      18.76344100
H        5.17284700      22.29343900      19.12573700
O       15.52629500      22.07732500      35.09847000
H       15.16920200      21.66974800      35.89099200
H       15.89565100      22.90967100      35.40411600
O       17.61449000      37.93835100      40.81869700
H       18.51616300      38.17023000      40.58429700
H       17.27468700      38.72009500      41.26147500
O       38.94718600       4.52157000      40.35208500
H       39.80146400       4.87001500      40.61764100
H       39.15085500       3.90419600      39.64497100
O       44.80918700      23.42710700      25.31915200
H       44.59183700      22.52712200      25.06515900
H       44.00122600      23.76530400      25.71344100
O        7.33859300      44.96119100      22.39148400
H        6.92705600      44.24084300      21.90830600
H        6.85460100      44.99954400      23.22029300
O       35.83530800      36.46315600      20.50392400
H       36.12098300      35.63770100      20.90234400
H       35.57230700      36.21935100      19.61283900
O        6.36256800      34.16896900      16.06600000
H        6.07174900      33.32640100      15.70930900
H        5.54808400      34.63375600      16.27392000
O        8.64534700       2.81876400      36.29929500
H        8.26005500       2.17819100      36.90174100
H        8.81754200       2.31853700      35.49757000
O       40.44706600       8.86195900      24.48452400
H       39.90196800       8.56079700      25.21520600
H       41.34503500       8.65579000      24.75616300
O       17.47429400      35.98433900      12.85013900
H       17.96133300      35.43529200      13.46906200
H       17.98666700      35.94118200      12.03881100
O       29.20107200      41.95710200       2.00844400
H       29.23377000      42.20872500       2.93437100
H       30.12288600      41.88928200       1.74709900
O       38.99669400      10.79716100       6.67021100
H       38.88053700      10.92609600       5.72596100
H       39.11829100       9.84940400       6.76826300
O        9.20754300      22.89033100      10.95731800
H        8.42017300      23.06861200      10.43771300
H        8.96826000      23.15166200      11.85011800
O       26.52124500      10.36049200      44.62303700
H       26.91015700      11.01187200      44.03466900
H       26.78489200       9.51525400      44.25060500
O       38.58857600       0.56961200      23.50862100
H       39.12042300       0.09944800      22.86223900
H       37.90853400      -0.05999100      23.76117600
O       31.50315300      28.66645800      35.32902400
H       32.44203800      28.86637100      35.31308300
H       31.40525300      27.93241500      34.71727300
O       21.94076600      33.38268900      26.04908700
H       21.73746100      33.17657800      25.13371300
H       21.71389300      32.58257900      26.52970500
O        2.08537800      22.84752100      28.31111700
H        1.87897600      22.45660700      29.16335500
H        2.92892000      23.28609300      28.44798400
O       28.20030900      19.94713800      17.90092600
H       27.89631800      19.08029600      18.18002900
H       27.61330800      20.18449800      17.17861600
O       41.23984000      13.49862400      11.98145500
H       40.70285300      14.29430700      11.99754500
H       40.80167200      12.90283200      12.59438500
O        8.25731900      30.06150900       5.60155900
H        8.90058400      29.52129200       6.06642600
H        8.37271200      30.94060200       5.97104800
O       19.48188100      39.25820000      34.87318100
H       19.77492900      39.16900000      35.78306600
H       18.96616900      40.06853700      34.86713700
O       29.58144600      12.68290300       5.17116000
H       29.35768400      11.86877800       5.62816800
H       28.74544600      12.99366200       4.81454200
O       36.42155100      44.74442400      14.94557400
H       35.52837800      44.59984600      14.62453800
H       36.52615600      44.10563300      15.65525400
O        7.77984500       4.87085800      42.29642400
H        7.76260900       3.94598300      42.03945300
H        8.42674200       4.90931100      43.00543000
O       32.16630800      36.77626800      35.51514500
H       31.85235500      35.88302900      35.35613800
H       32.17750400      36.85824900      36.47211800
O       27.28280800      40.11579300      23.79226500
H       26.90625700      39.65081900      24.54308700
H       27.03578600      41.03347900      23.93181200
O        5.40754800      10.10702000      19.57177300
H        4.74982200       9.62187600      20.07551500
H        4.92373000      10.45042000      18.81636700
O       35.51092200      21.36490600       4.09106000
H       35.64789800      22.24621700       3.73573800
H       35.65639900      21.46329600       5.03541000
O       23.96138700      15.98422800       9.76828300
H       24.53669500      16.74632300       9.66849900
H       23.48238600      16.15223100      10.58374300
O       30.24459500       4.75755400      16.44154900
H       30.81187500       5.49393300      16.20141600
H       29.89717400       4.99583600      17.30477700
O       37.01033400      36.07074800      35.62223400
H       36.51926700      36.24513200      34.81590500
H       36.36269700      35.68399800      36.21690400
O       28.85067400      18.04935600      42.43754900
H       29.11694400      18.96355100      42.31477800
H       27.92740900      18.03235900      42.17309600
O       18.01509400       7.07545400      28.21958300
H       18.43463800       7.16045200      27.36023300
H       18.14775800       6.15491100      28.45967500
O        5.63904500       9.30847400      22.66720600
H        4.83658200       9.59991300      23.10634100
H        5.79079400       9.96798100      21.98554200
O        0.00689200      25.35352800      42.87317500
H        0.41184100      26.21016600      42.71853700
H        0.50256700      24.98476600      43.60867700
O       36.73619100      41.25934900      25.98028800
H       37.43889600      41.60329900      25.42384600
H       36.34428700      42.04021200      26.37942000
O       33.54383700      17.24510700       8.24949200
H       34.27515100      16.64499000       8.08588900
H       33.35952800      17.63582700       7.39158200
O       27.55365100      23.82192900      41.25050100
H       26.89845200      23.13537200      41.10531700
H       27.04524900      24.63669300      41.26862900
O       41.51599300       1.31646000      27.77983800
H       41.01700900       2.13229400      27.69524800
H       40.89965800       0.70088100      28.18460400
O       30.75012900      29.39124500       1.89175700
H       30.08906500      29.92562900       1.44549100
H       31.57724400      29.85283700       1.73221200
O       41.55976700      18.98012600      20.31988500
H       41.46514000      19.50112500      19.51905300
H       42.50554200      18.96996700      20.48736100
O        4.52002200      42.52843400       9.50350400
H        4.15150000      41.77808400       9.97561900
H        3.81690700      42.80591300       8.91081700
O        3.38814900       5.68317800      19.53704800
H        3.58674000       6.49951700      19.07242300
H        4.09693600       5.08632400      19.28401000
O       38.04217400      24.28830200      27.93106600
H       38.43850200      25.14213800      28.11977900
H       38.59094400      23.91947800      27.23431400
O        4.40908400       3.14093000       4.78506000
H        4.15812900       2.36358900       5.28952700
H        3.61524700       3.37544200       4.29775200
O        7.81169700       0.45787200       3.24628500
H        7.93058400       1.38942400       3.44578500
H        8.15239200       0.00284300       4.02057100
O       44.55787700      39.03091100      19.39905300
H       43.64808600      38.85637600      19.14697800
H       44.69709700      38.48905700      20.17985700
O       17.89302100      37.43159000      34.20211700
H       17.72981900      36.49791900      34.04931100
H       18.21877100      37.47208200      35.10483000
O        9.87095200       7.20483800      38.45972300
H        9.05063100       6.77691600      38.20343800
H       10.26971800       7.47337600      37.62814900
O       36.08480600       1.22777200       7.49706600
H       36.33915500       2.14205700       7.35175700
H       36.33073100       0.77973200       6.68378600
O       29.66387500      26.75374900      10.49751800
H       28.83376800      27.23521300      10.46853900
H       30.32860700      27.41111500      10.27696400
O        5.22796000      14.25016800       1.17944000
H        5.81684100      13.68143200       0.67795800
H        4.42710700      13.73041200       1.28493700
O       17.72331200      12.75356100      14.57119800
H       17.10006000      13.48218600      14.52233100
H       18.56299200      13.14013300      14.31016100
O       35.78959400       4.85703900       6.94735600
H       34.97589400       4.42744500       6.67337500
H       36.09153500       4.33927400       7.69795100
O       29.26272100      22.05751400      33.67718700
H       28.67277200      22.27775500      32.95249500
H       28.69619500      21.62970300      34.32423300
O       25.53758200      33.72957000       2.48971200
H       25.29366700      33.22933500       1.70741100
H       25.91195700      33.07468000       3.08435900
O        9.01113400      29.41615300      37.74281700
H        8.23027500      29.76167000      38.18168100
H        9.04445800      28.49328200      38.00708900
O       41.13743900      29.53873100       1.79346100
H       40.79180000      30.29293000       1.31030200
H       40.93599500      29.73172300       2.71260000
O        2.02607500       4.96225100      30.87927100
H        2.92146700       4.61901300      30.83251200
H        1.76488100       4.82330100      31.79311600
O        2.89524300       5.38079800       3.75083400
H        3.66964800       5.27906600       3.19255700
H        3.06180100       6.18752200       4.24489500
O       39.60004900      17.36625600       2.29633700
H       38.76718100      17.79829200       2.09286400
H       40.17644600      17.60336400       1.56545600
O        9.99457800       9.17311600       5.83083600
H       10.87867200       8.79882600       5.82779800
H       10.13183700      10.10748800       6.00619800
O       24.50685900       2.46237000      17.82402400
H       24.24819000       3.32148000      17.48234500
H       23.82025300       2.24148800      18.45839400
O       30.33989300      10.33125400      34.65663700
H       29.81230500       9.72521400      35.18208100
H       31.20375200      10.32095900      35.07649800
O       31.42073800       9.59852000      10.24825600
H       31.26752300       8.68421400      10.49784200
H       30.65242400       9.83399200       9.72205400
O       22.47040600      40.46779400      11.35216000
H       22.60350600      39.58028100      11.01108700
H       22.97796700      40.48854100      12.16738600
O        9.21165200      15.10890000      32.83453700
H        8.33195100      15.31321100      33.16028000
H        9.19076500      15.37135900      31.91078300
O        4.35148100       5.89963300      37.43405800
H        3.42711300       5.93497300      37.69100100
H        4.41792700       5.11028700      36.89077200
O       39.91721500      11.35609600      20.14136000
H       40.36941100      10.61329300      19.73455800
H       40.27772000      11.39664300      21.03076100
O       13.61113000      18.63513700      32.10075300
H       13.26213100      18.67702200      31.20734900
H       13.42957300      17.73599300      32.38574300
O        6.49166500      14.44505600      10.84711200
H        5.86496900      15.03845300      10.42656800
H        7.04582700      15.02163800      11.37918300
O       12.99235400      35.07831100      10.90313600
H       13.90864500      35.16867500      11.17510900
H       12.90128700      35.68731800      10.16593900
O       28.38081700      40.22477200      15.78459300
H       28.78266900      39.37187600      15.96572300
H       27.74807600      40.04631300      15.08428300
O       40.09569400      36.80921600       9.89031400
H       39.50272300      37.35873300       9.37249100
H       40.93935100      37.26682800       9.85190500
O       34.66876300      16.12519300      16.66702500
H       35.29628800      15.43515500      16.89458800
H       34.23508100      16.33645800      17.49764600
O        6.50875400      30.23026100       8.78619600
H        6.96624900      29.60199200       9.34984600
H        6.99265900      30.20298000       7.95689900
O       26.22798400      26.67844500      34.81870000
H       26.57951200      27.56624600      34.91851400
H       25.39524700      26.69654600      35.29709700
O       13.80029800      25.57516500      38.75565500
H       14.33230600      26.10041700      39.35798600
H       13.06194700      25.27345400      39.29086600
O       18.47364900      11.75085400      41.00863800
H       19.29490200      11.32208900      41.26048800
H       18.13165500      11.20924400      40.29285800
O       20.38005400      38.85187900       3.49117400
H       21.11599600      38.51966000       4.01054400
H       19.73988400      39.14455100       4.14475400
O       25.44001100      44.16340600       6.98335400
H       25.46110500      43.46664200       6.32320300
H       26.03142400      43.85497200       7.67454300
O       10.98859100       3.18454200       4.01703200
H       11.31981100       2.71314800       4.78502000
H       10.69775600       4.03156900       4.36431000
O        3.70778900      26.03174000      11.17323400
H        4.61441500      26.15473200      10.88232900
H        3.20090000      25.98098800      10.35890600
O       35.50271300       2.92594400      13.60556300
H       36.07482300       2.68617800      14.33831600
H       36.00168700       3.58778800      13.12014700
O       28.10007000      34.66788500       1.09729600
H       28.74115100      35.28459900       0.73618200
H       27.58526500      35.19346600       1.71485800
O       17.60833700       2.70607200      16.00931200
H       18.10699100       3.49059900      16.24928500
H       18.13825100       2.28617400      15.32702300
O       17.97156300      22.23522500      10.18827900
H       18.86966400      22.01089600      10.44287000
H       17.62769500      22.72882300      10.93711600
O       36.09545900      31.07047800      13.41784600
H       35.77390800      30.58435000      12.65495000
H       36.28028200      30.39209400      14.07227400
O       21.00436600      44.55870400      11.87085200
H       20.93781100      44.63646200      10.91625800
H       20.21570300      44.99627800      12.20127800
O       33.51092400      37.60191100      33.97814100
H       33.08224000      38.42463900      34.22527300
H       34.25560600      37.87450800      33.43612600
O       10.48445200      38.66166500       0.81656100
H       10.35039100      39.41475400       1.39674200
H       10.84183800      39.04241600       0.01036900
O       10.89670200      28.92293400      24.44711600
H       11.55758600      28.22876400      24.39156200
H       11.20866400      29.49309200      25.15439400
O        6.68614400       2.74948800       1.99156300
H        7.45387900       3.23559900       2.30140800
H        5.93846800       3.21548800       2.37427300
O       17.94157800      21.09068600      30.56644600
H       17.64409700      20.92751300      29.66833500
H       17.88252800      22.04405300      30.66767100
O       20.42810500      27.83636000       3.07056900
H       20.15998900      26.95600000       2.79706500
H       21.18094700      27.68761900       3.64827800
O       14.41224600       6.30368000       9.50791800
H       13.70289500       5.74829200       9.17612100
H       14.28278500       7.14596800       9.06471100
O       14.54211100      33.99673000      27.60815700
H       14.64705700      34.48865200      26.79040100
H       13.67044400      33.59947600      27.53724600
O       19.87014400       8.75056100       9.91643700
H       18.95361500       8.56786000      10.13625600
H       19.83187300       9.54172800       9.37308500
O       19.28715000      40.83651500      31.66465500
H       19.01695800      39.91804200      31.59303900
H       19.72135900      40.89133900      32.51969900
O       22.21036500       5.22196300      32.10938500
H       21.80975200       5.29660300      32.97867300
H       21.47598000       5.32451300      31.49880800
O       14.52531400       4.04566000      41.11363400
H       15.29576400       4.31604600      41.61863200
H       13.88583000       3.77882800      41.77884400
O       32.94414900      23.49601900      30.08555300
H       32.47901900      23.21150000      29.29534500
H       32.55282100      24.34680600      30.29924700
O       38.05990900      13.60374100      17.13125700
H       38.15439200      14.01072300      17.99564300
H       38.60849600      14.14054000      16.55372700
O       34.53004500      17.25464500      31.45601000
H       35.26948800      17.85787900      31.56116800
H       34.93985200      16.39770100      31.31336600
O       19.22513400      39.79392000       7.48793900
H       18.59356400      39.08172500       7.61293100
H       20.07982500      39.35568600       7.47818000
O       42.58229800      42.97837100       8.39247800
H       43.20422900      43.65558100       8.11623000
H       42.23028100      42.62821600       7.57021500
O       35.93913400      40.17025800      24.24150100
H       35.22228100      39.53415600      24.29825500
H       35.72936900      40.69735600      23.46638300
O       33.00261400      25.21623800      16.36291300
H       33.04570300      24.27215300      16.19388100
H       33.61491700      25.35654600      17.08957700
O       23.60900300      39.18939900      26.14957800
H       22.67827000      39.39551100      26.26350100
H       23.63395900      38.23198000      26.07631400
O       13.79719500      15.63746500      24.10795000
H       13.99819700      15.02675300      23.39496000
H       14.56586500      15.59466000      24.68236900
O       22.53468600      30.12815300       1.44797000
H       23.45078100      30.29757600       1.67990000
H       22.51143800      30.21224500       0.49139800
O        0.95459400      42.54428800      40.96906500
H        1.13983500      43.42997300      41.28996100
H        1.81822000      42.18334300      40.75340300
O        1.59931800      16.31821300      12.29545200
H        0.84333800      16.52592000      12.84959800
H        2.09677300      17.13883000      12.25342100
O       31.55794000       0.45344800      14.11410800
H       30.77940400       0.00508400      14.45260000
H       32.29387600       0.01134900      14.54490800
O       20.21091900      10.11081000       3.32270500
H       20.18518100      10.19958500       4.27831100
H       19.98283900       9.19161100       3.16241200
O       22.33431400      32.29995800       1.16213100
H       21.70071700      32.98040800       1.40143600
H       23.19068900      32.70634700       1.31741300
O       37.35802800      11.57643700      25.42138300
H       38.09323300      12.11526600      25.11995100
H       37.05378400      11.12425900      24.63042600
O       22.33533400      44.45691300      14.92978100
H       22.53046900      43.54034500      15.13847000
H       21.87818000      44.41720100      14.08593600
O       35.91775600      33.32485300      15.63666400
H       35.54704200      34.19773000      15.48706000
H       36.83306800      33.40326300      15.35613200
O       23.49762100      40.88321900       0.33074400
H       23.21837200      40.03714700       0.68838500
H       22.91998900      41.52336300       0.75406400
O       37.37829500      10.85692200      30.16907800
H       36.78506300      10.11914000      30.00945700
H       38.22837500      10.55504900      29.83911100
O       30.13601800      36.73868900      41.81191900
H       29.23241000      36.98547100      41.60140700
H       30.04782900      35.95078800      42.35420800
O       14.77388200      15.55995300      16.65037400
H       15.11077000      16.43682500      16.84868600
H       13.85875100      15.58472200      16.94117100
O       43.72860300      34.26961700      34.45604100
H       44.28300300      34.96068300      34.08618500
H       44.16665000      33.45251600      34.20483700
O       11.71363400      32.41456900      40.72156000
H       11.61862700      33.36652800      40.64110200
H       11.93779000      32.12152400      39.83470000
O        7.21239100      33.08272300      24.61618800
H        7.83359700      32.42865900      24.28751300
H        7.70537900      33.56492300      25.28483500
O        7.99262100      20.93279900      23.16442600
H        8.58192300      20.53267100      22.52072800
H        7.11618300      20.81965100      22.78800100
O       40.65698700       1.14689600      37.83872900
H       41.60107200       1.31749300      37.80234200
H       40.25591600       2.01935000      37.81406500
O       26.70198400      34.15188900      32.07172200
H       26.89332700      34.08180100      33.00991200
H       25.78842200      34.44646600      32.03605900
O       32.35007300       5.64585000      13.51894000
H       33.30548200       5.73852600      13.50078800
H       32.11724000       5.40009900      12.62003100
O        6.25748800       6.74098200       3.08761700
H        7.00240000       6.96072600       3.65201400
H        6.65334600       6.30208000       2.33044900
O       14.18190400      10.71092900      37.59109100
H       14.89042100      11.34168000      37.73901800
H       14.51639700       9.88707100      37.95442800
O       39.65721600      30.39849100      43.45821100
H       39.11407100      31.13891900      43.73836000
H       39.99429200      30.02670900      44.27723500
O        7.03952300      10.96360100      14.03440200
H        7.27669200      10.14239600      13.59725400
H        7.76124200      11.12441200      14.64751200
O       11.55243900      38.30734100      32.95104700
H       12.02746400      39.11798400      33.14836400
H       10.92434100      38.21748400      33.67219900
O       18.53937900      27.87581100      35.89198500
H       18.86091800      27.10150800      36.35973800
H       18.44222500      28.54387500      36.57528100
O       29.65591600       2.04331100       9.83183600
H       29.14804100       1.45041600      10.39064200
H       29.09008100       2.19701800       9.07101700
O        3.11052500      39.73980500      28.87712000
H        2.56790900      40.19754500      28.23077000
H        3.59817800      39.09151300      28.36277200
O       17.65108100      39.17748400      26.16383500
H       16.82907100      38.68151400      26.17007200
H       17.46507000      39.94035500      25.61060000
O       21.97233600       7.18937200       4.61463300
H       21.31325900       7.83049800       4.33840700
H       21.60084100       6.79138500       5.40598700
O       42.03276400      17.23398300       9.11413000
H       42.92051600      17.45294200       8.82142200
H       41.81587500      17.91943600       9.75111900
O       26.67274300      43.92827000      30.35866100
H       26.80510300      43.39829600      31.14817600
H       25.71827700      43.98919000      30.26963300
O       11.89413700      43.21230200      35.85379000
H       11.38364900      43.99325700      35.62743700
H       12.71347700      43.31238800      35.36256100
O       30.55098400      36.38059000      15.42092400
H       30.77015000      37.23407800      15.80204200
H       31.15719800      36.28678000      14.68177100
O       14.93767300      29.74566400      14.71465400
H       15.82917600      29.63513800      15.05337600
H       14.96139800      29.34032600      13.84414800
O       26.64903800      42.80017000       1.53689200
H       26.53562100      43.55382900       0.95306000
H       25.76617700      42.43229800       1.62560100
O       42.70986200      31.52597800      28.82056900
H       41.83226800      31.63951900      29.19294300
H       43.20995800      31.09237700      29.51665600
O       25.95431100      30.23059900      13.61720900
H       25.17060000      30.14101200      13.06994700
H       26.43126700      30.96975600      13.23146100
O       25.89183900      37.19964500      43.63134800
H       24.94704900      37.12671400      43.47715000
H       26.03658400      36.72471200      44.45361900
O        9.42412600      27.40666800       8.56822100
H        9.79824300      27.89168500       7.82895200
H        9.49047900      28.01368100       9.30968900
O       32.25160800       3.00167100       6.96683000
H       32.81601200       2.40957100       7.46941400
H       31.39923600       2.94899200       7.40652100
O       35.81633200      13.38492500      11.46117700
H       35.06910100      12.78337200      11.42236800
H       36.05231000      13.53164900      10.54170600
O        7.06760100       6.56839600      14.21087300
H        6.19543600       6.19444400      14.06522800
H        7.19496800       6.51329100      15.16133700
O        2.22213500       5.33296700      12.43287000
H        1.72896300       4.50994200      12.46657100
H        3.12868200       5.06115800      12.26875600
O       26.11024200      14.25061300      44.01681800
H       25.39343300      14.85397600      44.22625300
H       26.55553800      14.65936800      43.27031100
O        4.86801900       8.16060700      14.20508100
H        5.60717300       8.63840300      14.58860200
H        4.62990000       7.51327900      14.87359200
O       42.93848900      20.69732500      13.60162900
H       42.06924900      20.32409000      13.76546700
H       43.52329600      20.20334400      14.18182400
O       26.47421700       5.33007100       8.17130500
H       27.15614900       4.71127900       7.89966300
H       25.72145800       5.11469600       7.61487900
O        2.60720400      10.59339800       2.18639900
H        1.80007000      10.36055700       1.72159200
H        2.52358400      11.53586200       2.35196600
O       35.62550300      16.87482200      27.72170100
H       36.12030400      16.13091100      27.37028500
H       36.01452300      17.64266200      27.29540500
O        8.27068100      27.13950400      28.64121200
H        8.74390800      27.87614500      28.24733400
H        8.23198200      27.35383700      29.57673600
O       44.52079000      36.82669200      24.29005900
H       44.58133900      37.73782800      23.99359400
H       44.46277500      36.89059000      25.24671600
O       31.85745700      44.35938900      26.33433800
H       32.34767400      44.61265600      25.54867400
H       32.13190300      44.99368900      27.00141000
O       36.42927000       6.06594400      17.21933500
H       37.34595400       6.25437100      17.43360300
H       36.47745000       5.38413200      16.54446200
O       21.86425700      16.93287700      35.75081800
H       21.51295500      16.35342700      35.07070800
H       22.50441400      16.39069500      36.21866500
O        1.38812400      26.49467400      15.09631400
H        0.55374400      26.86144100      15.39800500
H        1.13549800      25.80509600      14.47719800
O       31.86133400      26.18640200      41.72271500
H       31.46302900      26.59871100      40.95259800
H       32.67964100      26.67133200      41.85634900
O       17.50765800      21.92744100      36.87916600
H       18.38074900      21.82718300      37.26566900
H       17.35343200      21.09790400      36.42011800
O       32.94793700      33.27088300      34.84310400
H       33.09476100      32.61949700      35.53293300
H       32.04169700      33.55977300      34.97694400
O       19.17215200       4.84379100      13.15349700
H       18.26560300       4.94481100      13.45297700
H       19.70323000       5.14319000      13.89576400
O       44.99884200      14.61325600      11.68921700
H       44.27075900      15.03550800      12.15108500
H       44.95045000      14.96426400      10.79641600
O       10.35548700      17.46886300      42.98878000
H        9.53407500      17.06118600      43.27304600
H       10.98311600      16.74249500      42.95539400
O       10.17690800      14.21116500      28.39584700
H       11.05475600      14.44086000      28.08224300
H       10.33271900      13.56196200      29.08642600
O       27.51406500      14.45387500      39.84150000
H       27.20995000      13.75723300      39.25504500
H       28.24017000      14.86559800      39.36621300
O       21.14929100      41.56040700      28.31856200
H       21.64644900      42.35791200      28.12223400
H       21.80058800      40.85592500      28.27210100
O       24.13703800       1.06491700      33.43709300
H       24.45093800       1.69420300      34.09069200
H       24.87476800       0.96328900      32.83040700
O       11.08260000      43.08110400       7.09595000
H       10.75317100      42.71013400       7.91788900
H       10.46450200      42.77049000       6.42953000
O       37.96859400      11.48077200      17.75100100
H       37.55236200      10.68787800      18.09711700
H       38.76037000      11.58667000      18.28440300
O       34.24424700      42.87084000       9.97737600
H       33.82013000      43.02285200       9.12958900
H       33.71038100      43.36660900      10.60335000
O       32.19440100       3.75242300      23.63009100
H       32.06657200       2.81815600      23.81045000
H       32.93698400       4.00304300      24.18543000
O       28.07787300      42.80489800      12.60740000
H       27.34022100      43.36192800      12.34795500
H       27.72468600      42.25359500      13.31022800
O       29.56112200      17.62386600      38.75432300
H       30.02476500      16.88170100      39.14922900
H       28.89825900      17.86510800      39.40628800
O       16.41607900      14.56091700      22.15213500
H       17.00794200      14.31500600      22.86694400
H       15.97042500      15.34935300      22.47214000
O       36.89104600      22.72024100      24.06145500
H       37.83451400      22.81350000      24.21276300
H       36.48472100      23.13377900      24.82730600
O       43.23426400      13.58914900      10.85353900
H       42.53199400      13.53817400      10.20089600
H       43.89354800      12.96302800      10.54376800
O        4.18155300      23.03156900      43.22898800
H        3.58675200      23.72833900      43.51612500
H        4.53508900      22.66856100      44.04500200
O       12.29034000      41.07711800      15.23905500
H       13.16473700      40.69711700      15.12611800
H       11.88121600      40.53599100      15.91908500
O       17.92479800      38.77877300       0.50351000
H       18.18065800      38.10539800       1.13819600
H       17.07606600      38.47964300       0.16762800
O       28.83784000      44.31595400       8.07688000
H       29.04456400      45.02512700       8.69012100
H       29.41184100      43.59397100       8.34503300
O       35.14727000      41.07696700       7.30490800
H       34.68324700      41.90603900       7.44291900
H       34.47714800      40.48391700       6.95580800
O       40.88018100      24.90135600      40.27502600
H       40.53659800      24.54001100      41.09545500
H       40.70467000      24.21912500      39.62203500
O       13.41461400      32.53795800      17.06127900
H       13.94712200      33.17455000      16.57867000
H       13.95172200      32.30680600      17.82333300
O        1.56191300      35.07623300       6.60383000
H        1.86186100      35.20488100       7.50671800
H        0.71889700      34.62488600       6.69466900
O        7.34125800      42.04580400      11.92447500
H        6.90652900      41.90003400      12.76797200
H        8.23010900      42.32409900      12.15929300
O       13.47936700       7.54636100      27.53488200
H       13.79907900       6.77074100      27.06806000
H       13.78805100       7.42608400      28.43648600
O       34.19768700      23.94083500      20.12956800
H       34.34092700      23.06878900      20.50472600
H       34.06400700      23.77819100      19.19238100
O       13.94556200      41.58021200      17.26466100
H       13.60243000      40.68372800      17.28202000
H       14.62389200      41.56275600      16.58480300
O       13.77734800      44.04379100      37.70663100
H       12.98225500      44.48349700      37.39645300
H       14.49610800      44.57953900      37.36166600
O       25.14092700       3.61486600      35.78609300
H       25.68605200       3.22585800      35.09817100
H       25.68630500       3.57139900      36.57559700
O       21.26389400      39.65563200      20.55981300
H       20.65241500      39.85280800      21.27321400
H       20.93445600      38.83571400      20.18318800
O       21.38006600      41.16733900      34.73961600
H       20.94536400      41.90999700      35.16531400
H       21.47942400      40.51640700      35.43894200
O       42.00682100      38.79841700      39.93386100
H       41.89048900      37.84572100      39.95758300
H       41.23721100      39.14410200      40.39303900
O       20.14310900      38.69831100      10.37788300
H       20.59194000      38.70273200       9.52920500
H       19.87341000      37.78456100      10.50021500
O        7.15695000      35.45316900       7.76872700
H        7.24244100      36.36858900       8.04517400
H        7.74177600      35.37746600       7.01051300
O       25.58696400      31.42817900       0.00042800
H       26.34252600      31.97534800       0.22726800
H       25.46239600      30.86378300       0.76762000
O       30.30940100      10.50104800       3.11519400
H       29.68938400      11.15787100       3.44059800
H       30.61238400      10.04698200       3.90555300
O       22.99339900      39.71206300      24.09066400
H       23.61589100      38.99351900      23.95678700
H       23.53510900      40.50484100      24.06432100
O       17.67249300      17.07897400      32.33074300
H       18.44366100      17.65055300      32.31282800
H       17.47560200      16.97341300      33.26494500
O        4.58944700       6.27370800       1.45813000
H        4.79288100       7.21118800       1.49648100
H        4.69352200       6.04487300       0.53106700
O       22.56200700      23.74470400      39.62022600
H       23.11949900      22.98330100      39.44361300
H       21.70694900      23.50406800      39.25469600
O       39.84354900      28.09841200       9.89170300
H       38.92328400      28.36557500       9.95054100
H       40.33364800      28.92411300       9.91746300
O       38.39855000      41.27169300      12.65298700
H       37.57506400      40.87487000      12.35951200
H       38.82623800      40.58149100      13.16615800
O        6.03754000      39.55057500      26.83963000
H        5.89310600      39.72491200      27.77262000
H        5.61590100      40.28799300      26.39121400
O        9.72767100      11.71433200      42.67739100
H        9.81887600      12.63396400      42.93755300
H        8.80192000      11.51257100      42.83525200
O       11.63748700      31.09139000      23.60095200
H       12.45290800      31.12032900      24.10689400
H       11.92568600      31.07866800      22.68475200
O       33.58866200      29.43369800      29.48278500
H       33.68781500      28.55069100      29.11920300
H       34.32220400      29.52260300      30.09650600
O       21.59477600      15.47568100      41.62720800
H       20.83811500      14.88490400      41.64028700
H       21.28995400      16.26368000      42.08413600
O       12.29814100       5.72708700       7.48323300
H       11.70988900       4.98860800       7.65739600
H       12.10192800       5.97975800       6.57752900
O       28.74054900       8.50501500      44.21552600
H       28.98045400       9.41882500      44.38617500
H       29.09368000       8.32520800      43.34053400
O       34.48509000       4.65308100      21.34836400
H       35.02775500       5.41662600      21.13803400
H       34.13347100       4.84374900      22.22166400
O        2.64660900      43.66711200       5.87737400
H        2.05461600      43.65574100       5.12163600
H        3.52616100      43.66025100       5.49139100
O       43.01183000      40.52619500      17.86333200
H       43.62778600      41.21667300      17.60727700
H       43.03687000      39.90181100      17.13384000
O       32.59346500      15.50733800      21.25696200
H       32.92208800      15.70479200      20.37676600
H       32.55505200      14.54804900      21.28748900
O       20.26704200      39.98941700      18.43020200
H       19.70807400      40.61677700      18.89463700
H       21.00921600      40.51485700      18.12079600
O       17.38328600      28.72424000      44.73223300
H       17.41223400      27.76572000      44.68612800
H       17.42270600      29.00834100      43.81551300
O       26.20180400      23.86941700      36.29158800
H       25.82365700      24.59300200      35.78645900
H       27.14513000      24.05035700      36.29776200
O       43.68227400      27.38008300      41.11628600
H       43.30201300      26.76046400      41.74334200
H       42.98918100      27.51608400      40.46531200
O       37.80394600       5.28389800      26.97563600
H       38.04644600       4.43601300      27.35512300
H       36.88148700       5.17964700      26.72897200
O       31.66303800      27.07802300      31.90638400
H       32.51734400      27.44572700      31.66830900
H       31.29788300      27.70889000      32.53193100
O       21.56968300       8.85183200      20.96749600
H       21.00946400       8.23199800      21.44045000
H       22.24360700       8.30151000      20.56053900
O       20.51781100      30.02622800      10.61414500
H       19.60425800      30.25752500      10.43071100
H       20.74826200      29.39931300       9.92384600
O       25.11430800       7.22315300      15.43033500
H       25.06318300       6.93735100      14.51522400
H       25.02703200       6.41270500      15.93846800
O        0.78134900      40.61028900      43.22554300
H        1.00321400      40.78797600      42.30852200
H        0.99361800      39.68133900      43.34652300
O       24.57683700       4.58673800      13.76587500
H       24.44686500       4.06899300      14.56385500
H       23.71904500       4.57812900      13.33371500
O       24.68567000       3.32880000      40.28599700
H       24.33376200       2.48273600      40.57246100
H       24.11047300       3.59411800      39.56391800
O       41.33983300      21.69538700      19.42195800
H       41.54475000      22.61327300      19.22903600
H       40.57262800      21.73841700      19.99831500
O       39.72583100      23.72261700      36.40979900
H       39.20555300      23.49625000      37.18426300
H       39.48687300      24.63337500      36.21990300
O        4.16302300      16.97424600      24.93906600
H        3.47652500      16.30310800      24.93462000
H        4.78040700      16.67934200      25.61324000
O       33.20642700      44.09582900      20.50849600
H       32.36813900      43.69405000      20.26855600
H       33.14019100      44.99750100      20.18408500
O       23.20228000      35.50797600       1.26654600
H       23.85759400      34.81109700       1.18500900
H       22.38128900      35.09755900       0.98339700
O       43.21643200      12.22497900      41.47308200
H       42.76573300      12.60433900      40.71500500
H       43.85150900      11.61363300      41.09153800
O       29.73948400      25.37734200      19.58043200
H       29.65521300      24.58906900      20.12195500
H       29.14345100      25.22472400      18.84280400
O        3.71873900      35.56690900       9.49085500
H        2.92609300      35.83384300       9.96221900
H        3.60066000      34.62571800       9.33966200
O       21.89085700      15.05055300      14.33890600
H       21.95534500      15.84599900      13.80520900
H       22.42423900      15.24019100      15.11491100
O       30.89858500      16.40508100       9.06700000
H       31.40065200      16.67066000       8.29297100
H       31.40714800      16.74292400       9.80853100
O       25.55285200      19.95950300      41.50084600
H       26.40737200      19.52197400      41.51032200
H       24.92501900      19.26084500      41.70170900
O        4.55016600      35.13678100      26.28242900
H        5.18167000      34.43264000      26.11776900
H        4.20466300      35.35527000      25.41321500
O       36.93876700      23.96432100      17.02635600
H       37.09960700      23.87163600      17.96830400
H       36.32886100      24.70342900      16.96020900
O       22.78350000      34.26407200      29.10849600
H       21.95571100      34.50657100      28.68696900
H       22.74331400      34.68344300      29.97171900
O        0.00358600       1.01913700      27.46699700
H        0.42994300       1.11428800      26.61207500
H        0.17426900       0.10794200      27.71845900
O       44.39823200      43.59557300      23.08586400
H       43.57011300      43.71716700      23.55613900
H       44.15930000      43.67185200      22.15864500
O       43.44604700       1.94852900       4.31553900
H       43.20839600       1.01884500       4.34611200
H       44.38140800       1.94846400       4.09704200
O       39.74902100      11.39500400      28.30345900
H       40.33389400      11.74936600      27.62960800
H       38.92682400      11.22132500      27.83819600
O       12.18501800      15.47055900      18.46412600
H       12.40419000      16.40122700      18.37726000
H       12.02582700      15.34977900      19.40365400
O       13.71264100       6.92165800      23.18914300
H       14.57022400       6.49105600      23.21846400
H       13.53003800       7.15186200      24.10364000
O       35.09300600      34.08978600      44.94519500
H       36.02518000      33.91550400      44.79552000
H       34.92279600      34.90455100      44.46579200
O        7.28196600      40.68626000       8.85445400
H        7.17030100      40.48734700       7.92188200
H        6.53720100      41.25403600       9.06798700
O       14.04491400      29.21949700      23.72006400
H       13.72151800      28.62536900      24.40135200
H       14.48941800      28.64360000      23.09284800
O       41.39038400      43.68226900      43.57761000
H       41.32210600      43.74074800      42.62176300
H       41.90677400      42.88710700      43.73155800
O       24.85542400      37.27353500      39.00688900
H       24.57836300      36.46902900      39.45156100
H       24.77417400      37.06922900      38.07184900
O       43.99704100      37.74671200      36.16842100
H       44.90200300      37.68182800      36.48236200
H       43.50011200      37.16788300      36.75208300
O        7.01609800      19.03285100      30.09466000
H        7.21271100      18.09334900      30.07456200
H        7.79779100      19.44807000      29.72157600
O       37.56805500      14.81174200      43.43030500
H       38.36886900      15.23684600      43.11454200
H       36.85695300      15.36277600      43.09364900
O       44.99189500      16.97752000       8.25282800
H       44.92401100      17.80853500       7.77687400
H       44.89181900      16.30518700       7.57415700
O       41.47592400      40.10581800      33.49391200
H       41.90381300      40.90091000      33.82020400
H       41.44807100      40.22393600      32.54106700
O       34.11693600      29.69857600      23.62874400
H       33.68813600      30.11170200      24.38185900
H       34.89085500      30.24384000      23.46633200
O       40.37397400      37.79385400      34.41698100
H       40.63047000      38.06760400      33.53324200
H       39.61101600      37.22686200      34.27893100
O        6.50089200      42.92452500      37.72924700
H        6.98384300      42.36896400      37.11293900
H        6.87809000      42.71299300      38.58692900
O        4.20039400      33.62588500       5.58963600
H        4.06301900      34.06223500       4.74556700
H        5.14001700      33.72816400       5.76078100
O        9.90443800       7.34204100       8.17731900
H       10.70635600       6.92404900       8.49971100
H       10.19950600       8.18724400       7.82916800
O        7.52506100      29.13659000      17.11074900
H        7.89962700      29.94972500      16.76399700
H        7.28945000      29.35012600      18.01713300
O       24.24607400      22.04726500       3.43113200
H       24.56042000      21.18558300       3.14755600
H       23.65302900      22.32750500       2.72941600
O       30.87255200      25.31683200       7.78696000
H       30.31509500      25.58011900       8.52292600
H       31.69159100      25.03019200       8.19885100
O       34.29021900      21.94018400      22.93570500
H       33.49177800      22.44424700      22.76210500
H       34.98726100      22.60040700      22.96540200
O       27.07746200      43.01508100      28.04908400
H       27.98190200      42.77616500      28.26503200
H       26.54275100      42.35734500      28.50086800
O        8.55109600      38.41505400      34.24915200
H        8.97856900      38.92208300      34.94335100
H        7.73514300      38.89078600      34.07438700
O        3.35889200      39.61639700      21.68323200
H        3.84738600      40.28772400      21.20113300
H        2.81768700      40.11346200      22.30183200
O       25.07880600      20.56345400      12.51388800
H       24.25996000      20.54661900      13.01482100
H       25.76108500      20.38574000      13.16623400
O       12.03418800      34.69205600      26.53013400
H       12.66601400      35.41465100      26.54957600
H       11.21577400      35.09883100      26.23454100
O        0.18891900      30.99578600       5.12300500
H        0.01985800      30.75037900       6.03564900
H        0.23041300      30.15819400       4.65464600
O       12.52157700      17.04145900      39.29369000
H       12.00769100      16.24161800      39.42747800
H       13.29931200      16.74751200      38.81268600
O       17.03309100      23.40316300       2.56911700
H       17.05908400      24.34174100       2.36881800
H       16.29250200      23.07026700       2.05594000
O       12.02086500      10.68587500      28.23192200
H       11.27069400      10.40362700      28.76041500
H       12.77092700      10.62012400      28.82835000
O       35.98410800      11.30309300      19.52894500
H       35.44063100      11.34999300      20.31898100
H       36.34611400      12.18790800      19.43570200
O        1.70066700      14.52260800       0.21594200
H        0.89134000      14.34053700       0.69922700
H        2.00696600      15.36089600       0.57104300
O        9.09742900      11.01358100      12.48976800
H        9.72678600      11.73072900      12.38330800
H        8.30181500      11.32773600      12.05279300
O       29.69768000      32.18684500      29.37130900
H       29.33599300      33.07490300      29.32376500
H       28.94968600      31.61436500      29.18312400
O       36.28370700      40.53929000      14.10875700
H       35.69161700      39.82659500      13.85732000
H       36.80689700      40.17275300      14.82608800
O       29.34581300      16.00755700       3.81674400
H       29.98241400      16.45896200       4.37593800
H       28.86258000      16.71665100       3.38510300
O       25.15818500       0.70538100       5.43956500
H       26.11552500       0.68425400       5.50869700
H       24.94830300       1.63491400       5.31890100
O       37.16375800      32.76447000      37.74515600
H       37.58290000      31.92688400      37.95609300
H       36.52083600      32.54502100      37.06608700
O       12.83426700      21.40655500       0.02801200
H       13.54798600      22.04762500       0.06490000
H       12.43279800      21.44628800       0.89972600
O       17.93528300      13.54470500       1.65629600
H       17.28932200      13.10059600       2.21057600
H       17.40942500      13.98880300       0.98630100
O        7.33858100      32.99310300       9.20905600
H        6.92748700      33.85870100       9.26793700
H        6.64828500      32.42467100       8.85831400
O       38.84938600       8.85773200      17.82506900
H       39.26242000       8.60151900      18.65300800
H       38.64842800       8.02472900      17.39106000
O       42.60461700      19.61137700      10.91829500
H       41.67381700      19.67036500      11.14601500
H       42.72019600      20.25845400      10.21788400
O       28.53459900       1.23762600      19.93164200
H       27.83307900       1.51013800      20.52773900
H       28.66424200       1.99426600      19.35429400
O       42.76391400      34.50925500      18.53868100
H       42.25845100      34.73353600      19.32349400
H       42.59815200      33.57218600      18.40804100
O       37.65668000      30.09069400      24.35165000
H       37.94357800      29.47802700      23.67043600
H       37.03781700      30.67278700      23.90352200
O       13.48331200      28.66822900      38.83819600
H       14.15113300      29.00480400      38.23615200
H       13.03125100      29.45383700      39.15616200
O       15.69311300      32.63678300      41.13425300
H       15.40888400      31.95459300      41.74707900
H       14.88432100      33.09910900      40.90025900
O       21.21152300      31.81209800       6.88814400
H       21.76474100      31.96545900       6.11862800
H       21.67602200      32.24881600       7.60658700
O        5.07674200       6.16918900      40.98923400
H        4.29330100       5.70397100      41.29175300
H        4.73842900       6.84676900      40.39841100
O       28.44257500       3.95157000      43.96677700
H       29.12232500       4.55890900      43.66544200
H       28.01837100       4.41115500      44.69580000
O        7.93781500       8.93043900      22.88740800
H        7.47622600       8.10065700      22.74554900
H        7.87661000       9.07843700      23.83450400
O       31.16267900      42.30334600      14.72288000
H       31.36578900      42.44211500      13.79486400
H       30.20608900      42.21990500      14.74770400
O       30.78683000      29.80471400      30.29152900
H       29.85538300      29.81082600      30.05894700
H       30.90312800      28.99106000      30.78860400
O        5.77650100      23.52577800       7.76660300
H        4.87437000      23.29178000       7.53610200
H        6.26539300      22.70338900       7.68114800
O       17.69058700      14.00885400      40.90853200
H       18.25486200      13.83879200      41.66642200
H       16.92680800      13.44338400      41.04827100
O       27.21286800      21.95026000      13.90426500
H       27.63202900      21.59261500      13.11805900
H       26.88234900      22.80897700      13.62857600
O       29.51132100      37.94264200      24.41462900
H       30.05246100      38.71252200      24.60483100
H       29.87342500      37.59289500      23.59658200
O        4.81463200      33.08578800      19.07979300
H        5.54837600      32.78932600      19.62335000
H        4.40230000      32.27440900      18.77273100
O       13.16558400      33.78389800      35.26733400
H       12.85613400      32.87882500      35.18481500
H       14.09041400      33.69827800      35.51228500
O       29.29644800      10.90132600      30.49234800
H       28.46709100      10.69992600      30.05265600
H       29.23057600      11.83463000      30.70971200
O       22.19311800      33.31032900      44.17494700
H       22.99937300      33.81517600      44.30459100
H       22.49108900      32.47681600      43.80197000
O        0.57059100      39.24879200      40.71690400
H        0.04741500      38.99118300      41.47956300
H        0.02415200      39.89282500      40.25944600
O       27.82128100      23.85750400      34.21840600
H       28.74661700      24.11254800      34.23916900
H       27.34438900      24.69121000      34.20610500
O        4.97641100      37.61874300      12.90337500
H        5.88348000      37.31538400      12.82016200
H        4.60940500      37.08200900      13.61038600
O       30.53208000      40.94491100      33.50606900
H       31.22866100      41.21438800      34.10929500
H       30.52291400      39.98624900      33.56543800
O       21.44069600      38.92979400      12.89658400
H       21.06963100      38.74324600      13.76216800
H       20.71625000      39.32789600      12.40736500
O       32.07341500      15.22093300      13.49135300
H       33.02758800      15.27872300      13.58045600
H       31.79971300      14.65692200      14.21910400
O        9.04106500       3.19630700      22.23907500
H        9.49249100       2.71662200      22.93753100
H        9.72277100       3.75129000      21.85188900
O        3.73013000       0.69214800      29.06104600
H        3.90456800       1.63571400      29.09235700
H        2.86573400       0.62305900      28.64790300
O       10.48958900       9.06474800      32.44141900
H       11.35395500       8.71399200      32.66849900
H       10.20133700       8.52682000      31.69967300
O       16.11517400       4.51332900      23.34704000
H       15.76238900       4.68964300      24.22235800
H       16.36829400       3.58713200      23.37410400
O        2.83363500       7.42700700      12.01734300
H        1.91700500       7.52034800      11.74752700
H        3.26663600       7.03000200      11.25738200
O       13.13255700       5.88795200       1.35376000
H       13.24129500       6.81459600       1.12741300
H       13.47094000       5.41454400       0.58954600
O        3.87534500      15.19276000       7.56726200
H        4.83067400      15.13555700       7.64342100
H        3.68542700      14.85335800       6.68898000
O       40.90254800      41.10034900      23.79638200
H       41.07654800      41.98163400      23.45758300
H       41.26297600      41.11170100      24.68666600
O       31.60526900      43.49527700       9.97840700
H       30.70005000      43.76735100      10.14656900
H       31.92517900      44.12226900       9.32481600
O       39.01574300      34.67395100      14.28946000
H       39.87075700      35.10377500      14.36645500
H       38.38032100      35.37859400      14.43898900
O       42.59336300       6.24376800      26.46841800
H       41.99763600       6.99649000      26.45281200
H       43.45283100       6.62398300      26.66689100
O        7.85886000      16.58906700      40.85147700
H        7.90595000      17.54790100      40.83939700
H        7.30916400      16.38691900      41.61280000
O       25.99888800      23.83329000       1.47317700
H       26.83174900      23.43514600       1.73689800
H       26.01888200      23.81407900       0.51303400
O       30.82742900      23.96015100      31.68327300
H       30.64983200      23.04267200      31.90331100
H       30.43134100      24.07837600      30.81622100
O       29.45250700      29.15146400       9.05326500
H       29.44784800      28.71507500       8.19812300
H       28.53976700      29.10612800       9.34905800
O       26.16186500       7.42953300       2.90594300
H       26.57818700       8.29345800       2.86083900
H       26.88868100       6.80921000       2.80806500
O       17.08128600      12.99526800      44.04886200
H       16.62388800      12.81448500      43.22434500
H       17.75053400      13.64275500      43.81326000
O       25.33576400      42.89821800      34.01621900
H       24.99678300      42.13287400      33.54604300
H       25.40759900      43.57927000      33.34268300
O       10.99300700      13.86133000      21.10200700
H       11.81751800      13.38483000      20.98013100
H       10.60056800      13.88681700      20.22566000
O       36.19910600      32.15456000       9.84722300
H       36.34173300      33.08364700       9.65182900
H       36.29255300      31.71526700       8.99814600
O       38.15651800       1.41551800      40.07417000
H       38.49769900       1.67124300      40.93435900
H       38.81409000       1.73638800      39.45184800
O        5.02917500      13.07978900      37.93641600
H        4.52904600      13.82637400      38.27436000
H        5.93283000      13.25398400      38.21156300
O       37.26038000       3.29924000      16.77461400
H       37.28454100       2.35347400      16.61130900
H       38.00944200       3.46038500      17.35390700
O       22.79592000      43.15806500      10.61520000
H       22.07033600      42.75899700      11.10099500
H       22.50878100      43.13818600       9.69879500
O        5.78313700      25.61536300      36.43840400
H        6.59415400      25.97764100      36.80272700
H        5.39174400      26.34673400      35.95410100
O       23.20733500       2.78271300       7.60692200
H       22.39521400       3.23373800       7.84933000
H       22.92958000       2.11459700       6.97516600
O       40.17329300      35.80987400       4.59599200
H       40.36276200      35.24578300       3.84258100
H       41.00303800      36.26118700       4.77058200
O       34.47192900      24.55708900      14.53246400
H       35.10105800      25.12978000      14.97737500
H       34.09490200      25.10806800      13.84187400
O       15.41937300      41.39613800      43.91454600
H       16.33493600      41.40732300      44.20324000
H       15.39879400      40.74112900      43.21227700
O       24.29885200       5.52311100      29.95950100
H       24.03170500       6.44516600      29.94637900
H       24.00414600       5.20164600      30.81533400
O        0.76210300      43.61132900      14.08000300
H        0.64799500      43.26544800      14.96830000
H        1.59078200      43.22931300      13.78001100
O       34.14444400      30.42670100      41.47893900
H       34.24874300      31.36993000      41.62442400
H       34.46211100      30.28703800      40.58326900
O       23.49996800      21.59768500       0.66660400
H       23.80025200      20.81749800       1.13868700
H       22.90642400      21.25532300      -0.00654900
O       32.31933300       5.37815000       3.90202400
H       31.47612800       5.79549000       4.09322600
H       32.86080800       5.57109800       4.67158100
O       28.36201100      21.20128700      37.68991700
H       28.17647900      20.85750300      36.81292500
H       28.89098500      20.51676600      38.10736100
O       37.48001000       2.63470900      11.62530300
H       38.15776500       3.07498800      11.10710700
H       36.66046000       2.83691000      11.16694300
O       11.53744400      16.01079400      37.26792100
H       10.76008000      15.45588100      37.36539700
H       11.43299500      16.41790900      36.40421400
O       32.08003900      34.34656800      44.35614100
H       32.94289600      34.02182200      44.08829400
H       31.76897000      33.69902900      44.99377100
O        6.04290100      10.66830200      33.93505800
H        6.79226700      10.75887200      34.52833100
H        6.05431300       9.74342400      33.67599700
O        6.79228800      40.49044000       1.75784300
H        7.50413100      40.87434600       1.24052300
H        6.81919800      40.96728400       2.59123200
O        5.43132400      21.53542200      37.85048000
H        4.85714700      20.77857700      37.98916000
H        5.00146600      22.03608600      37.15248300
O        1.61507100      15.24508900      42.85387900
H        0.82125900      14.80290300      43.16381200
H        1.38599300      16.17789900      42.85943300
O        0.93946100      36.72465000      40.28215300
H        0.00921100      36.72385200      40.51955400
H        1.00939000      37.39131600      39.59417900
O       20.41076000       6.89477100      10.96676300
H       20.63405400       7.49717500      11.68018700
H       20.25163300       6.05490400      11.40487800
O       41.99717200      37.06711000      18.21464000
H       42.27113300      37.86225400      17.75158900
H       42.79396300      36.76139800      18.65544200
O       29.95776500      39.35592100       7.06338100
H       30.19335600      38.56215600       7.54934100
H       29.64910600      39.03226300       6.21331200
O       43.75072500       6.67189500       3.71609200
H       42.81804900       6.60489300       3.49849000
H       43.86400200       6.08064900       4.46458300
O       15.68193600      34.45764000      23.83391500
H       16.10388600      34.83391800      24.60986500
H       16.19635600      34.79432900      23.09590700
O       21.26914300      20.57859100       9.33712800
H       20.84597900      20.23204400       8.54810200
H       20.55240000      20.67504000       9.96928200
O       33.52784500      12.74363000      23.98857100
H       33.38400800      12.92650000      24.92001900
H       32.71778700      13.03275700      23.56095900
O       25.45778500      29.84222600       3.64443600
H       26.18633400      30.25500300       4.11407100
H       25.79866300      29.69365900       2.75878900
O       18.86339800       9.31257600       6.15675700
H       18.45854900       9.28220600       5.28675700
H       19.14011500       8.40784500       6.32268400
O       43.21896600       0.27029200      35.65348500
H       42.68979900       0.00709300      36.41007800
H       43.87488000       0.86977600      36.01822800
O       44.28661000      26.15863400      25.50293700
H       43.42444000      26.20505700      25.92273800
H       44.12375600      26.42298700      24.59396000
O       33.40619800      12.11068200       3.65224200
H       34.19137700      11.58839900       3.47213300
H       33.69183500      12.75247000       4.30734700
O       11.12412700       8.93222200      35.65216800
H       11.91074600       8.54579900      36.04412700
H       10.96977100       8.40867500      34.86177900
O       10.14174500       2.11821300      11.45390900
H        9.54905900       1.57911000      10.92493200
H       10.08657700       2.99172900      11.05822300
O       30.84185600       0.04635200       7.37866100
H       31.05836600       0.81269300       7.91491600
H       31.52246400       0.02951200       6.70106900
O       30.91400900      39.82110100      21.77611000
H       30.53741700      39.41687700      22.56128900
H       30.17708800      40.28386200      21.36936400
O       15.19380000      27.37935600       1.25408100
H       15.76421500      28.14048200       1.12355100
H       14.55708300      27.43278600       0.53688000
O       33.96988600      12.21530200      42.35370500
H       33.03064600      12.03039900      42.42694400
H       34.38108400      11.61166600      42.97755000
O       23.02102700      12.56449000      39.56531600
H       23.49077100      11.81466500      39.93791100
H       23.10244700      13.25176400      40.23139900
O       44.18334900       6.67942800       7.30834900
H       44.29450500       7.16751800       6.48912000
H       43.30798300       6.92715100       7.61658700
O        0.00524500       2.76271600      21.45060800
H        0.42621300       3.59724000      21.66988200
H        0.71183800       2.23023900      21.07666000
O        1.37028000       2.52405200      33.67784000
H        1.95115800       3.26314600      33.48278400
H        1.39614100       2.44659400      34.63490500
O        7.83392900      21.86928600      39.96020300
H        7.58070400      22.55813300      39.34125700
H        8.34962900      21.25336600      39.43357500
O       12.20825800      27.20953800      17.05414000
H       12.93054700      26.59410400      16.90831200
H       12.51920500      27.77849400      17.76283100
O        0.77510000       4.40269800       3.71478100
H        1.05711000       3.53558700       4.01530300
H        0.20693900       4.22097700       2.96191100
O       31.52292500       2.24989600      43.95056600
H       30.62782000       2.18991900      44.29249400
H       32.00847900       1.57680900      44.43412900
O       15.32875100      28.48390500      40.02325500
H       14.75810500      28.02748900      40.64596900
H       16.00440500      28.88974800      40.57227600
O       39.66310400      42.66803400       6.17665900
H       38.83348800      42.18486900       6.17291700
H       40.20727500      42.20247800       6.81679800
O       16.03110900      30.24988400      25.92733800
H       15.29747200      30.83730000      25.73126300
H       16.21766200      29.81429500      25.09181300
O       29.09019000      39.14424700      39.43371500
H       28.42618000      39.18735100      40.12578400
H       29.51187900      40.00704300      39.45381000
O       15.89257000      39.49700000       5.23179500
H       15.13282300      40.06136600       5.07054400
H       15.51538400      38.62637000       5.38138200
O       40.80420500      21.42039500       5.28612400
H       40.35489700      20.61466300       5.55191100
H       40.26313600      21.77141100       4.57431300
O       36.33179300      15.38338400       9.35115800
H       37.04189400      15.67801300       9.92620100
H       36.44984300      15.89356600       8.54591200
O       22.66144400      40.38609200      30.93932100
H       22.04647800      40.09499000      31.61667000
H       23.52444600      40.31763500      31.35547400
O       10.00527300      35.60713700      11.38396200
H        9.76724100      36.36615800      11.92150600
H       10.89208800      35.80451100      11.07212000
O       40.96559100       0.72614300      32.64342900
H       41.83832800       0.53231700      32.29344600
H       41.13652300       1.19926400      33.46170800
O        3.79916900      30.73190100       9.41929100
H        4.27892900      29.93151500       9.19359700
H        4.28345400      31.09833300      10.16349400
O        1.14262100      20.39848200      27.06901800
H        1.79780300      21.04861400      26.80484200
H        0.56614300      20.87291100      27.67336300
O       32.83381500       8.19145700      37.18395400
H       33.02980100       8.89273200      37.80967600
H       32.30180600       7.56742100      37.68414200
O        5.81028400      19.43066800      36.38150200
H        6.26955900      20.26506300      36.26076800
H        5.99195300      18.93979200      35.57609500
O       16.28105600      24.17966300      41.84092400
H       15.60620300      24.23354200      41.16019200
H       16.00140200      24.81511700      42.50472700
O       31.87029900      23.15327900      17.72627600
H       32.67030900      22.62350000      17.69397400
H       31.96940700      23.68669500      18.51892100
O        6.71371900      38.59663700       9.23994600
H        7.57101400      38.40288400       8.85364500
H        6.45324100      37.77610400       9.66599600
O       24.84605600      28.31484100       7.20274500
H       24.26701300      27.69708600       7.65530700
H       24.93337000      29.05101100       7.81354100
O       35.10183900       0.04466800      12.09716400
H       35.85690400       0.42111000      12.55530700
H       34.41428500       0.00107100      12.76649900
O       37.53910800      25.35592400      38.30508000
H       37.74033100      25.32413000      37.36687800
H       37.99865800      24.59708500      38.67334500
O       23.74924800      31.75707100       7.06080600
H       24.36713500      32.04895300       7.73515400
H       23.84611500      30.80153700       7.04618500
O        5.20436700      40.34325300       3.94967600
H        4.53883800      39.80489200       3.51497600
H        5.80871700      39.70654100       4.33954800
O        2.07327400      31.39151500      32.75367400
H        2.93990400      31.80397000      32.77729000
H        2.13032100      30.75786200      32.03404100
O       32.94130000      37.85423700      22.46293100
H       33.13324700      38.40774300      23.22353100
H       31.98820700      37.73739700      22.48752500
O       20.38123900      35.15874900      39.50268500
H       19.55049200      35.31445600      39.04734000
H       21.03958500      35.58943900      38.95156900
O       41.74057100      32.97946200       4.86919100
H       40.97803200      32.43819600       5.08665300
H       41.52180000      33.36894300       4.01884700
O       44.18198000       4.23106900      43.74348700
H       44.98555500       3.70798200      43.79219700
H       44.30378600       4.78351500      42.96720800
O        6.70391000      31.72937000      40.04217000
H        7.18948300      32.45026300      39.63442500
H        7.38403900      31.17383300      40.43133000
O       34.75821300      27.81770900      21.19016200
H       34.04600800      27.52420300      21.76317400
H       35.55292200      27.69485600      21.71550600
O       17.82008700      41.83584600      30.03344600
H       16.98234100      42.30350200      29.99873400
H       17.58187700      40.93770700      30.27684800
O       41.14962600      28.82448300      23.54738300
H       41.88333000      29.36397700      23.24349300
H       40.65274700      29.40421500      24.13019100
O       39.95898000       4.03873700      19.36203400
H       39.04335700       4.22383700      19.14045600
H       40.32075100       3.63961100      18.56675900
O       38.13563700      27.00963200      34.06992300
H       37.24779100      27.32972400      33.89386700
H       38.02200200      26.07028900      34.23534200
O       17.42385000       2.83559200      31.16863600
H       18.22710200       3.26179100      31.47663900
H       16.89577300       2.71996700      31.96261800
O       39.81237200      25.14819300       0.79579000
H       39.15169900      24.51461000       0.50629300
H       39.35506400      25.99277100       0.78173200
O       43.38172300      21.88997300      40.52894000
H       42.83589900      22.47488800      39.99820800
H       44.27889900      22.19714200      40.37608700
O       18.66379900      44.58061100      30.70320600
H       17.82896700      44.13717200      30.87096200
H       19.28142100      43.86678400      30.52534400
O       15.13408900       9.14475600       8.71805000
H       14.25635900       9.23187100       8.33893800
H       15.03240500       9.44234200       9.62565400
O        6.38527200      25.29775600      27.67771600
H        6.18253300      26.18237600      27.99087700
H        6.41979600      24.76437300      28.47580900
O       39.05500900      33.02187600       3.37652600
H       38.69110300      33.90886500       3.32605000
H       38.52984000      32.58683400       4.05297200
O       35.30168500      35.56926900      40.28109900
H       34.47492100      35.63150200      39.79704000
H       35.27037600      34.70360500      40.69617500
O       22.26812000       4.67746500      35.75806000
H       22.64301700       5.50919800      36.05705500
H       22.63357700       4.55373800      34.87841600
O       44.99983100      42.67958400      44.16879600
H       44.51752100      42.72798300      44.99750600
H       44.56912100      43.32633000      43.60412700
O       43.58583200      14.02534400      36.69193800
H       44.11088700      14.76868400      36.38618100
H       43.00638000      14.40125600      37.35944700
O        4.03037700      30.90538600      21.32571400
H        3.21191400      30.99729700      20.83236300
H        3.90123800      30.11549500      21.85678500
O       16.01934900      32.00225300       5.15654500
H       16.84552400      32.46663600       5.30987100
H       15.59661600      32.49510500       4.44870600
O       19.63466200       9.22819100      25.72673400
H       19.64415000       9.00001900      24.79422500
H       20.06393900       8.48519400      26.15838000
O        8.73549200      36.83575000      21.54621400
H        7.88211700      36.52948300      21.23050000
H        9.00774200      36.16918500      22.18199200
O        8.46232000      32.92891300      35.38558800
H        8.55497800      31.97363100      35.40958800
H        9.10983500      33.24727300      36.01963400
O       23.30098300      30.37063400      42.81357900
H       23.88375100      29.61052900      42.87951200
H       22.85197600      30.25457300      41.97241100
O       28.90852100      32.44860900      12.75199400
H       27.99906400      32.68541600      12.94830300
H       29.15943700      33.03856600      12.03670800
O       25.08740300      36.27825300      35.67901800
H       24.91025500      35.35343800      35.86626800
H       25.36358600      36.28660500      34.75907500
O        7.76993700      13.50950600      18.53100500
H        7.02792200      14.02895600      18.84929700
H        8.12626500      14.02422900      17.80249000
O        1.61842900       6.30515800      34.74724600
H        2.39636200       5.98304000      34.28596000
H        0.90625200       5.74021800      34.43694100
O        6.55621400      44.59900800      16.02627100
H        5.62255900      44.71083300      16.21994100
H        6.66832100      44.99282800      15.15737500
O        4.11781200      20.62410100      35.46778800
H        3.81353900      21.45219400      35.08910100
H        3.50448600      20.45096300      36.18646500
O        8.01511600      35.69657500       3.00846300
H        7.73633900      35.55098100       2.10137400
H        8.48160100      34.89141400       3.24668700
O       14.44151300      16.32568200       4.60174200
H       14.71983400      16.52937600       5.49771700
H       13.55460300      16.68915600       4.53912700
O       16.27884900      31.53305600      16.11037100
H       15.33845400      31.59737800      15.92803500
H       16.69947300      31.76923400      15.27974600
O       21.49195800      11.00629200      29.82770600
H       21.58689900      10.10899300      30.15567800
H       22.17507600      11.50148600      30.28680700
O       42.26584800      20.41669900      25.37830900
H       42.64278500      19.59614500      25.05221800
H       42.04219500      20.22925000      26.29345000
O       13.69753800      38.32969400       2.95276100
H       14.32783300      38.66835200       2.31263300
H       13.86233800      38.84601800       3.74578900
O       27.27934800      37.62753300       1.02892400
H       28.11952800      37.30177000       1.36013600
H       26.76457100      37.80669400       1.81984000
O       14.51936500      15.65978400      40.43800600
H       14.99011500      16.39843800      40.83108400
H       15.19377300      15.17891800      39.95160800
O       16.94365900      37.74329000      18.95308500
H       16.99654800      36.96855000      19.51762500
H       16.91752800      37.38719400      18.06137000
O       17.43247000      36.69949900       3.80620700
H       16.92392400      35.90068300       3.96431600
H       16.90455600      37.19761500       3.17705700
O       20.73596100      27.26688600      40.01600400
H       20.72394300      27.03323400      40.94712500
H       20.34793300      26.50717300      39.57451400
O        1.20656800       2.13718700      28.93011700
H        1.96798200       2.67792700      29.15276900
H        1.11347200       1.53816200      29.67519600
O       13.33399000       9.71555400      34.71475400
H       14.16094000       9.57424300      34.24794700
H       13.09292600      10.62114200      34.50394100
O       23.40622900      42.65424500      30.33479700
H       24.26785500      42.24496300      30.22610800
H       23.50499600      43.52557100      29.94277900
O        1.53114000      28.35561100      12.87430100
H        1.20501500      29.23376900      12.66404700
H        0.97224100      28.06056800      13.59764300
O       29.10745300      28.15214100      33.41566000
H       29.52022900      28.99640800      33.21931000
H       28.46518400      28.35433700      34.10067700
O        5.15533600      41.12513500       6.62132300
H        4.20986200      40.96781800       6.56604300
H        5.55033600      40.26652100       6.44986000
O       44.98629200      27.71313000      18.78917900
H       44.93042900      28.64596100      18.56910700
H       44.29380400      27.58014400      19.44141900
O       39.80306900      35.25925100      36.50003900
H       40.18144900      35.18135100      35.62112800
H       40.17931300      36.07055900      36.85055400
O       44.66582500      18.81358400      17.52156600
H       43.71049300      18.71911900      17.53347400
H       44.94516900      18.31449600      16.74986700
O        0.73204500      37.68380400       5.87322100
H        1.26132600      38.40605700       5.52690000
H        1.28608300      37.28483100       6.54887200
O       26.08310900      11.90168000      35.52304000
H       26.23520500      10.97248200      35.33546500
H       26.28724800      11.99286900      36.45719900
O       33.92054900      14.53104900      43.25535900
H       33.82095100      15.30203600      42.69198900
H       34.24753500      14.88389800      44.08675500
O       40.25724200      28.89264800      27.41123600
H       39.36219700      28.65399200      27.66355100
H       40.14297200      29.55934700      26.72925600
O       23.86389900       3.98982500       2.83965000
H       23.28829700       4.11968100       3.59697700
H       24.48795200       3.31845600       3.12681500
O        6.13435700       0.00795300      39.98794600
H        6.98026600       0.00583200      39.53389800
H        5.48430000       0.02284600      39.28094800
O        7.03729100       8.66760900      16.78504900
H        7.37978300       8.58273500      15.89217700
H        6.13772900       8.33569700      16.72791500
O       42.93346400       2.97148100      42.24931700
H       42.55640400       2.89074600      43.12854000
H       42.24467800       2.64690400      41.66376900
O       17.43525200      15.94619800       3.35478100
H       17.25784100      16.60516700       4.03006700
H       16.79093500      16.13052600       2.66665200
O       36.40357900      17.46515800      42.41232800
H       36.91499200      18.25287300      42.21311200
H       35.49723400      17.77780800      42.47091100
O       19.25030100      38.02814100      21.51225600
H       18.35140300      37.92895400      21.18996900
H       19.63391400      37.15214600      21.42217100
O       22.34737300      35.92114700      42.74604800
H       22.74589400      36.77792200      42.57621800
H       22.12845300      35.94114500      43.68109700
O       27.36579400       0.75704300      28.79383100
H       27.58136500       0.85066200      29.72468500
H       28.18974800       0.94673900      28.33802500
O       37.39940300      40.93160600      44.98903200
H       36.55247400      40.47967100      44.97519000
H       38.03171500      40.26147500      44.71746500
O       26.43508500      27.63942900      13.24666900
H       25.89695600      26.87321400      13.45893500
H       25.91526300      28.12429900      12.60066000
O       44.05329100       2.51075100      15.41348600
H       43.62694900       2.84723300      14.62181900
H       44.97408800       2.40441400      15.16155500
O       35.20715200      14.68138100      33.17030000
H       34.81838500      14.39919600      32.33906200
H       36.12484200      14.86509500      32.95411600
O       43.31849200      17.27670000       6.36550300
H       43.06559600      17.98932100       5.77394500
H       42.48376100      16.91915000       6.67859200
O       39.81470400       1.12131000       2.71586600
H       40.02721000       0.81592700       3.60091200
H       39.46531100       0.34392300       2.27288100
O       36.66123400      40.03498000       8.93363300
H       36.95774600      40.85650700       8.53501100
H       35.77146800      40.22647600       9.24069600
O        1.31582600      23.16931400      41.44496000
H        1.56908100      23.96156200      41.92447200
H        1.55720700      23.35464100      40.53390000
O       29.68170200       7.88829500       5.15747200
H       29.51309700       8.80383600       5.39217100
H       30.32306000       7.93922000       4.44423300
O       27.34716300       6.01303900      42.46829100
H       27.49652300       5.08369200      42.27926500
H       27.29392800       6.05591900      43.42639800
O        9.04525400      23.04981700      28.20231400
H        8.21192400      23.52540300      28.16909700
H        8.89860500      22.35685200      28.85110900
O       13.43917700      28.50304200      21.06025200
H       12.72520500      28.24019000      20.47469400
H       13.95010200      29.13282600      20.54549900
O       36.25134100      44.20468200      30.00841100
H       35.94994400      43.85769500      30.85131400
H       35.72586500      44.99766300      29.87538000
O       34.83325400       8.96566900      21.60927500
H       34.79508400       9.27838900      20.70237100
H       35.77241000       8.91061600      21.80317200
O       19.15375600       1.06480300       9.72588400
H       19.45688400       1.97477700       9.76815000
H       19.28690200       0.81148200       8.80896400
O       41.87200700      35.66013000      31.39738200
H       41.81287400      34.84349800      30.89604200
H       42.46214200      35.45057400      32.12571400
O        4.93687000       4.70567800      25.58657100
H        5.78830900       4.74726400      25.14493000
H        4.46962700       5.48595900      25.27756000
O       15.52934300      16.38217500      37.19581400
H       14.75129000      16.93713700      37.10429100
H       15.26201200      15.69674700      37.81336200
O       19.54853900      18.57652400       0.84529800
H       19.81135000      19.27373800       1.45073000
H       18.85586300      18.10315500       1.31301900
O       32.96633200      36.86481600       4.59190100
H       32.39924500      36.10115500       4.46167200
H       33.68863900      36.73383200       3.97241900
O       21.03464900      21.51791000       1.07494500
H       21.11011700      22.35093700       0.60367600
H       20.30761400      21.65548300       1.68742700
O       31.08454400      42.44649300      41.48294300
H       31.25732000      41.50459300      41.55148900
H       31.27388000      42.78811600      42.36048900
O       32.10650100       7.01993100      25.99702500
H       32.39534300       6.53445000      26.77330000
H       31.32084800       6.55254300      25.70217100
O        6.20899800       3.53930100      16.04563900
H        5.80390700       2.85448800      16.58290700
H        6.78423400       3.06077000      15.44335000
O       35.84223200      13.83777300      24.23862200
H       35.47521200      14.20544600      25.04598700
H       36.37421800      14.54907900      23.87300300
O       11.49126100      35.19848200      35.07865400
H       10.73971400      34.76252800      35.48712200
H       11.13103100      35.59981500      34.28379100
O       34.01638500       0.65657900       8.06249200
H       33.43061500       0.06565400       7.58352800
H       34.49873400       0.08065100       8.66106200
O       32.59792400       6.44777800       1.66317100
H       31.91579000       6.65378900       1.01976000
H       33.38869100       6.30847800       1.13598500
O       39.71364300      39.29912400      30.96008300
H       38.78948700      39.07911500      30.82131900
H       39.98843000      39.70602800      30.13451500
O       36.72065200      27.40963600       1.53722100
H       35.89968800      27.77625800       1.87386800
H       36.95206700      27.98034000       0.80007400
O       18.78463600      42.12358100      28.03152700
H       19.36794600      42.84996200      28.26357200
H       19.21186400      41.70556800      27.27960800
O        8.66096500      15.31206500       9.79264900
H        9.11548300      15.10384200       8.97302700
H        9.29293300      15.83863200      10.28861800
O       39.61354500      20.38246600      38.85417900
H       40.26081300      19.78080600      38.47898000
H       39.85730300      20.44718000      39.78102100
O        2.94603600      21.54947400      24.90502700
H        3.55477300      20.81597900      25.01969700
H        3.51299300      22.30447900      24.72848100
O       37.88103000      34.18036400      34.90303800
H       37.79572200      34.05177500      35.85062100
H       37.05715300      33.84383700      34.54162800
O       20.97511400      43.79395300       1.54089800
H       21.58281300      43.59947800       2.25825900
H       21.20717800      43.16356500       0.85431300
O       35.88568100      24.87891400      22.70645200
H       36.07894300      25.81881600      22.73742600
H       35.16274900      24.76352500      23.32830200
O       43.85535100      12.02226600      12.93636600
H       43.17157000      12.69425000      12.98742100
H       43.92711800      11.68649000      13.83344200
O       31.19700700      26.39627700      16.79611800
H       30.80554900      25.93062700      17.53885300
H       30.44485600      26.73254500      16.30232000
O       14.70075400      28.56752100       8.57709700
H       14.34756000      27.71253900       8.83397300
H       14.11099000      28.87001500       7.88188500
O       18.38318400       9.58558500      15.73353700
H       18.38979000       8.67073600      16.02462500
H       17.73995700       9.60425000      15.02040800
O       27.49493200      42.95347200       4.90271400
H       27.18159700      43.86072000       4.88160000
H       27.46856000      42.71369000       5.83247300
O       15.43084100      37.35290600      11.95922200
H       14.50158600      37.11812400      12.01480400
H       15.42851100      38.30177800      11.80996600
O       11.80391100      27.46150600      26.98022200
H       11.84462000      26.95760800      26.16403900
H       12.67328400      27.34970000      27.37307400
O       19.95758700      16.21496200      12.96061000
H       20.15800000      17.14440700      12.82760000
H       19.26603200      16.21319200      13.62723600
O       39.18983300       1.33246000      26.43782000
H       38.91360900       2.15526700      26.84820300
H       39.92110900       1.58393100      25.86804800
O       36.12342300       8.90192400      16.07277100
H       35.98621400       7.96214400      16.21317400
H       35.79369900       9.06096700      15.18472200
O       14.73609200      27.38070200      12.86975100
H       14.69129600      26.42184200      12.88720100
H       13.82195300      27.66043700      12.77626200
O       27.58894900      39.57561900      17.80253800
H       27.91682400      39.07752000      18.55494800
H       27.88286800      40.47538300      17.96587300
O       12.32732400      10.58752200      11.83345700
H       12.32454800      11.54745900      11.81801400
H       12.07167900      10.36277100      12.73166400
O       13.02826600      37.85623400      16.09296200
H       13.59779800      38.42774400      15.57264000
H       12.32349900      38.43413700      16.39623500
O       10.06162600      17.06014200       8.62043100
H       10.63294700      17.54218400       8.01797500
H        9.75791100      17.72461200       9.24403300
O       20.97796500       6.00242300      20.56799000
H       20.62139900       5.85689800      21.44742600
H       20.22202100       6.28730800      20.04834500
O       18.46380600      33.50483100      43.48255100
H       17.55650700      33.71192900      43.71844100
H       18.96990800      33.71962000      44.27018500
O       16.18614800       6.52731600      41.29331800
H       15.59809500       7.28015100      41.19762000
H       16.29262100       6.42710000      42.24266600
O        1.36716600      20.28873100      14.90305300
H        0.59685400      19.72329400      14.99592700
H        1.03594500      21.07122600      14.45512800
O        8.95593400      24.30288800      34.03707000
H        9.69510800      24.52746400      34.60708100
H        9.30930600      24.37924200      33.14715900
O       13.16406800      32.93040200      32.96677900
H       14.10918100      32.92640800      32.79804900
H       12.94592900      33.85902000      33.07958800
O       18.52058000      37.07497200       8.86671300
H       17.83776400      37.43954600       9.43466800
H       18.04982900      36.79431400       8.07787400
O       35.23262900      18.73652100      16.73484500
H       34.31247700      18.84015900      16.48126200
H       35.19633300      18.31228600      17.59586200
O        4.72879300      31.62790500       2.67243500
H        4.01269700      32.24122700       2.85345400
H        4.92288500      31.75634400       1.74051500
O       31.46132400      10.63360600      14.58793600
H       32.18467900      11.25871300      14.67581100
H       31.04429500      10.86711400      13.75474700
O       14.44790000      24.77565700      36.44313400
H       14.76849200      25.68003600      36.41081300
H       14.86236500      24.40359100      37.22571100
O       31.21349200      32.37631500      15.49360300
H       31.02465700      31.43678800      15.43567400
H       30.56660300      32.78574500      14.91347900
O        4.63772500      11.67794500      11.64600000
H        4.29235900      10.83295500      11.94338600
H        4.22801800      11.81433500      10.78799100
O       12.32383600      23.86077700       4.16468000
H       12.36115600      22.93529400       4.41729400
H       11.57762700      23.91356700       3.56216200
O       40.41143200       0.91787300      17.29034200
H       40.85463500       1.43302800      16.61217500
H       39.99419600       1.57435500      17.85389000
O       37.50620600      26.46760600       4.18307800
H       38.31219800      26.28198500       4.67056800
H       37.80203000      26.61803700       3.28169000
O       38.30713800      43.38144100      27.88341700
H       38.38679300      43.68553000      26.97627400
H       37.42990800      43.66447500      28.15360600
O        2.73024200      41.02883900       4.73589700
H        2.15709600      40.26389400       4.64596400
H        2.37083100      41.50918700       5.48605100
O       30.64937900      30.57611400      41.61882300
H       29.90207700      30.05652100      41.92425400
H       30.29281100      31.46019600      41.50092600
O        3.84102300      41.65720600      31.83293200
H        3.91216700      40.76857300      31.47656900
H        4.74465800      41.98272700      31.84395400
O       16.01480800      11.82201300       8.91775800
H       16.01156600      11.11233500       8.27117200
H       16.85753800      11.72934700       9.36926700
O       12.65281800      26.68633500      34.62912200
H       13.35796900      26.04500100      34.74391500
H       12.87553100      27.14214300      33.81347500
O        9.26427400      20.92829800      34.52675300
H        9.96573300      20.30231700      34.33225800
H        9.62708300      21.48503500      35.22033500
O       15.86046900      21.28547000       8.97379300
H       16.70918300      21.36658600       8.53239700
H       15.71830400      22.14557100       9.37710100
O        7.89279200      25.59422400      31.00604800
H        7.33194700      25.02387200      31.53696700
H        8.52000100      25.96271600      31.63331500
O       31.14729200       5.62871000      22.47237400
H       30.94318600       4.75706000      22.12554300
H       30.77877500       6.23518700      21.82505400
O        2.60413100      26.76834900      21.20847000
H        2.30669100      27.65742700      21.00160100
H        3.40827700      26.66028400      20.69435600
O        5.53476900       1.97701500       8.92744700
H        5.67201100       2.82537100       9.35544500
H        6.36312600       1.80208900       8.47372000
O        3.85126500      39.09362100      24.41842700
H        4.41275400      39.73781900      23.98086300
H        3.16047600      39.61951700      24.82938400
O       33.06163000       6.33402900      20.75981200
H       33.26440100       6.50637300      19.83736600
H       32.55513300       5.51802800      20.74417200
O       45.00744900      15.87485200      34.12358600
H       44.10969200      15.65364900      34.38209500
H       44.90284800      16.57305300      33.47226800
O       31.04129400      24.44770600       3.22807400
H       31.64723700      24.69149300       3.93172500
H       31.60752500      24.29978500       2.46640200
O       33.60305000       2.40959300      25.54715700
H       33.79584100       1.46927400      25.52829700
H       32.70586900       2.46228400      25.88617100
O       38.63101400      32.15540700      32.28479800
H       39.42172700      32.12095500      32.82822500
H       38.95807600      32.33040100      31.39876800
O       24.58324100      42.09896300      13.63232700
H       25.53004300      42.24108700      13.56097000
H       24.34850400      42.47904000      14.48266900
O        2.23354800      31.19058300      38.20515200
H        1.67992600      31.94062300      37.97566000
H        1.75595700      30.74915500      38.91204000
O       26.17123200      15.37271100      35.31349200
H       25.52086400      16.04032100      35.54380200
H       26.69584600      15.78023900      34.61970300
O       29.53277200      31.00350300      36.35674000
H       29.51037800      31.91743500      36.06356400
H       30.41304600      30.89267900      36.72481400
O       33.49310400       2.31719500      21.27213600
H       32.94428200       3.08312900      21.45615800
H       34.10045700       2.61714700      20.59111200
O       30.37198000       4.88623300       5.78717600
H       31.28535300       4.78510400       6.06511000
H       29.88388100       4.27573300       6.34546900
O        8.76136000      37.56961200      32.01286900
H        9.64676500      37.23534700      32.17426600
H        8.85249700      38.52403600      32.07128100
O       34.16925500      30.90166200      18.76697000
H       34.79374200      31.57474200      19.04751300
H       34.53924000      30.55905100      17.94943100
O       10.59810300      32.99743900       2.23787700
H       10.88145500      32.47643900       2.99285700
H        9.64073100      33.02293000       2.31158100
O        6.09928800      20.19182600       9.72058100
H        6.39450900      20.71193700       8.96954500
H        6.86752100      20.14556600      10.29531600
O       28.11550000      17.94427300      33.19288700
H       28.00600000      16.99107600      33.22680000
H       27.67304800      18.20638500      32.38160600
O       22.25200200      35.30446000       6.49925800
H       23.08986700      35.72746000       6.70119300
H       21.96593700      35.72011700       5.68192200
O       36.14270800      19.40311000      39.93392900
H       36.17935300      19.89836200      39.11228000
H       36.13586800      20.07697900      40.61839800
O       14.16127700      20.84944100      10.73221000
H       13.96661000      19.93204400      10.93767000
H       13.85874400      20.96050400       9.82734500
O        5.92374300      12.95300800       8.62563300
H        4.99940100      13.20531900       8.68609100
H        6.40271800      13.78204600       8.70257600
O       35.76857100      13.31642400      21.25114400
H       35.54883500      13.14711100      22.17026000
H       36.22812100      14.15974800      21.26730700
O        4.83592900      33.46177500      12.86357400
H        5.77781400      33.30664800      12.96610900
H        4.44605700      33.09842200      13.66270900
O       30.25736400       9.53211500      32.57225200
H       30.28874700       8.74987100      33.12798100
H       29.97901000       9.20358900      31.71363000
O       19.14228200      43.11408900       7.14009600
H       20.02363600      42.79672900       7.35038800
H       19.02874300      42.90362500       6.20979800
O       41.64184000       6.06701400      20.82132800
H       42.33889100       6.66780000      20.54764600
H       41.24589300       6.49350400      21.58551000
O       19.50716700      31.78923200      39.99986600
H       19.22136900      32.39660600      40.68626400
H       20.24135300      32.23901900      39.57406600
O       11.17641300      39.70189600      26.78764900
H       11.10799300      40.12316200      25.92766100
H       10.40763900      39.12787800      26.83380600
O       43.61785300      30.83413400      19.06215800
H       43.21164800      29.99563100      18.83056500
H       44.48473000      30.80108600      18.64975500
O       39.16330500      21.46320500      32.07236800
H       39.81788600      20.83656200      32.38949200
H       39.20027400      21.38307400      31.11588800
O        9.90534200      11.00583500       3.09282000
H       10.56041600      10.96990800       3.79375600
H       10.10571000      11.81793800       2.62061000
O        7.86110200      15.75772000      28.45947600
H        7.13575400      16.38661300      28.46888900
H        8.63771100      16.29220600      28.27550900
O       19.28555200      12.20381800       2.80830000
H       18.60976200      11.60918300       3.14213000
H       19.60189100      11.77931100       2.00682400
O        2.00148700      10.48624800       6.92488400
H        1.86312000       9.55162000       7.09532500
H        2.13200700      10.53856500       5.97468900
O       39.44170000      21.14042800      12.28077600
H       39.11818700      22.02297100      12.47617700
H       40.15244900      21.28121100      11.65017500
O        2.51520800      27.56165600      28.25732900
H        2.36080300      28.36796000      27.75957700
H        2.21140400      26.86038200      27.67546900
O       34.14230300      15.53842700      29.42309400
H       33.66010000      14.70836700      29.43739900
H       33.78693900      16.00755800      28.66396600
O        3.14595500      25.10226400       0.73036400
H        3.82728300      24.44180400       0.58438300
H        3.27367400      25.73736400       0.02115400
O       14.86624200      31.66501200      12.01630900
H       14.48285900      30.79057700      11.91578000
H       14.15233700      32.26596700      11.78863500
O       44.97056000      18.04774000      10.17997700
H       44.56667000      17.40533200      10.76811800
H       44.65038000      18.89592100      10.49733500
O        6.37459600       5.91909700      27.21975300
H        5.74339100       5.34815700      27.66397300
H        6.60175600       6.58090300      27.87782100
O       21.00326900      41.03193600       5.49251700
H       20.13229800      40.67464900       5.68087600
H       20.84361600      41.95870600       5.29694100
O       43.08956800      19.68591400       7.85889400
H       42.19716700      19.35879700       7.99432200
H       43.13651300      19.86761800       6.91686400
O       39.48749200      33.35696100      27.53537100
H       40.27479100      32.84276300      27.72898000
H       39.26537800      33.77647500      28.37042600
O       29.49444300      27.63725100      44.56778300
H       28.79726100      28.15490900      44.97728700
H       29.73545100      28.13893500      43.78492300
O       16.16671600      16.53461500      35.06408100
H       16.41689100      15.61843200      35.20459700
H       15.24483200      16.49188300      34.79772400
O        5.91790700      18.51441800      24.31035800
H        6.22952500      18.86298800      23.47183700
H        5.40147100      19.23033800      24.68903300
O        3.79071800      18.73105600      44.10136200
H        3.27684600      18.20572500      43.48355200
H        4.45664600      18.12405500      44.43412400
O       25.87979100       9.40155900      10.70331900
H       25.95163200       9.73737600       9.80677600
H       26.67714700       9.71287900      11.13914700
O        7.45233400      29.95145500       3.12406000
H        6.97688300      30.46624500       2.46781000
H        7.58527100      29.09685400       2.70617700
O        8.62781800      35.21428800      31.25616100
H        9.31917100      34.88228300      30.67864100
H        8.37805800      34.45560000      31.78969100
O        7.85289700      24.53330400       5.92805400
H        8.74524000      24.82613200       6.12730400
H        7.96497100      23.88837600       5.22509600
O       38.98677700      35.42439300       7.59182700
H       38.65102200      36.32382000       7.58673700
H       38.59259600      35.02715900       8.37251100
O        7.36152300      13.83436600      24.29506100
H        6.72889900      13.12795300      24.14508600
H        8.14589800      13.55801100      23.81441000
O       35.57859200      32.18544100      34.44951000
H       35.23386400      32.08679100      35.34010300
H       35.05856700      32.89840200      34.07016400
O       40.96812800      27.57055100      13.64034600
H       41.38750300      28.36529200      13.97833500
H       40.75715100      27.05974000      14.42596800
O       41.13687300      10.67748400      16.36630100
H       40.49642700      11.07476700      15.77155700
H       41.14293300       9.74807100      16.12382300
O       32.36116800      16.53047600       2.82192400
H       32.50343500      17.05822900       2.03264400
H       32.64323000      15.64694500       2.57201400
O       22.92659700      41.61148300      25.87916700
H       23.28603900      41.78140500      26.75303900
H       21.98172500      41.51746300      26.02414700
O       37.83624600      15.62119900      20.96653600
H       38.74375200      15.50949300      21.25924700
H       37.80564000      15.18316800      20.11223300
O       39.19374700      36.94991900      29.17864400
H       38.40947600      36.87629800      29.72748300
H       38.97133300      37.62691700      28.53455700
O       11.31709100      28.30904500      42.11872300
H       11.47647800      29.18940400      41.77045700
H       10.55134900      28.41332700      42.68916700
O       30.37222300      19.95061900       2.57477500
H       30.14608200      19.01877500       2.52731400
H       31.33220900      19.96173300       2.60553500
O        0.41805300       3.50822300      30.47491700
H        0.00668200       4.34780800      30.25675200
H        0.02767600       3.26329800      31.31768600
O       40.64244000      14.67330100      15.90301300
H       41.30879500      14.51089100      15.23121000
H       41.13969700      14.99522000      16.65915200
O       42.42940700       4.07105800       2.40025800
H       42.03356500       4.57092700       3.11800800
H       43.19775500       4.58794800       2.14509600
O       34.19812800      40.67252800      39.77866100
H       35.15252800      40.61411300      39.86488100
H       33.91686000      41.15199300      40.56201500
O       15.18150600      32.54669700       9.70572900
H       15.29014300      33.46610700       9.95991000
H       15.81443600      32.41957000       8.99447600
O        8.07463800      13.82460700      15.60991300
H        8.12480200      12.90781100      15.89043600
H        7.40241700      13.82757100      14.92379900
O       22.23055500       0.55598000      31.94243900
H       21.39737900       0.95986400      31.68862700
H       22.67589600       0.38409600      31.10891100
O       26.04100100      40.73176200       3.89690200
H       26.08051600      41.66607400       3.67958700
H       25.32546200      40.66526600       4.53425900
O       14.37267000      25.49630000      15.65732400
H       13.75677700      24.76909200      15.54084000
H       14.11314800      26.13760900      14.99098100
O       26.68787400       2.55759700       8.29276000
H       26.38321500       2.38639300       7.39855800
H       27.00052800       1.70490100       8.60548700
O       38.17568200      15.35708200      37.84868100
H       37.89201100      14.46676200      37.62825900
H       38.83057100      15.23424300      38.54054300
O       34.18692500       1.95407700      35.20904900
H       33.48113300       1.48195600      34.76107200
H       34.62404400       1.28267200      35.73894000
O       22.41649400      24.11154000       2.97294100
H       21.85381300      24.87941100       2.84848800
H       22.10600600      23.71877200       3.79268000
O       38.95427000      15.77358200       3.66901000
H       38.52914200      16.54525300       4.05047400
H       38.73647500      15.05866700       4.27242000
O       21.30325400       7.48912200      29.24531700
H       22.15315100       7.27033500      28.85604600
H       21.26944300       6.96877600      30.05200100
O        3.44383800      25.53585000      14.25580700
H        3.56282000      26.15054100      14.98362700
H        4.13446700      25.77000600      13.63063100
O        8.24969600      22.35832600      17.80168100
H        8.14454600      21.98407100      16.92384200
H        8.74007200      23.17149700      17.65702200
O       21.94746300      17.83949700      43.79421500
H       21.32235500      18.56558900      43.73294000
H       22.46825700      17.90470800      42.98975100
O       36.96776300       9.70541400       7.93772000
H       36.27524000       9.53440100       8.58028700
H       37.52409500       8.92317300       7.97287800
O       26.06906300       1.23042400      41.19323100
H       26.93819200       0.95111900      40.89602900
H       26.23212600       1.65964400      42.03692700
O       18.37804700      40.55372300      39.07798400
H       18.84570100      40.90755300      39.83813500
H       17.63903800      40.07066200      39.45634700
O       20.68362900      23.81746200      43.78038700
H       20.22479800      23.11020800      43.32105000
H       20.00047800      24.24473500      44.30324800
O       44.31568400      32.87315300       9.85362900
H       44.96411100      33.32274400      10.40056300
H       44.29406000      31.97661400      10.19770900
O       14.13069200       9.56472200      25.76073000
H       13.76950900       8.67965400      25.67169500
H       14.15631300       9.71753800      26.70869200
O       32.34289900      43.04342200       5.75522600
H       32.34619100      42.18971100       5.31603100
H       33.12909500      43.03076100       6.30693000
O        5.49036500      12.75479100      33.47756200
H        6.01585800      12.99748900      34.24351200
H        5.55542300      13.51447300      32.89336000
O       27.91173500      27.53736500      17.07453000
H       28.15811100      27.83728800      16.19642500
H       28.60839800      27.87191300      17.64495100
O       33.73984000       1.70879100      14.12473800
H       32.90959500       2.17530000      14.24634500
H       34.05938200       1.55413500      15.01727200
O       30.96855800      20.01894300      35.93589400
H       31.48435800      20.56639700      35.33926200
H       31.49287900      19.22097400      36.04065500
O       40.31808700      12.85798400      23.50540400
H       40.88511900      12.64764300      22.75977900
H       40.11713300      13.79092400      23.39640400
O       10.05786500      39.07801200      10.39422500
H       10.80749500      38.48325300      10.31649800
H        9.57658700      38.75612800      11.16064800
O       21.44451000       7.30441200      18.17119200
H       22.38909200       7.45820300      18.24760100
H       21.36876500       6.36013400      18.01230400
O        1.70987000      33.98077000      37.11519700
H        2.50730400      34.42127900      37.41814100
H        1.10561400      34.04328700      37.85924600
O       28.12382100       6.48943000       4.54975700
H       28.94351800       5.99042400       4.52122300
H       27.44545700       5.82543900       4.69665800
O        7.01102600       2.82301100      11.55811300
H        6.88574100       1.87593600      11.46283400
H        7.96192700       2.93059000      11.64091700
O       13.69870300      38.69662100      25.23834600
H       12.94056800      38.81618700      25.81511400
H       13.33160600      38.73270300      24.35145300
O        8.89872200       6.26011600       2.35725300
H        9.56345500       6.06301400       1.69317100
H        9.13055100       5.69800700       3.10084600
O        4.18704700      23.03130100      10.41416400
H        4.84028500      23.21288900       9.73443500
H        4.10742700      23.85874000      10.89546100
O       44.19702600       1.76252200       1.22573100
H       44.17648300       2.43951200       1.90616400
H       44.99753600       1.26434000       1.40914500
O       32.85177900      11.13299200       9.59015700
H       32.48748600      11.68157900       8.89153900
H       33.32205900      10.43620300       9.12544000
O       34.53098600      20.75124700      20.16322400
H       33.75694500      20.95350800      20.69395400
H       34.57819800      19.79187000      20.16638800
O       21.99713900       1.53031300       9.26520000
H       22.60948100       0.81726500       9.46096400
H       21.61937400       1.76097500      10.11768600
O       10.88462800       2.98973200      41.38280500
H       10.91206100       2.11733300      40.98293800
H       11.78255600       3.13998600      41.68905700
O       22.33903100      44.56490800      26.70705300
H       23.28294000      44.56796500      26.88241500
H       22.16162500      43.68235000      26.37200000
O        4.01475100       2.10165200      26.49024000
H        4.22301100       2.71424800      27.19952000
H        4.65300600       1.39131000      26.59361300
O       28.60098100      12.26834200      38.21471400
H       28.13673200      11.42810700      38.22897500
H       28.15701900      12.77444800      37.52958900
O       22.13550500      24.78108800      42.25518300
H       22.39296500      23.89126100      42.00290000
H       22.75615700      25.02157100      42.94771500
O       40.90503700      16.24816000       4.65543900
H       40.33895700      16.21671100       5.43022300
H       40.66309600      17.06756400       4.21648100
O       25.68055800      37.83720500       8.74462400
H       25.53613300      37.47914700       9.62363600
H       24.79657800      37.97049200       8.39326000
O       26.04860000      42.56494400       9.64542800
H       26.05905800      42.00531300       8.86540900
H       25.23251000      42.33183100      10.09520200
O       34.90152200      38.43023000      35.46772400
H       35.83065100      38.56376700      35.26619600
H       34.90373200      37.98564600      36.31918300
O        9.45958000       1.93993800      38.83482200
H       10.23042400       2.08107100      38.28020000
H        9.45713400       2.68989300      39.43499100
O       24.64114800      17.81708500       1.56185800
H       24.29054800      18.69148600       1.37685400
H       24.92485000      17.48781400       0.70527400
O       33.37361700       7.93579700      33.31567100
H       34.14249900       8.43084700      33.60802500
H       33.68056800       7.45191900      32.54477200
O        0.81952700      41.26377400      17.42066600
H        0.68248700      40.41153500      17.84094300
H        1.70888600      41.51736700      17.68023300
O        0.66479000      38.94435600      14.96692700
H        1.01814100      39.82229400      14.80539000
H        0.00430100      39.07548700      15.65190900
O       38.60889300       7.96955700      28.72194400
H       38.00600300       8.42653100      29.31306500
H       38.03731100       7.56506600      28.06443300
O       16.53786100      14.69572000      10.70598900
H       16.01922800      15.37441500      11.14430200
H       17.16507800      15.18527000      10.16786200
O       27.54934800      29.08908100      40.68761500
H       27.73318600      29.99124500      40.95969900
H       26.71385900      29.14744200      40.21730200
O       33.28174100       9.34406400       0.62359700
H       33.34139100       8.47513100       0.21971200
H       34.00405300       9.36291300       1.25649000
O       21.11791100      31.39418000       3.24885300
H       21.77138100      30.71367900       3.42667400
H       21.18968900      31.99452300       3.99523000
O       15.27078700      28.42227200      34.33459500
H       15.68440300      28.25640500      35.18496900
H       15.02486000      27.55048700      34.01498300
O       42.87817800      20.94699000      23.30719200
H       42.56652800      20.85194000      22.40410600
H       42.98518800      21.89437600      23.42402500
O        3.91955600       3.16027100      13.89861000
H        4.36685300       3.99563500      13.74428600
H        3.89523300       2.73979000      13.03533300
O       14.38908900      12.34654100      10.75431700
H       15.02453700      12.14094900      11.44400100
H       14.79514200      13.06470000      10.26237200
O       40.27801600      22.51507500      24.92376400
H       40.99980900      23.11981300      24.73659700
H       39.83483700      22.90071600      25.68370800
O       23.94683100      11.42796900      11.23167400
H       24.45547500      12.05643400      11.74939800
H       24.49231700      11.25840300      10.45944600
O       25.43109200      43.99422700      39.27897300
H       25.84507400      43.49459600      39.98658300
H       25.83532300      44.86389100      39.33303800
O        5.93834100      21.67281200      32.50158200
H        6.71795300      21.44327500      33.01270100
H        6.28653200      21.98177400      31.66137500
O       31.57249200      11.77048200       4.96622900
H       31.78366800      12.57375200       5.44777700
H       32.12364200      11.09694200       5.37270200
O       14.43289500      26.82279000      18.86355700
H       14.42055000      27.78275400      18.86993000
H       13.68278400      26.57107200      19.40818000
O       19.68808400      17.63263700       9.79041400
H       20.15742800      18.25922200       9.23468700
H       18.78784500      17.64473000       9.45565200
O        2.69421800      26.30606200       4.43493800
H        2.47038700      25.50997400       3.94722100
H        3.32221200      26.01029200       5.09885500
O       20.25039200      35.09332100      15.17318400
H       19.69175600      34.32393200      15.04017800
H       20.70089200      35.20902800      14.33276500
O        3.22095700      37.77702700      16.29323700
H        2.36580200      37.88021200      15.86922300
H        3.57809000      36.96898400      15.91619000
O       43.49759900      39.80351200      25.94148000
H       43.59081500      40.62934500      26.42214200
H       42.61150400      39.50130800      26.15630600
O       43.44627200      22.86865000      35.93868700
H       43.72282700      23.74988400      35.67663900
H       42.84218400      23.01616800      36.67077900
O        7.12559900      27.60177100      24.06690500
H        6.93156600      28.13251600      24.84304000
H        8.02978200      27.83312200      23.83981100
O        7.45301300      32.30863400      33.53277100
H        7.13588400      32.48931700      32.64479100
H        6.69431700      31.93065200      33.98460400
O       25.10986600      23.85155500      38.80115400
H       25.48536000      24.66903900      39.13648900
H       25.31463300      23.20030400      39.47686500
O       25.11166200       6.55495000      34.26693700
H       24.78748400       7.35130600      34.69408000
H       25.59241600       6.87490500      33.49937800
O       16.50416400      15.90698200      43.14022500
H       16.22616100      15.22735500      43.75872900
H       16.93034000      15.42214100      42.42892600
O        8.29163600      41.04190500      43.00546500
H        7.58910900      40.62704600      43.51150100
H        8.48397100      40.41348800      42.30493600
O       15.50750000       4.53352500      32.85005700
H       16.09317500       4.26900800      33.56331800
H       14.64406100       4.60531700      33.26473700
O       22.76991200      37.92223500      19.28062100
H       22.47683300      38.49000200      18.56405300
H       22.12481500      37.21082300      19.30023800
O       13.87223400       1.73997300      18.70297500
H       13.43751100       2.48781600      18.28647600
H       13.24975400       1.44482200      19.37233800
O       15.84192100       8.36650800      23.37006200
H       16.76645500       8.42046100      23.11697900
H       15.75209100       9.00457300      24.08241400
O       31.81847100      39.35873600       5.89026200
H       32.49613700      39.63541600       6.51150400
H       31.79032700      40.06375900       5.23850000
O       25.86598000       2.21278800      29.92761800
H       25.32570000       2.80083700      30.46055400
H       26.48889300       2.79577500      29.48631400
O        9.02075600      38.41253600      25.27428700
H        9.23317100      39.30189400      24.98163400
H        8.35012000      38.53782300      25.95044800
O        9.80769200       8.90000600      40.38603700
H       10.41067200       9.08873100      39.66317900
H       10.33194300       8.38675500      41.00601800
O       22.56167100       4.73885700      28.44473000
H       23.17993500       4.06537600      28.73781400
H       23.11947400       5.44113400      28.10077300
O       23.73466800      16.87159000      30.74311400
H       24.31745000      17.63136400      30.67358600
H       23.98527600      16.45383300      31.57095200
O       23.80896300       3.62893600      33.26391100
H       24.52952600       4.21552400      33.50563100
H       24.12992100       3.16472900      32.48664700
O       29.33188500      10.24228600       7.15586600
H       29.35269100       9.36310700       7.54101100
H       30.09500400      10.68640100       7.53408800
O       24.92460000       9.83080600      12.71979300
H       24.25230600      10.36820500      13.14517300
H       25.29137200       9.30026600      13.43158500
O       43.13414600       5.93413200      12.53429400
H       43.96212800       5.76234300      12.07969600
H       42.51655800       6.15061300      11.83118400
O       17.21011200      26.18485600      33.36320000
H       16.29734800      25.89587000      33.29196600
H       17.15131400      27.07474200      33.71997300
O       36.72183800      19.52300800       4.19146900
H       36.79282300      18.58796400       4.39732900
H       36.89443900      19.57318400       3.24789400
O        3.20830300      30.24723200       7.21422400
H        3.52780500      30.37832800       6.31842400
H        2.60832800      30.98237300       7.36335300
O       15.46755700      44.45518900      29.67644500
H       15.21107500      43.60264300      30.03575900
H       14.83154200      44.61968600      28.97568300
O       33.59445200      19.45680200      38.65822400
H       33.96298200      19.34105400      39.53715100
H       34.16797400      20.10573100      38.24276700
O       14.71608000      12.16094300      44.90673400
H       15.36009900      11.49419600      44.65690700
H       14.05748700      12.12985500      44.20821300
O       17.60851300      34.69641700      16.92114400
H       16.82065900      35.18829900      16.67811400
H       17.49962600      33.84430400      16.49139000
O        5.19155100       3.94295900      29.75566900
H        5.31432900       3.03420400      30.03995000
H        4.54142400       3.88652700      29.05083400
O       15.68217800       1.68871100      28.90489800
H       14.81838100       1.76519500      28.49291600
H       16.25916600       2.21869000      28.34915600
O       29.79785300      39.43063900      44.30522300
H       29.77530400      40.35227900      44.57317000
H       29.71171700      39.45817600      43.34894700
O       22.11979700      18.88498700       1.72474300
H       21.93804800      19.30720600       0.88187700
H       22.41018000      19.60271000       2.29324200
O       36.91784800       5.40424100      41.27568100
H       37.17257700       4.55844600      41.65180500
H       36.76412000       5.21538900      40.34651800
O        8.16084800      18.67202500      16.03455100
H        7.26887800      18.96458700      15.83325300
H        8.04246500      17.97893500      16.68896200
O       23.36527500      42.32188500      39.73572900
H       24.14513600      41.77272700      39.84512400
H       23.28697700      42.79349300      40.56885500
O       26.52364900       3.39901500      32.59981500
H       26.53427100       2.59393700      33.12275000
H       27.02403600       3.17723200      31.81046800
O       20.26050300       9.64765100      28.09787400
H       19.71797700      10.43904400      28.13086100
H       19.84034400       9.04459300      28.71628300
O       10.60394400      43.15086100      25.80842000
H       10.96859300      42.63426900      25.08600100
H        9.66040800      43.17694500      25.63037200
O       19.55847600      26.64143100      34.23040300
H       20.51019600      26.70863300      34.33734400
H       19.44309200      26.26007500      33.35639100
O        5.07584400      15.23868500      28.00536400
H        4.95471700      16.10823700      28.39386500
H        5.59099000      15.40198700      27.21126100
O        8.46948600      36.81207600      28.48978100
H        8.56806700      35.94603300      28.89224400
H        7.61742300      36.77409100      28.04798000
O       14.80442000      19.94744500      43.20426200
H       13.87118000      20.11698200      43.35274000
H       15.25069700      20.68906500      43.62076900
O       22.66976700       6.37200400       1.61856800
H       21.74670500       6.40480300       1.35664000
H       22.64364400       6.19668000       2.56261300
O        4.52846500      18.54799700      17.33241000
H        4.64400800      17.70855400      17.78375300
H        3.57729800      18.68084300      17.31580900
O       12.51413800      14.56460300       4.26000800
H       12.82098700      14.10056500       5.04246300
H       13.30081700      14.66396800       3.71787900
O       16.77055500      41.48122500      10.86575600
H       17.60542400      41.95388500      10.82953500
H       16.99120900      40.63813100      11.26967000
O       14.32088300       6.77154100      33.47196100
H       15.09739400       7.27214600      33.21090400
H       13.66782300       7.44119000      33.69041900
O       36.98029900      30.52498000      32.08945700
H       37.61798700      30.18508200      32.72155500
H       37.43483500      30.47981500      31.24447200
O       36.90925800      41.83168900      35.91740300
H       37.06904700      40.89570800      35.77551200
H       35.95594700      41.92447100      35.84507400
O       27.57214000      37.99139200      23.26045800
H       27.74421000      37.06360100      23.43743300
H       27.02164100      37.98587800      22.47333500
O       14.78027500      21.83239600      31.26171300
H       14.67410300      21.83894900      32.21586700
H       15.71317200      22.01536400      31.12435500
O       12.74561600      29.84091100      12.95835400
H       12.47164600      30.74815600      12.80482300
H       12.17308700      29.53556000      13.66660000
O       27.27165800       1.94002000      13.55121800
H       28.22478100       1.83005300      13.58570300
H       26.95621300       1.14850000      13.10778500
O       39.41383700      26.68703500      21.47547700
H       40.21676400      27.18457200      21.64720400
H       38.71847400      27.20761200      21.88549100
O       19.42725600      21.00302400      41.87455900
H       19.80813800      20.15646200      42.11948000
H       18.97927500      20.83112800      41.04244900
O        4.45952900      42.41257800      22.46104100
H        5.07764400      43.01565600      22.88051100
H        4.70777000      42.42393800      21.53320000
O       16.24753300       0.38821700      31.80618400
H       15.58920200       1.01325200      31.49368500
H       15.85810500       0.00736900      32.59735000
O       26.06588000       7.93645200      17.68723200
H       26.61762100       7.52724800      17.01651500
H       26.41312800       7.60220200      18.51809800
O       30.39555900       8.80042800      37.65106400
H       29.49285300       8.96157100      37.36667200
H       30.93401100       9.29046300      37.02450400
O       12.58930700      21.60404800      31.55258000
H       12.66850600      22.41982500      31.05262000
H       12.70977800      20.91093400      30.89857500
O       19.10737300       4.22918100      41.08534800
H       19.39756800       3.68689800      41.82253300
H       19.42279100       3.76244700      40.30732900
O       38.26878200      15.39565700      33.99761700
H       38.35848100      14.56069300      33.53230500
H       39.06554200      15.45849000      34.53040900
O       41.36289400      27.66468500      43.10622100
H       41.75679100      26.81401100      43.31340100
H       40.43522600      27.55920100      43.33193500
O        2.34856600       3.66502000      36.19934600
H        2.77044900       3.55089600      37.05416500
H        2.47789200       4.59390000      35.99174400
O       12.67921500      22.28652500      36.93355300
H       13.55709300      22.61518400      37.14101100
H       12.81841000      21.68021200      36.20167100
O        8.69221100      19.57256400      36.38263600
H        9.40095100      18.94191500      36.52992800
H        8.26436300      19.26696500      35.57877300
O       13.27066500      13.47165100      13.42886400
H       12.81958500      13.54929800      12.58493200
H       14.01498000      12.89177500      13.24891800
O       32.11771400      40.98457000       1.53928500
H       31.77219200      40.52728200       2.30949700
H       31.64400700      40.59657600       0.79921500
O        9.11592200      44.58916300      16.74221400
H       10.01679200      44.25728300      16.74591900
H        8.71497700      44.18193300      15.97017200
O        8.62874100      18.82252100      19.58319900
H        9.32446900      18.16108000      19.56970100
H        8.00280300      18.52377300      18.91867400
O       40.73217300       3.43717600      15.73381900
H       41.61981900       3.37751900      15.37291600
H       40.19111800       2.93326100      15.12065400
O       30.80292700      31.44433600       8.85350100
H       29.89648000      31.69769200       8.66405700
H       31.24684900      31.49319500       8.00309700
O       40.40378900      34.19104500      32.99657800
H       39.69481400      34.53524500      33.54485300
H       40.03274000      34.17269700      32.11078500
O       29.05202700       1.92104500      25.02284100
H       28.49232300       2.39948500      24.40676400
H       28.98149500       2.41611600      25.84294600
O       31.88940200      17.49297700       4.74398600
H       31.73081500      18.29694000       4.24376800
H       31.54120700      17.68376200       5.61863000
O       43.25648000      15.09128600       8.82204500
H       44.01142000      14.49912800       8.85580500
H       43.04356100      15.15311900       7.88744100
O       17.49960900      25.09416600      36.12297300
H       16.78997100      25.39034200      35.54815300
H       17.14083900      24.32091100      36.56569700
O        6.93842800      41.71942900      31.73410000
H        6.63197400      40.83615900      31.95237600
H        7.55380500      41.58583600      31.00876800
O       18.68799700      23.52131600      40.68541700
H       18.46853600      22.76794100      40.13225500
H       19.49739400      23.26115100      41.13244500
O       26.03902300      40.53076500       6.89657800
H       25.44312100      41.24354400       6.65456300
H       25.53331200      39.99654800       7.51424300
O       34.43441600      38.66669200      11.16802100
H       35.21740500      39.09099000      11.52666100
H       34.58308400      38.65490200      10.21912600
O       15.98309900      37.62720300      35.27873100
H       15.80236500      38.35858800      34.68363800
H       15.14022100      37.45286500      35.70511500
O       20.37053200      35.89346600       8.72272500
H       21.09146500      36.17367800       8.15398800
H       20.51935400      34.95317600       8.85058500
O        7.76840800      10.50863000      28.52716700
H        7.67094300       9.75510800      27.94028500
H        7.03359100      11.08414900      28.30031000
O       20.80902100      11.92707700      11.87317100
H       20.25442100      12.35161800      11.21445400
H       21.21251500      11.19085500      11.40646900
O        1.33101200      12.10261200      39.61950300
H        1.47076500      12.67297000      40.37903400
H        0.86648200      11.34097300      39.97553600
O       24.88832900       2.17963500      21.22789700
H       25.72699300       1.72060500      21.14037300
H       24.59654500       1.97513300      22.11990800
O       15.74794900      19.89079200      39.46712200
H       16.19148200      20.07912400      38.63674000
H       16.17349300      20.47255300      40.10203000
O       25.59195300      20.15132300       9.69414100
H       25.66632200      20.37525300       8.76352300
H       24.98204400      19.40949900       9.71287500
O       29.92658300      29.20823900      20.11487800
H       29.87808700      28.32045700      20.47711700
H       29.67759000      29.77831400      20.84676500
O       32.14680500      32.42203000      17.73811100
H       31.20629900      32.23556400      17.68907500
H       32.25622200      33.23091900      17.23178400
O       37.77613300      15.84883100      25.65733100
H       37.32946700      15.03273100      25.89438400
H       37.20809700      16.24727500      24.99308700
O        5.79146000      33.06520800      27.94701800
H        6.55896600      33.47203600      27.53817700
H        5.39093200      32.54991200      27.24225600
O       34.47345200       7.98179900      10.42811900
H       34.75903600       7.48307900       9.65906500
H       33.73877700       8.51201700      10.10911400
O       21.37665200      22.29285400      37.43416100
H       20.48169400      22.25498200      37.77961900
H       21.28911400      22.75217800      36.59511400
O       41.84184200      23.09359000      44.18687600
H       41.82278100      22.17480500      43.90903400
H       40.92523100      23.30200700      44.38443400
O       43.44126800      11.15178600      21.62983900
H       44.04888900      11.89473200      21.65333900
H       43.56253800      10.77213800      20.75588100
O       34.67813900      23.49456400      39.68006900
H       35.60894100      23.40703900      39.89841000
H       34.67440300      23.79095500      38.76640600
O       11.72592300      43.34724100      11.43658400
H       12.20428700      42.66766500      11.91728100
H       11.26987300      42.86965300      10.73903900
O       11.36366500      31.69775900      36.56181200
H       11.47988000      30.92817700      37.12391800
H       10.61336700      31.47514100      36.00491300
O        5.92922100      19.21724000      13.33102500
H        5.07825500      19.37704300      12.91624100
H        6.28241700      20.09503300      13.49647200
O        5.44843000      35.44617500      41.99343500
H        5.31681800      34.65235700      41.46973900
H        6.23772000      35.26329000      42.50939600
O       19.16571800      27.36304800       9.10582100
H       20.00872100      27.67810900       8.77144600
H       19.09203700      26.46906300       8.76230400
O        1.56824800      18.77730000       5.28816400
H        0.66765800      18.89282900       5.60011700
H        1.76540500      17.85407800       5.46545800
O       13.24476500      44.06179600       9.68777000
H       13.81063300      43.84488300       8.94314400
H       12.36559300      44.13059900       9.30702800
O        0.89495000      33.86744000      17.66591700
H        0.01696900      34.21784500      17.49831400
H        0.77170800      32.91505100      17.68614600
O        0.58147700      42.46536900       6.33742500
H        0.00704700      42.49407400       5.56870400
H        0.01264500      42.16058100       7.04888600
O       37.52391100       1.71658200       9.40256500
H       37.62244600       0.84114600       9.02095200
H       38.29141000       2.20133100       9.08854900
O        1.72959800      40.66069900      32.14162500
H        2.26897300      40.55876800      32.92928600
H        1.10518100      41.35447800      32.36837700
O       40.22922600      32.19891800      39.05448400
H       39.35412500      32.59203800      39.09161900
H       40.79029700      32.82123300      39.52412800
O       26.04499000      15.74345300       3.85783100
H       26.14881900      16.65029000       3.56018800
H       26.40444200      15.21461100       3.14105800
O       42.78806300      29.93552000      43.44874800
H       42.51628100      29.56423200      42.60613000
H       43.65809700      30.30462200      43.27714800
O       19.96994000      30.93287000      44.98047000
H       19.57396400      30.32249400      44.35407600
H       19.36829700      31.68147000      44.99678300
O       21.12913900      41.37245100      40.43787700
H       21.89821800      40.80448100      40.35040100
H       20.99870600      41.73441600      39.55775700
O        1.69932200      23.05730300      44.43660200
H        0.92885000      23.29234400      44.95895500
H        2.03596900      22.26017400      44.85361100
O       25.68574500       7.82830000       8.43390000
H       25.67047500       7.31523300       7.62257200
H       26.60938300       8.06581100       8.54846000
O       13.54336700      18.78150900       1.21869000
H       12.84757800      19.37366800       1.51356400
H       13.60631700      18.93965400       0.27334900
O        2.33524000       8.18435200       1.07175400
H        3.11170600       8.65322900       0.75714300
H        2.48314400       8.08450600       2.01557400
O       35.46872700      30.49133600      21.28790400
H       36.07737100      29.84433000      21.65213200
H       34.99536900      30.01371900      20.60200600
O       13.08172000      30.38474000      16.49760100
H       12.14671400      30.31866500      16.28993800
H       13.14453800      30.09188800      17.41025300
O       12.22425300       1.30820800      11.07681900
H       12.17778500       0.72121000      11.83510700
H       13.11611600       1.19196600      10.73961200
O       34.93481500      10.87069400      22.71188000
H       35.18555400      11.39340400      23.47714400
H       33.97505500      10.84758800      22.74300300
O       36.31155400      15.47214400      40.96240800
H       35.66709300      14.84222600      41.29346500
H       35.82622800      15.99330100      40.31781800
O        4.10959400       7.68597300      26.91173200
H        3.47666500       7.35825900      26.26851400
H        3.59955200       7.78349300      27.71981000
O        3.49445400       8.80032700      36.62568900
H        3.48515300       7.84082600      36.59410800
H        2.59822300       9.03937300      36.87522500
O       38.27611600      30.78099700      12.21965000
H       38.84828300      30.05436500      12.47724800
H       38.03035700      30.58104300      11.31286200
O       43.22702300      19.59151900      38.66228300
H       42.52573600      18.93672300      38.62816300
H       43.74008700      19.35119500      39.43794500
O        6.99101300      37.41881100      30.71313100
H        6.98140700      38.35483100      30.92643800
H        6.52012500      37.35973400      29.87801600
O        9.88498000      13.36626000      14.42524300
H       10.58788500      12.79637700      14.10449000
H       10.32745000      13.98149500      15.01545400
O       12.94651700      18.32000600       9.41791700
H       13.61520700      17.72962600       9.77292400
H       12.73577800      17.95103900       8.55646800
O       42.50471600      11.31644100      23.61384700
H       42.47881600      10.37182400      23.78341300
H       43.33639200      11.60495900      23.99818500
O       37.73006700      29.83944600       3.21309300
H       37.35038100      28.95781700       3.23022000
H       37.54454800      30.16178200       2.32747200
O       26.05269700       7.08298500      12.55572200
H       26.93165800       6.74419500      12.74112300
H       25.87193800       6.79761200      11.65653800
O       19.86713500      11.44566200      15.02015600
H       19.33547800      11.03684700      14.33318000
H       19.24758000      11.60863700      15.73586100
O        5.46701100      18.85669200       1.24547500
H        5.93765400      19.34726700       0.56756900
H        4.65055900      19.34687500       1.37104400
O        7.86731400      24.16832800      15.24901200
H        7.26588800      23.51042700      15.60563400
H        7.31646500      24.71088100      14.67906200
O       35.05662000      19.89307600      35.86934800
H       34.25208300      19.66287700      35.39875900
H       34.99153600      20.84207000      36.00282900
O       18.47909100      11.64988400      34.86344600
H       18.44675100      10.69197600      34.91905900
H       19.03556600      11.91287700      35.60088200
O       11.34531200      21.08970200      12.08695400
H       11.17259800      21.45059000      11.21422600
H       12.24247900      20.75106200      12.03166100
O       12.42717100       6.02865100      14.02279600
H       11.54403300       6.37492300      14.17074400
H       12.63080600       5.54356700      14.82645500
O       11.37469400      34.57634100       5.24744200
H       12.20352800      34.53703400       5.73036400
H       11.44089900      33.86792500       4.60214600
O       20.76080200      35.52337000      20.45474500
H       20.54012500      34.58948100      20.42510000
H       20.40662300      35.87818500      19.63541300
O       25.97155000      13.81804800      31.79796500
H       26.37589600      12.98329200      31.55015200
H       26.64716400      14.26674900      32.31260700
O       19.57436700      36.98050000      25.41879700
H       19.79476100      36.86137900      24.49199500
H       19.31084100      37.90183200      25.48470000
O       37.54293400       1.75156200       0.68313500
H       36.62432800       1.98482800       0.83634900
H       37.92852500       2.54216500       0.29724800
O        8.93417500      29.72053300      25.47785800
H        8.25575900      29.38892600      26.07074400
H        8.48080500      29.83927800      24.63940800
O        2.26176400       7.98641300      39.17856900
H        3.21556400       7.87754800      39.19035900
H        1.94676300       7.26909600      38.62280700
O       19.06326300      42.38024600      25.16907200
H       18.71987000      43.12311500      25.67102000
H       20.00734600      42.38901900      25.34591200
O       38.98334400      23.48749800      14.13733300
H       39.67648900      22.88683400      14.42101800
H       39.42179900      24.08678800      13.52803000
O       43.39420800      20.22850700      29.16498700
H       44.26364400      20.03478500      29.52314600
H       43.40940800      19.84800400      28.28315500
O       44.23528600      22.05816000      21.45454200
H       44.60564200      21.19495400      21.65312900
H       43.61667100      21.89319400      20.73848100
O       24.88841100       8.10411900       1.24624600
H       25.30014700       8.38414200       0.42540100
H       24.13420200       8.69037700       1.34680100
O       34.60058700      35.07024700      23.34509500
H       33.67587600      35.19539500      23.57086800
H       35.00498100      34.76024000      24.15934500
O       29.42504200      34.40161600      17.09428500
H       29.43240400      33.45014300      17.22222800
H       30.30835100      34.60641300      16.77732100
O       16.80593600      19.50176400       6.03473900
H       16.54946100      20.10731800       6.73420300
H       15.98296000      19.29521200       5.58453100
O       16.57851200       5.19308700      15.25907200
H       15.84548400       5.17608900      15.87883500
H       16.36167900       4.51459500      14.61465500
O       30.86313800      36.07102000      30.44871600
H       30.95320700      35.13377300      30.63628200
H       31.76364100      36.40492200      30.46434800
O       33.99985200      35.87592300      42.05654300
H       33.16100200      35.81550500      42.51958200
H       33.97845600      36.73928100      41.63607000
O       19.86161200      14.05191500       3.88145300
H       20.00201700      14.73412600       4.54221000
H       20.74667300      13.80708900       3.59972700
O       17.60037500      34.77531600      40.73101700
H       17.95376800      34.44761100      41.56134600
H       17.96757400      35.65899200      40.64781000
O       27.53009000      37.74633200      29.66428000
H       27.60002300      38.68782800      29.48986800
H       26.67162200      37.64452800      30.08298100
O       17.64843400      24.11002200       9.03078600
H       16.68929400      24.08373000       8.99787600
H       17.90709600      24.45484600       8.17239700
O       29.58201700      13.84196200      15.53719400
H       28.70734100      13.45197300      15.60482900
H       30.00426700      13.35802100      14.82294700
O       14.56604300      43.35068600      14.89696900
H       15.27417500      43.40733500      15.54277300
H       15.01286400      43.40090400      14.04816300
O       38.35995000       4.94088700       9.04860300
H       37.80866800       5.47527100       8.47219500
H       37.88927700       4.93006500       9.88585600
O       41.66020000      34.54820000      37.57426700
H       42.36335900      34.26675300      38.16425000
H       41.09626900      33.77524200      37.48965000
O       23.55597400      44.23840400      18.65102900
H       22.81880600      44.85166500      18.60390900
H       24.07132300      44.42398500      17.86196800
O        1.10206500      30.92010400      29.51202900
H        1.56545400      31.59210700      29.00665100
H        0.51875000      30.50172000      28.87379800
O        1.55904500      31.68238600       1.47521700
H        2.24878800      31.14002100       1.86485700
H        0.74657600      31.35340300       1.86803500
O       23.97875300      24.91414200       8.86726500
H       24.48679100      25.68743200       9.12347700
H       24.49346300      24.51361600       8.16207300
O       32.10478700      36.14022300       8.66837500
H       31.37572700      35.66000600       8.26889000
H       32.74662100      36.23203700       7.95967200
O       42.72934600      20.59878100      16.53308700
H       43.67004300      20.59857800      16.34121900
H       42.63296600      21.22739800      17.25294400
O       28.27426700       4.21088200      15.62856500
H       28.55152700       4.92211500      15.04632900
H       27.40592500       4.48084500      15.93799000
O        3.47004100      10.93976900      38.65105600
H        3.61586200       9.99532400      38.74316400
H        2.94049800      11.02264500      37.85396300
O       33.77091000      26.82048600      37.59528300
H       33.53245300      25.89054500      37.58675600
H       33.21536300      27.21530100      36.91843000
O       43.59567800      42.74983500      39.47011600
H       43.77263900      43.68231200      39.61467700
H       43.87639700      42.32482500      40.28449000
O        2.66039400       8.63848700      22.33449300
H        1.80036600       8.26796500      22.12285700
H        2.48650000       9.56992600      22.49204800
O       38.23520700      36.38831100      44.42006400
H       38.07070900      37.31089000      44.62865900
H       37.42576900      35.93826300      44.67483700
O       30.33313600       4.94527100      41.43130500
H       29.76699200       5.68144400      41.67472900
H       30.85569000       5.27880000      40.69759000
O       17.43452000      38.90769000      15.09901300
H       18.30400400      38.76087500      15.47870600
H       17.07226400      38.02546900      14.98456000
O        3.30692200      15.47303300      40.60591500
H        3.45092400      14.72095100      41.18501800
H        3.55861100      15.15510900      39.73515700
O        7.90121400      32.27235600      14.98346000
H        7.44264400      32.52886100      14.17994100
H        7.75592800      31.32512000      15.04887500
O        3.13989400       9.57212900      31.48167600
H        3.92565400       9.02905900      31.38482300
H        3.39239900      10.24540500      32.11852900
O       10.50901300       8.47353100      15.89429300
H       10.32689000       7.60372700      15.53097900
H       10.98877800       8.29661100      16.70741400
O        5.37430900      28.94215400       5.22713400
H        6.23541100      29.19614800       5.56730400
H        5.57176500      28.39950300       4.45955100
O       11.67614500      26.72926100      29.86315500
H       12.59938700      26.66419800      29.60797800
H       11.68809600      27.24877100      30.67099600
O       24.52847500      21.64292400       5.76427900
H       25.21148100      22.21089400       5.40008500
H       24.19992000      22.12450100       6.52767800
O       27.52642300      44.02024300      19.74409700
H       27.55882300      43.73123100      18.82913900
H       28.36533100      43.73423400      20.11433200
O       35.15432400      22.57929100       0.57965600
H       34.21537800      22.68322000       0.75084000
H       35.57700900      22.84255900       1.40103900
O       36.13718200      43.71893500      37.10415400
H       35.46774900      44.39998500      37.20292500
H       36.64489200      43.99323500      36.33628000
O       20.22700200      22.44433000       5.97668500
H       20.75430800      22.73388100       5.22846500
H       19.49993500      21.95664100       5.58149500
O       42.15629800      31.03756700      12.63388300
H       42.30006000      31.95479100      12.87833300
H       43.02558000      30.63423900      12.69959400
O       18.41471700       9.96289500      11.99275500
H       18.82566000      10.82601000      11.90396600
H       18.96777900       9.49959300      12.62688100
O       39.35488200      22.11939100      16.46556500
H       39.61969200      21.30991200      16.90867300
H       38.53734800      21.88915200      16.01693400
O       38.15008700      31.15920400      17.22709000
H       38.68705100      31.08612300      16.43459200
H       38.64779900      31.74922500      17.79875400
O        8.45619400      18.74363100      31.79026400
H        8.30371000      19.67377200      31.97277700
H        7.72007900      18.29393900      32.21282100
O       21.21935400       9.22259000      32.56752500
H       21.22864000       8.31170700      32.87072700
H       22.14746800       9.45907900      32.49459100
O        4.23335500       9.66625300      43.49542600
H        4.76075200       9.06896200      44.03098200
H        4.32796300      10.51945800      43.92639300
O       37.54719200       7.44326300      10.44514900
H       36.77632100       6.87133200      10.42570500
H       37.91046200       7.38403400       9.55792300
O       18.72359400       3.90327700      34.24941400
H       19.24672700       3.21390700      34.66513900
H       18.12376400       3.42939900      33.66779100
O       41.20173800      30.78650300       7.36850200
H       40.91996300      30.08216800       7.95692300
H       40.48573600      30.86729900       6.73332100
O       19.42021500       6.42814400       5.28733100
H       19.16813400       6.15019700       4.40363100
H       19.32534000       5.63617800       5.82252300
O       37.39939800      23.34051500      41.18232000
H       37.23943700      22.54869400      41.70112300
H       37.97121200      23.87738400      41.73679600
O       38.94972600       6.87912000      19.98832500
H       39.57300800       6.15742800      20.09970100
H       39.26326600       7.55981400      20.58915000
O       41.31709500      28.28700500      30.09119400
H       40.58746900      27.66734900      30.01773400
H       41.89877900      27.89379500      30.74668800
O       22.09219200      38.78783400      43.31277500
H       21.98148100      39.56681300      43.86291900
H       22.89468800      38.96035500      42.81389700
O       25.46905000      42.04686900      20.11901400
H       25.07675500      42.89605400      20.33514900
H       25.95554800      42.20878500      19.30676700
O       25.72135300      21.57567500      35.43081000
H       26.64051900      21.82174300      35.55851700
H       25.68100500      21.26788600      34.52181100
O        2.01640400      44.43127400      38.65336100
H        2.71623300      44.99709100      38.31897400
H        1.51484200      44.99713400      39.24571300
O       41.10918800      38.33452000      13.21170900
H       41.90428200      37.82899000      13.39607300
H       40.82026200      38.64695900      14.07283900
O        7.63022000      10.87234900      18.55699000
H        7.87081200      11.43378000      19.29769000
H        7.20625900      11.46809000      17.93410000
O       39.90382500       6.88522800      27.12128100
H       39.28384300       6.80806300      26.39231300
H       39.70411400       6.13338100      27.68473800
O        5.33133600      18.00311300      42.29198500
H        5.85502200      17.44922100      42.87566500
H        5.23317100      17.48057800      41.49200800
O       31.28859800      21.00388900       4.63949300
H       30.34791400      21.08241700       4.46435800
H       31.36103400      20.23732000       5.21374700
O       14.00438200      13.18566600       8.04171400
H       13.42812300      12.45601600       8.28100700
H       13.52986700      13.64551500       7.34456500
O       25.51096300      40.90879300      26.21631200
H       25.30030200      40.98627000      25.28285300
H       25.65796200      39.96907900      26.35036800
O       12.62166900      25.06013500       0.67495600
H       13.45286300      25.53875900       0.71691700
H       12.34419300      24.98340600       1.59134100
O       14.66709300      41.48741700       1.02832200
H       15.59082000      41.59579900       1.26645400
H       14.48549400      40.55887900       1.19409300
O       15.05018800      11.64793300      40.29251600
H       15.89458000      11.85033900      39.88293200
H       14.95435700      12.31054800      40.98128200
O       37.11756500      16.63426700      31.70152100
H       37.25331000      17.33720800      32.34118600
H       37.76890300      15.96867600      31.93687300
O       32.07342300      34.44419700      19.20239600
H       31.65135400      34.93101000      18.49064000
H       31.36727500      33.91360100      19.57984300
O       10.88674400      36.00839000      23.31909600
H       11.01288600      35.38878400      24.04152300
H       11.76726300      36.34754900      23.13937600
O       33.92011900      24.84984500      41.23780700
H       33.06451200      24.41481500      41.21752100
H       33.89844400      25.45349100      40.49095800
O       13.95331600      21.98078300      29.22857200
H       14.22035900      21.13246200      28.86695900
H       13.54669100      22.43819400      28.48825300
O       15.45156900      25.10721900      10.51209300
H       14.85753400      24.39997100      10.25008700
H       16.07675200      24.68540300      11.10695400
O       37.48493900      34.08504200      26.76838300
H       37.20173200      34.22161400      27.67550400
H       37.78691300      34.95010400      26.48007400
O       21.89073200       1.89756900      20.58636000
H       21.51548800       2.62742200      20.08813200
H       22.83240500       1.94242800      20.40229200
O       31.82708600      15.90437400      29.65913900
H       31.13244000      15.59032500      30.24271800
H       31.58690200      15.55951600      28.79541100
O       17.78424000      19.70136000      33.95887200
H       18.31382800      19.69158100      33.15814400
H       18.13876100      18.98234800      34.48800300
O       18.07267500      39.30377200      12.64294800
H       17.23174200      38.92521700      12.90987800
H       18.27211900      38.87564100      11.80654600
O        3.26350900      17.76884800       3.85666600
H        3.77684400      16.98779500       3.63719200
H        3.85626600      18.50253700       3.67506000
O       23.37513300      43.94466900      23.85224200
H       23.25682000      43.05826200      24.20153900
H       22.91937700      44.51111500      24.47999100
O        0.38088500      25.50907700       5.43833900
H        0.33481400      25.44323400       4.48164300
H        1.18560300      25.03913400       5.67120000
O       24.84966400      17.28145900      38.87331000
H       24.49384500      18.05612700      39.31490700
H       24.65081400      17.42411500      37.94446700
O        6.07690500      24.74492400      39.88896600
H        5.33546200      25.26044100      39.56303600
H        6.83177600      25.33277500      39.80386600
O       37.24335000       9.11625400      42.40491400
H       36.45140200       8.71089400      42.04404600
H       36.94114300       9.95672400      42.75836100
O        8.68859400      36.07182200      34.88344000
H        9.40991000      36.62370300      35.19465600
H        8.95538300      35.80677300      33.99957600
O       30.81395100      20.69094000      19.25780800
H       31.68245600      20.99154000      18.98020500
H       30.92072500      20.48089100      20.18900100
O       41.60587900      43.57532100       5.68376900
H       42.15332500      42.98525800       5.16045900
H       41.62575700      44.40721500       5.20397800
O       32.70945400       1.33796200      12.19585400
H       32.50393800       0.50366500      11.76755900
H       31.85258700       1.74212500      12.35419600
O       16.93266600      10.33523300       3.78195000
H       16.77739800       9.78726100       3.00907000
H       16.24320000      11.00290200       3.74325900
O       14.72479300      16.90882500      44.99162300
H       14.32281100      16.79757200      44.12689300
H       15.65227000      17.07379200      44.80396500
O       12.36018200       0.00557800      33.91184400
H       11.53247000       0.48760800      33.97714200
H       12.99016000       0.65589700      33.59113300
O       33.75836800      42.38589300      37.79034200
H       33.76715100      41.52274400      37.37007800
H       34.49934300      42.36127300      38.40107300
O       40.15092900      16.27939400      18.60063500
H       39.91818100      16.50201900      17.69620600
H       39.33356300      16.39336000      19.09212800
O       13.83351200      34.94129200      14.69900100
H       13.16971400      35.36036300      14.14630100
H       13.89904400      35.51309600      15.46801800
O       13.23653700       6.80229900      11.37825300
H       13.66970400       7.62130500      11.12661600
H       12.64107600       7.05581800      12.08803900
O       28.59767000      43.90031700      39.10478000
H       28.99716100      44.70997800      38.77831300
H       27.91072900      44.19898400      39.70607200
O       13.81103900      21.39841000       5.86973400
H       14.21188800      22.14133000       6.32702400
H       14.31720300      21.31718400       5.05742700
O        3.51775100      42.49526800      38.09068200
H        4.20581200      42.62235100      37.43330300
H        3.92636800      41.93955500      38.75915600
O       30.85501500      31.91811100      38.61770500
H       30.23444600      31.69075300      39.31407200
H       31.31942000      32.68857300      38.95439200
O       38.90063100       5.04607200      14.12270400
H       39.54443300       4.73332800      13.48283300
H       38.22430600       5.47341400      13.59109800
O       36.02548500      11.83368100      31.79110800
H       36.23029100      10.95318300      32.11437900
H       35.51303400      11.68146400      30.99306900
O        3.09243900      29.46832100      34.04783800
H        3.56661600      30.28173600      34.23555200
H        2.30717500      29.51751900      34.59882100
O        9.91735900      25.21062800      10.46379800
H       10.80602400      25.33705600      10.12318700
H        9.47802200      26.04912000      10.30084200
O       40.97588000       8.86278400      40.50693300
H       40.32319000       8.49758600      41.10888900
H       41.55293400       8.12242300      40.30317900
O       27.94151400       2.05497900       3.45515000
H       27.16105600       1.91115900       3.99545100
H       27.86123200       2.96476500       3.15768400
O       39.53748500       7.98134500      44.36081500
H       38.84024000       8.61708200      44.53805100
H       40.23250800       8.21004700      44.98313300
O       15.39625300       4.99144800      44.53470600
H       15.97145100       4.37722100      44.99687300
H       14.92338200       4.44509900      43.90182500
O       34.56234900      33.79053800      19.29082800
H       34.19873400      34.51211000      19.80932900
H       34.33266800      34.00909600      18.38411900
O       44.97369700      17.75562900      36.73407700
H       44.86849500      18.60213800      36.29353100
H       44.43664700      17.83106400      37.52687500
O       24.09608300      40.74658900      17.22353500
H       24.26442400      41.29321800      16.45244300
H       23.51727000      40.05116300      16.90104600
O       10.43951400      12.52207900      17.48597100
H       10.24279200      13.42553300      17.74442200
H       11.07659300      12.61147900      16.77268200
O       40.30695900      39.99914500      44.99761000
H       40.41932500      39.08658200      44.72133800
H       41.05884500      40.45840200      44.61499800
O       11.26440800      19.37694400      10.37528400
H       10.31497600      19.50150000      10.44449000
H       11.45881800      18.67383500      11.00017100
O       31.29855300      25.45178000      38.96012100
H       30.40495400      25.65539700      39.24603300
H       31.61430000      24.81124600      39.60250800
O       19.60890200      34.69574300      24.82842400
H       19.45022000      33.76124800      24.67590100
H       19.45617300      34.81304000      25.76946500
O       30.71993900       7.26165200       8.31063100
H       31.07342600       8.14217200       8.16415200
H       30.20405900       7.34289400       9.11680100
O        4.47819500      25.34453200       6.84169600
H        3.90869000      25.28282100       7.61213800
H        5.26255800      25.79802200       7.16070000
O       20.03525800      17.99423700      33.97162300
H       20.38414200      18.34842900      34.79293500
H       20.72663000      18.16290100      33.32648800
O        9.58085500      26.12096500       2.13708000
H        9.87013700      25.20609100       2.16944100
H        8.80962100      26.14754100       2.70903600
O        6.66802100      23.68695900       2.00843400
H        5.96784200      24.30081500       2.24221900
H        7.13905700      24.12339000       1.29408400
O        1.05795200      40.39883400      38.39224400
H        0.23985400      40.06959500      38.01271400
H        1.52838300      39.60789500      38.66747600
O       27.29904300       8.68911900      28.80180900
H       26.67123400       8.00779100      29.05354900
H       26.80985600       9.51044400      28.89542500
O       38.21882200      10.09464100      13.59833400
H       37.32733700       9.78749100      13.77899400
H       38.73608300       9.77626800      14.34245900
O       22.33095300       6.86075700      23.09025700
H       23.09446300       6.28725900      22.99087300
H       22.68853400       7.74905200      23.01469300
O        2.78798000      28.29661800      38.83000700
H        3.33372700      29.05074800      38.59511600
H        1.89556500      28.56716300      38.59969800
O       16.60769500       0.84895700      10.65979400
H       17.35053500       1.37365200      10.96737900
H       16.97443100       0.30458500       9.95850500
O       14.56609100      40.62894800       9.66739700
H       14.98672000      39.79124500       9.87488000
H       14.15786900      40.48485300       8.80994000
O       10.66655600      22.36938600      13.98067600
H       10.97667700      22.98428800      13.31176300
H       11.25305400      22.51379000      14.72754200
O       28.94325800      20.14286700      11.65784800
H       28.98831100      19.20156600      11.47441500
H       29.55514700      20.27330600      12.38669600
O        2.63317800       3.26704400      20.78308700
H        2.70786200       3.87117700      21.52549600
H        2.33697800       3.81931600      20.05514200
O       32.75443300      39.88066900      32.56097600
H       32.32219200      40.62810900      32.14118200
H       32.30104800      39.11230500      32.20502700
O       20.20640100       1.77346300      14.78942000
H       20.07468100       1.63316500      13.84883900
H       20.76654000       1.04280700      15.06333300
O       23.76007700       9.98981600      30.47780800
H       24.28354600      10.37900400      29.77336700
H       24.08718300      10.40931700      31.27759700
O       27.78799200      19.05756100       5.04633500
H       28.62703300      18.59448000       4.98896900
H       27.66103800      19.20533700       5.98691300
O       33.80653900      44.52821900       4.85106700
H       34.65672300      44.15342900       5.09282000
H       33.49976100      43.97622700       4.12730300
O       27.54825800       7.88936900      34.23161100
H       27.88834900       7.28612800      34.89656500
H       27.92883800       8.74001700      34.46441600
O       36.47582000      33.22762900      23.58365100
H       36.15048900      32.49633100      23.05347400
H       37.42685300      33.09609600      23.61326200
O       42.38203000       5.02025300      33.24425600
H       41.67199000       5.07691900      33.88796300
H       42.75537100       5.90500600      33.22257400
O       32.82065500      26.71863800       2.22502000
H       33.65479000      26.58904900       2.68235000
H       32.17858100      26.83796900       2.92939400
O       15.76697100      37.94986700       7.46115000
H       15.44691000      38.60920000       8.08128400
H       15.88094000      37.15800500       7.99275900
O       19.88494100      44.25586300      24.19004900
H       19.28633900      44.99028500      24.03504900
H       20.76045200      44.63270300      24.07125300
O       33.01570100      33.81713500      32.43412500
H       32.20804500      34.11982900      32.85578200
H       32.99565900      34.22107800      31.56287900
O       28.29302500      17.14506700      22.48323900
H       28.39573900      17.81143000      21.79976600
H       28.95669800      16.48334700      22.27274300
O       35.69255700      10.25666500      27.05535600
H       35.12545400      11.03005300      27.01075400
H       36.10591200      10.31368000      27.92053200
O       19.79352300      43.03980900      42.03590200
H       19.55362600      42.14872800      41.77104400
H       20.74948800      43.06605700      41.94598900
O        3.39886900      34.57551500      18.18224100
H        2.82005400      34.91184300      17.49406800
H        2.83763400      33.99615200      18.70377400
O        8.42037400      31.76779200       3.90398600
H        8.54667000      32.67541500       4.19033300
H        9.28358600      31.36094000       4.01343300
O       27.46564400      10.60893000      32.77076700
H       27.37323800      11.05841800      31.92747200
H       28.08567900       9.89675700      32.59467300
O       23.57160900       7.73529300      32.35783200
H       24.38157000       7.67383800      31.84605900
H       22.91499500       7.28568800      31.81991400
O       32.39032900      41.09179800      23.12600200
H       32.07930300      40.54712200      23.85285500
H       33.01012200      40.52928100      22.65475600
O       38.24215900      43.80946600      40.96331600
H       38.69066000      42.96951700      40.84060700
H       38.78390200      44.27773400      41.60353700
O       36.35166700      17.65457800       7.22746800
H       35.66612200      17.89677100       6.60049500
H       36.04605300      18.01226500       8.06490500
O       14.09530100      22.98589400       2.20828900
H       13.14310700      22.96261000       2.32873900
H       14.23317400      23.64743800       1.52565300
O        1.84464800      37.79671300      27.92337700
H        1.27361600      38.51027800      27.62931400
H        1.84358300      37.86976100      28.88113700
O       31.83628100       1.78284800      39.82613100
H       31.47837400       2.62868200      40.10576200
H       32.18474400       1.39324700      40.63200100
O       39.34714400      11.73005500      33.53362600
H       39.88965700      11.25544800      34.16778100
H       38.51431800      11.87134700      33.99087800
O       33.59024500       7.54104300      22.73693200
H       32.91058700       6.88075300      22.89122900
H       34.37838500       7.02971500      22.53687900
O       30.32086700      14.45116200      37.96829200
H       30.43436500      13.49875100      38.01019900
H       30.49539900      14.75170900      38.86375400
O        1.71517900      37.64743500       9.05261100
H        2.18027300      38.19845800       9.68647700
H        2.40122500      37.34175500       8.45382700
O       36.09363500       2.52030200      32.62148100
H       36.42609700       3.01141300      31.86649400
H       36.21502500       1.59889300      32.37876500
O       31.74812700      11.44025100       1.61069600
H       31.64039500      12.06176600       2.33446300
H       32.69701100      11.30212500       1.55427400
O       26.21743500       8.71544900      21.39531700
H       25.62260900       8.00508500      21.14374400
H       26.44562200       9.14073100      20.56483000
O       14.02991200      14.43953900      36.30250600
H       13.45882200      15.09357900      36.71215700
H       13.69596800      14.35983900      35.40541500
O       39.18694000      20.50580800      25.61763900
H       38.61053700      19.77556200      25.85475700
H       38.74788500      20.92392000      24.87261800
O       17.86517300      39.22400300      23.56049600
H       17.71998200      39.45753300      22.64065400
H       18.51684900      38.51911000      23.52753100
O       24.30956900      32.67811100      21.00498900
H       24.62413500      33.32596700      21.63985700
H       23.39699500      32.51896100      21.25899800
O       21.25021700       3.13759900      31.41294800
H       20.36730500       2.88976000      31.12875200
H       21.16402900       3.28420800      32.35831500
O       25.46216100      43.32551100      24.17266400
H       25.58280200      42.99925500      23.27783000
H       26.16981700      42.91293400      24.67430700
O       10.32934600      23.14977600      30.71591600
H       10.99427600      23.83177700      30.59562900
H       10.64553400      22.41264700      30.18742000
O       24.83600100      24.94475700      41.24486700
H       24.93373700      24.06867300      41.62519600
H       23.96381300      24.93410800      40.84260100
O        0.97696000      27.85719800      31.00888800
H        1.68984200      28.00925800      30.38406600
H        0.18063200      27.88006200      30.47225000
O       17.98910300       6.86177500       2.68259500
H       17.13739000       7.30179200       2.63067400
H       18.62919000       7.56379600       2.54083100
O       36.94381000      16.52190000      35.55834000
H       37.80469500      16.94672300      35.54704900
H       36.57667800      16.70395300      34.68959800
O        8.44470600      17.38260500      21.43030400
H        7.60806000      17.21056900      21.86865300
H        9.05389300      17.57694200      22.14707900
O       18.84196300       2.78178500      12.45055000
H       19.46434900       2.95153500      11.73953200
H       18.00698400       3.12635600      12.12386500
O        3.75414700      10.75037200      34.99448000
H        4.15958400       9.90733500      34.77852800
H        3.97504100      10.89141900      35.91857600
O        9.57924800      43.86006900      29.93909700
H        9.47647600      43.42460300      30.78852800
H       10.11558300      43.25277500      29.42316900
O       19.22236400      36.18594600      16.78721700
H       20.14329200      36.42011200      16.92427200
H       18.94403200      36.73472100      16.04964000
O        2.48369100      40.70591600       1.76140000
H        2.00911200      40.03699600       1.26235600
H        3.32289500      40.79497700       1.30265600
O       13.37623300      33.62387700      37.78907200
H       13.20852700      33.74282500      38.72686200
H       12.52716100      33.79052200      37.37200000
O       31.01979400      40.11199800      17.24482800
H       30.50154900      40.69252600      16.68257100
H       31.56974200      39.61609900      16.63304100
O       13.34127900      28.11669100      43.10115200
H       13.27231900      27.41148500      43.74895900
H       12.91703100      28.86896400      43.52155800
O       16.31486900       7.87032900      31.46328700
H       16.80692400       7.08872700      31.72540600
H       15.75681700       7.56983400      30.74153800
O        8.03339800      36.23534000      40.50610900
H        7.20659800      36.71783900      40.43315300
H        7.78544700      35.39582600      40.90155600
O       23.05638000      26.97888200      30.96740700
H       24.00377000      27.08802300      30.85665900
H       22.79259400      27.72445400      31.51255200
O       35.28264400      20.50066000      18.04810900
H       36.06552600      20.92422400      17.68836800
H       34.60387200      21.17899100      18.00593200
O       28.83987400      24.91449700       2.37213400
H       28.60730100      25.67357300       2.91198400
H       29.25260600      25.29404700       1.59223900
O       14.48579300      31.08203200      38.87895000
H       15.13454300      31.30468600      38.20718100
H       13.71304500      31.60286500      38.64606300
O       38.96467800      26.83909100      24.22753100
H       38.62374200      26.94153700      25.11915500
H       39.24167300      27.72350800      23.97509800
O       12.11041400       5.11666800      19.45216100
H       11.25128300       5.48544500      19.23393800
H       11.98061200       4.69985200      20.30776500
O       34.93116600       5.78666900      14.98428500
H       35.17220200       4.91020800      14.67534400
H       35.67833600       6.33909200      14.74095600
O       42.80052400      28.12444700       4.66016400
H       42.24357700      28.73991200       4.17773300
H       42.34864500      27.28064800       4.57984800
O       26.13232200       5.10234900      25.37311100
H       26.64471600       4.31753000      25.16517500
H       26.42034400       5.75301600      24.72788500
O       26.93746400       5.42300400      18.05054400
H       26.67767600       5.46618100      18.97378400
H       26.10720900       5.35676200      17.57207800
O        1.70775700       3.27380300      40.73116000
H        2.22465500       3.84018500      41.30887400
H        0.85688600       3.19814200      41.17040600
O       22.96477400       6.46305000      38.30384700
H       22.39427600       6.99536700      37.74447600
H       22.36945800       6.07260400      38.94866800
O       25.53049600      32.22473600      40.45825400
H       25.62437100      33.17876600      40.51059600
H       26.25737300      31.94409200      39.89653200
O       28.89349100      27.43912500      30.23754800
H       29.80112700      27.15336500      30.11001400
H       28.93473800      28.03571700      30.98922400
O       14.69883500       6.99468400       3.57106800
H       15.18486200       6.19945900       3.34059100
H       13.80702800       6.82908900       3.25499700
O        2.10774400      42.36335600      43.38478200
H        2.48631700      42.29870900      44.26468400
H        2.82141100      42.10013200      42.79823800
O       43.46595900      14.12226300      30.33127200
H       44.27415900      14.04778100      30.84409700
H       43.53806200      13.42880000      29.67055100
O        2.09144900      13.64632800      16.25980400
H        1.90668000      12.96405100      15.61012400
H        2.64879300      14.27467300      15.79376600
O       37.16417600      25.37712600      24.60457400
H       37.78388900      25.00008200      23.97567100
H       37.43703900      25.01809400      25.45268000
O       34.90506000      17.61944500      14.66519300
H       34.03430500      17.30613600      14.92082600
H       34.73198700      18.27945800      13.98912400
O        6.82640400      18.51045700      39.18131300
H        6.02619500      18.59066600      38.65694900
H        7.48077700      19.02049100      38.69726400
O       30.58988400      31.61196700      33.48165100
H       30.68234400      32.55193900      33.30952300
H       31.46408000      31.33475100      33.76726300
O       12.68651600      29.84472800      35.00368600
H       12.23917000      30.66021600      34.76580800
H       12.07007400      29.39636000      35.58815800
O       18.76327200      41.78678800      43.95710400
H       18.43221800      40.90662100      43.76362700
H       18.17553200      42.37391700      43.47493900
O       40.61445200       4.87372700      37.93371600
H       41.53046600       5.12832600      37.80021000
H       40.13524900       5.70608000      37.94770900
O       24.96204200       0.90646400       9.28179300
H       24.73761300       1.61184100       8.67040200
H       24.67198300       1.23162300      10.13781900
O       17.80372500      40.00429000      17.27625500
H       18.60523000      40.45422500      16.99899200
H       17.56562100      40.42969500      18.10389000
O       28.30419300      25.66502900      43.62516000
H       28.25645700      26.33082700      42.93511800
H       27.47050200      25.19259900      43.55873400
O       26.83478400      11.60415800       4.79839900
H       26.29090300      12.38099900       4.64861100
H       27.34511000      11.51090700       3.98999700
O       20.01568100      26.82460200       5.43120500
H       19.64875500      26.14665800       6.00346500
H       19.30334000      27.03315400       4.82151800
O       35.75657500      36.65286100      24.99983300
H       35.57820700      37.56959100      25.22235300
H       35.51579000      36.16426900      25.79099900
O       34.62669500       4.10609500      17.48075700
H       34.99858400       4.68374600      18.15138600
H       34.14695000       3.43983800      17.97934400
O        0.95185500      11.01183700      17.63291300
H        1.73436100      11.30422400      17.15971300
H        0.96516100      10.05518700      17.54755600
O       39.86602800      16.05422200      24.93853600
H       40.32114000      15.22523500      25.10400600
H       39.55720300      15.97986700      24.03203700
O       27.78443700      20.19403900      30.79817900
H       27.23211100      20.80273700      31.29431300
H       27.87623300      20.60495900      29.93483700
O       42.15982100      15.56127300      29.08064700
H       41.47617400      15.07349900      29.54586600
H       41.67743500      16.19859400      28.54794800
O       42.94029200      39.68423700      38.14858100
H       42.37754000      39.04018200      37.71242800
H       43.07481700      40.36905000      37.48859900
O       11.33674200      11.76414400      31.50373700
H       11.51628200      11.62394100      32.43638500
H       11.85950300      11.09357600      31.05685800
O       10.95620200      37.15963100      19.67598500
H       10.70531300      36.90392200      20.56671100
H       11.12039100      36.32694300      19.22619200
O       38.73610600      35.19228300       1.27806800
H       38.87137000      34.26997000       1.04835700
H       39.62146800      35.56392300       1.30374700
O       23.24597000      35.79827700      21.51758700
H       23.95491700      35.38825400      22.01858600
H       23.14995800      35.24144100      20.74082600
O       19.89794200      20.35188300      36.66435600
H       20.64605300      19.82700100      36.95855800
H       19.36020500      19.73777300      36.15804600
O       43.99385300      23.00626300      27.80058200
H       43.86633400      22.21640400      27.26993400
H       44.94762800      23.10855400      27.85049900
O       24.14950600      29.62480900      32.35143500
H       23.39702100      30.16719900      32.59903200
H       24.57240300      30.11378200      31.64100900
O       31.48225500      15.73729100      16.10642000
H       30.89608400      16.31818400      16.59702300
H       31.30889800      14.86394700      16.46678000
O        1.09180700      38.17149800      44.94350900
H        1.89759700      37.88431300      44.50767500
H        0.55398100      37.37748100      44.99757600
O       13.50688400      34.25012900      18.93604100
H       13.66787700      34.73378300      18.12247700
H       12.93238500      34.82647600      19.44635200
O       31.98930700      22.54886600      33.57611500
H       32.37867300      23.35308600      33.22490400
H       31.60157600      22.81738400      34.41289700
O       42.06384600      19.32565900      31.53342200
H       41.39757900      19.69628300      30.94993900
H       42.88499000      19.73367100      31.24725600
O       33.70962800      32.42293100      20.99209300
H       33.29457600      33.16162500      21.44352200
H       33.64248200      31.69472800      21.61487100
O        5.30663500      42.97417900      26.93731300
H        4.74991600      42.20941800      27.10141700
H        4.88581600      43.68502100      27.42747400
O       39.05669300      18.63157100      13.21859100
H       38.54646400      19.40298800      13.47609300
H       39.70365200      18.97091600      12.59494900
O        6.68249000       4.76726700      18.08551900
H        5.75148500       4.60640200      17.91500000
H        6.77893100       4.62962900      19.03124500
O       23.17162200      27.74617800      33.67943400
H       22.43094100      27.92585400      34.26324300
H       23.94700300      27.95169100      34.20781800
O       34.17700000      22.73596900      34.90239800
H       35.12693600      22.79740800      34.77761200
H       33.86672800      23.64133400      34.82062300
O       41.17010100       9.47605000      21.63363200
H       41.61155100       8.65504200      21.40386300
H       40.23419100       9.26715500      21.57816800
O       33.43658000      38.33447800       1.37814900
H       32.62657500      38.63058100       0.95631900
H       33.14024100      37.87973800       2.17063700
O        2.97580100       5.61911000      44.06166900
H        2.21444900       5.71992300      43.48555800
H        3.65659700       5.24842100      43.49444000
O       39.25899100      19.67834500       3.13948900
H       40.18464700      19.49383500       3.31511100
H       38.94776100      20.11574600       3.93601800
O       13.79193900      35.79319000      30.09488300
H       13.12340800      35.12228500      30.25197500
H       14.54180900      35.30528700      29.74518800
O       43.02704900       5.00847600       9.32903900
H       43.54144800       4.91101600       8.52429100
H       43.68233400       5.01714500      10.03129900
O       37.76765200      12.37177100      14.80236700
H       37.55289500      11.96496900      15.64505100
H       38.68531400      12.13283200      14.64924300
O       27.84116000      30.37476600      35.04983500
H       28.01016400      31.21474800      34.61671500
H       27.10302500      30.55393200      35.63779600
O       36.83621500       1.29323200      25.11845900
H       36.34427000       1.39578100      24.30041300
H       37.62147300       1.83214300      24.99361400
O       13.70695600      34.64088400       2.79673600
H       14.30539000      34.08462300       3.30089400
H       14.06870000      34.63510900       1.90693200
O       17.50649400      32.99747900      39.42901400
H       17.98220800      33.40449200      38.70116700
H       16.86699500      32.42098800      39.00317100
O       13.15754000      35.04453400      24.38634700
H       13.57585800      34.18063200      24.40659300
H       13.82440600      35.62356300      24.00864700
O       16.68286900      44.30960900      44.90101400
H       17.59663600      44.08487600      44.71062200
H       16.24172900      43.46080400      44.98801100
O       37.03885300      38.23582400      13.15169400
H       37.16336600      37.71154700      13.94627300
H       36.94344500      37.58662900      12.45020600
O       16.94648700      41.82142300      15.93793300
H       17.23974200      41.08590400      15.39503500
H       17.54236700      42.53917900      15.70903100
O        9.51539400       8.31935400      10.17554700
H        8.70619300       7.85470300       9.94967600
H        9.46852800       9.13733200       9.67419100
O       16.05453600       6.29523600      18.64469200
H       15.28446000       5.73417400      18.76266700
H       16.37311700       6.45357400      19.53692300
O       30.44534200      43.81109700      19.16447000
H       30.50930000      42.88603500      19.41325700
H       29.80813100      43.82121000      18.44578900
O        4.45892200      39.18812700      14.35357800
H        5.28109200      39.58824800      14.06089300
H        4.43884000      39.34974800      15.30021300
O       42.43081900      41.26502800       2.65597700
H       42.97939300      41.89226800       3.13280100
H       43.04856500      40.78053500       2.10253500
O       32.23116000      41.05173400      27.68776800
H       32.24410800      40.09911700      27.56911800
H       32.33359800      41.17546900      28.63478400
O       19.60238900      16.10871900       2.74514000
H       20.54295400      16.19103800       2.91916800
H       19.53988900      16.06646900       1.78756400
O       29.75104000      43.74636900       0.61188600
H       29.00282300      43.83708400       0.01718700
H       30.51830700      43.90082000       0.05503000
O       10.23107200      31.58146900      13.62573700
H        9.56770100      32.27093400      13.54635100
H        9.87825300      30.98675600      14.29242800
O       17.46676400      15.70065400      25.03101400
H       16.67724700      15.16241200      25.12420000
H       18.13260100      15.09211200      24.70089400
O        8.97428100       3.25478400      29.88437000
H        9.43773800       2.60927700      29.34561900
H        8.24947700       2.76150800      30.27677300
O       29.51147900      10.33947500      42.44854200
H       29.79115200      10.77296100      41.63885200
H       28.64362600      10.70926000      42.62946400
O       43.10315200      36.52713200      10.30959500
H       43.97951600      36.15772500      10.44093300
H       42.86198800      36.25822900       9.41955400
O       32.46949900      25.94621000      10.72922600
H       31.65681400      25.65755900      10.30738700
H       32.50345000      25.44615400      11.54863600
O       20.12438100       0.91207800      21.52336400
H       19.37450000       0.78066800      20.93844100
H       20.21513100       0.07538300      21.98634200
O       18.30088700      13.77531300      34.31297800
H       18.32747900      14.03362700      33.38869900
H       17.36480700      13.75150700      34.52705500
O       27.47132300      21.29208600      20.57161600
H       27.86121600      22.13898400      20.80068400
H       28.00073500      20.97744400      19.83448200
O        1.43801500      41.42131400      23.59244100
H        2.16168600      42.04924400      23.53138000
H        0.92141600      41.57481500      22.79732800
O        4.55466000      27.86167600      13.08947300
H        4.93935300      28.62739300      13.52238600
H        3.62812200      27.88564300      13.34165200
O       29.23399500       2.53619000      35.58921300
H       28.64304700       3.26940000      35.77604700
H       29.30501500       2.06824400      36.42505100
O       43.46125200      38.35358500       6.08441000
H       42.93658100      37.88440400       6.73733800
H       43.38338700      37.82121100       5.28869900
O       44.31198000       6.09474300      38.91274100
H       44.05364100       6.98712600      39.15489700
H       43.49388700       5.67800000      38.63044500
O       28.66512400       0.00012000      34.30257300
H       29.60445200       0.10392400      34.13342400
H       28.50579300       0.52336700      35.09217300
O       38.43393800      21.87498300       6.14622100
H       38.09900400      22.67790600       6.55224800
H       38.76150400      21.35369300       6.88351300
O       33.65364000      41.48432700      18.71849100
H       33.54469700      41.98901600      19.52790200
H       33.09107000      41.93148600      18.08114800
O       32.89023200      38.22528700       8.88055600
H       32.45911700      38.35348700       9.72874800
H       33.10200200      39.11401800       8.58398800
O       29.09158500       7.10620800      23.54321000
H       29.26278900       7.55890600      22.71406700
H       29.96427600       6.89151800      23.88226900
O       37.06454500      42.13286300      38.60686300
H       37.99256400      41.97231300      38.42050600
H       37.03724600      42.30425500      39.55159700
O       20.51338000       2.60880600      28.62141900
H       21.09080700       2.11432100      28.03508500
H       21.10026200       3.21893600      29.07524000
O       26.78315900      28.54005900       6.18394800
H       27.38879300      28.02041300       5.65018700
H       27.35030300      29.14979500       6.66270900
O       43.92909300       6.00250100      18.77521600
H       43.40504600       6.02814800      17.97120100
H       44.06509500       6.92623400      19.00074500
O       27.24082500      44.86249900       9.95522100
H       27.88215900      44.35932900      10.46240600
H       26.50725800      44.99339700      10.56134600
O        9.03228200       0.77471600       1.44314600
H        9.74487300       0.29328900       1.01633700
H        8.59522500       1.23973400       0.72524500
O        2.59098400      34.58628900      12.23006100
H        2.68847200      33.65232900      12.42991200
H        1.95623200      34.61095400      11.50956000
O       10.71259500       4.13780800      15.72662400
H       11.58897600       4.01084400      16.09751700
H       10.60442500       5.09159500      15.69153400
O       36.92590200      37.71188600      33.15354100
H       37.58048500      37.94249000      33.81691700
H       37.24694700      38.12509800      32.34804200
O        9.14795900      38.99973800      19.09993900
H        9.92116800      39.28893200      18.60979800
H        8.42648500      39.51809400      18.73466500
O       41.47362500      10.49379800      13.25079600
H       40.85235200      10.00539800      13.79596600
H       41.68935200      11.27073500      13.77278500
O        4.83874000      31.68375600       7.53386200
H        4.66742000      32.62572200       7.60510000
H        5.62407100      31.62516800       6.98389400
O       39.19254900      14.00848500      13.60973300
H       39.25941700      14.76821900      14.19287800
H       38.53982300      14.26763000      12.95442000
O       42.78375000      44.90528200      16.71906800
H       42.00414600      44.60110400      16.24851700
H       42.49551300      44.98443300      17.63191900
O       28.38731600      15.64901600      20.30827000
H       28.77954300      16.49500600      20.07983300
H       28.53113600      15.10210200      19.53184000
O       28.16744800      44.39847500      22.20557500
H       27.27949700      44.08938600      22.39982700
H       28.38166200      44.98326200      22.93686000
O       31.96705900       5.12954500      18.03970600
H       32.48161100       4.67797100      18.71279000
H       31.63789600       5.91734200      18.47978600
O       37.31822900      43.72697700       3.92814100
H       36.45818500      43.36287400       4.15057800
H       37.79363000      43.74254300       4.76264200
O        8.75390200      35.05218400      26.55085400
H        9.30401700      34.67776100      27.24288500
H        9.14165200      35.91382400      26.37803100
O       44.31505700      41.56175400      24.37663400
H       43.36208900      41.67146900      24.33739500
H       44.45851800      40.63981200      24.14841800
O       39.92602000      27.65867400      40.83707500
H       40.84895500      27.43576800      40.97930600
H       39.44302700      26.89774000      41.16924900
O       13.67751900      30.19958600       9.65457100
H       13.52305700      29.53325900      10.32827300
H       14.60594700      30.42598100       9.75157400
O       23.81984200      11.68663100      37.71250800
H       24.04879100      11.59899600      36.78426900
H       23.06370800      11.10552400      37.82747700
O       22.57438600       6.34086400      11.26596400
H       22.86012000       5.45244700      11.49134300
H       23.37726900       6.78442400      10.98087400
O        3.68129900       3.78650900      10.37557000
H        3.69794700       4.68195200      10.02969500
H        4.43446500       3.74661800      10.97037400
O        4.24131000      15.43088300      17.41115500
H        5.12908000      15.56626500      17.75065600
H        4.02217000      14.53176900      17.66847600
O       12.34808200       1.35344600      31.17802200
H       13.06959600       1.74103200      31.67894000
H       12.64229700       0.45870400      30.98956800
O       37.48289700      15.91923900       1.03199500
H       37.02278100      16.54731000       1.59372900
H       36.89985800      15.80232300       0.27764800
O        4.86632900       3.77563400      42.40258200
H        4.30961000       3.06683300      42.07184200
H        5.62691700       3.32559600      42.77889800
O       21.02804700      11.85080900      36.86946200
H       21.34064100      12.72874400      37.10020000
H       21.64778700      11.54470700      36.20247900
O        5.54790100      31.23053800      14.10298300
H        4.98161500      30.97506100      13.37101500
H        5.84411200      30.39706800      14.47745400
O       28.46467800      11.80354300      34.46863500
H       28.28087100      11.90072600      35.40591600
H       28.51662000      12.70503000      34.14112300
O       22.24912500       8.68762600      44.14716300
H       21.43007300       8.32369100      43.80302500
H       22.36355200       8.25526000      44.99722700
O        5.22885600      41.50404200      44.99322000
H        5.12013800      40.59316900      44.70999600
H        6.06836200      41.77363000      44.61217500
O       41.76766800      38.99126700       2.03249000
H       42.14065100      38.62599800       2.83821200
H       41.50977300      38.22164300       1.51886600
O       17.35139000      11.02388200      24.78867100
H       17.55028400      10.08536500      24.82545400
H       17.65429700      11.29790700      23.91930400
O       15.30890800      40.51880000      13.83162800
H       15.90924300      40.87377100      13.17184100
H       15.23810000      41.21556400      14.48900900
O       33.34324700      19.32804700      23.72191000
H       34.16262500      18.98226000      23.36028000
H       33.60926700      19.77708300      24.52828500
O        7.45706500      39.83445800      14.63518000
H        8.13658100      39.56370900      14.01334600
H        7.94404900      40.22305700      15.36626000
O       22.28173600      13.03928500      16.76759700
H       23.04027300      12.77856900      16.23998600
H       21.54218800      12.57464800      16.36781800
O       39.49148000      13.23945500      31.74128700
H       39.30637400      14.08433600      31.32458800
H       38.90265000      12.62194200      31.30015400
O       19.38002400      35.17942000      36.85810400
H       19.13445600      34.28505600      36.61004400
H       19.07711800      35.72174300      36.12545500
O       26.85143900      21.35830000      43.88168200
H       26.90668100      21.66012700      42.97197100
H       27.01136100      22.14776400      44.40495300
O       42.35323900       3.13796900      20.27162200
H       42.49170900       4.08126400      20.38452200
H       43.20223700       2.80703900      19.96776400
O        9.19065400      25.49660200      12.52108200
H        8.38904300      25.26708700      12.04519500
H        9.06665600      25.11631000      13.39437800
O       35.46209500      25.52528000      35.82433400
H       35.42815300      25.72989900      34.88694200
H       35.75592400      24.61141700      35.85840900
O       20.26646600      40.50867000      23.33718800
H       19.48846500      40.82088600      22.86925700
H       19.99428100      40.47702800      24.25781600
O       13.72754100      19.02833100      40.80024900
H       14.04733000      18.60116500      40.00213300
H       12.94517000      19.50811200      40.51679200
O        5.33973200      22.40422900       4.59856500
H        6.11423900      22.64309700       4.08397300
H        4.81432000      21.86482200       4.00222200
O       22.35582700      20.06302600      42.45576200
H       23.24411000      20.42008700      42.38375100
H       21.93060000      20.61340800      43.11826000
O       10.81428400      10.67875800      22.09811000
H       10.23037400      10.16141300      21.53853100
H       10.99379700      10.10681500      22.84864200
O        9.87524300       2.45722000      43.45310100
H       10.24824300       1.62664800      43.14855800
H        8.97806000       2.45570500      43.11002400
O       29.36124400      19.12029300       7.39294500
H       29.40064100      20.01723400       7.05284300
H       30.04846500      18.65245700       6.91180300
O       36.98693500      25.22657400      20.41413200
H       36.59653400      24.39826200      20.12567000
H       37.86722900      25.22186900      20.02981100
O       28.83625000      21.50210400      41.50728800
H       28.26292500      20.74764400      41.35296500
H       28.78599200      22.01013300      40.69364100
O       28.73225000      26.11308100      35.16086100
H       29.67048200      26.31507700      35.18620800
H       28.55166800      25.71149000      36.01453400
O       38.85001600      42.97733600      44.96518700
H       39.47088200      43.64474800      44.66383600
H       39.30955000      42.14503900      44.82824900
O       13.17218100      43.09178600      28.14459300
H       12.37231200      42.56704000      28.22569100
H       13.83007800      42.60252300      28.64502800
O       31.29421800      17.64862300      34.14761300
H       32.24747600      17.54301600      34.19085200
H       31.04623700      17.23722000      33.31581000
O       44.89811200       4.12361500      33.33997200
H       44.21496300       4.07792200      34.01298300
H       44.67026500       4.89926500      32.82122800
O        8.68835700       5.63990900      26.22934400
H        9.50892300       5.55708300      26.72080900
H        8.81518500       6.41988000      25.68326600
O       43.52933300      13.33330900       0.94745000
H       44.08761200      12.60218000       1.22222300
H       43.84204700      14.07966700       1.46494500
O       10.88050000      24.96935300      15.12883600
H       10.99395100      25.25409300      16.03865800
H       10.13838600      24.36032600      15.16037900
O       16.85027800       2.84419900       8.40320300
H       17.45945900       2.29310600       8.90011400
H       16.38633000       2.22929900       7.82936300
O        8.86250800       5.43700200      13.62905400
H        9.26457900       6.25679600      13.92570500
H        9.43498000       5.13361200      12.91991900
O       29.26399900      35.20172300      32.21588100
H       28.41999000      35.51373600      31.88118700
H       29.08372200      34.30953100      32.52269500
O       28.74430700       7.44418700      29.89969900
H       28.47222900       7.41352400      30.81989400
H       28.35707500       6.65617000      29.51018400
O       16.71513000      44.25578500       4.05834500
H       16.76936800      44.03154400       4.99027800
H       15.78648000      44.14392800       3.83984900
O       42.99118600      27.99692800      16.38150100
H       42.10713100      28.16080300      16.04487600
H       42.86289300      27.83485600      17.31953900
O       40.38367100      26.20820200       7.16797400
H       39.51403400      26.61216500       7.12031700
H       40.46356600      25.92127200       8.08117200
O       23.03984800      10.89709400      41.93529600
H       23.11469100      10.02779600      41.53474000
H       22.19710100      11.23318300      41.61991900
O       36.27688300      38.44156400       5.40226800
H       36.45997700      38.28915800       6.33230800
H       35.95070700      37.59679800       5.08192100
O       19.04620300      33.08425900      27.46260900
H       18.68049000      32.92445400      26.58943100
H       19.74400700      32.43028200      27.55219200
O       43.41037800      42.56105500      28.83062200
H       43.69634100      41.85499400      28.24630300
H       43.78586700      43.35657300      28.44487500
O       42.60994600      35.31162100      15.78366100
H       42.41697000      34.57787500      16.37196500
H       42.32511100      36.08899700      16.27069100
O       32.35329200      30.53418900      19.95447500
H       31.85778300      31.32652500      19.73447900
H       31.85757600      30.13502800      20.67390400
O       11.37748500      22.62217000      33.08070100
H       10.55967800      22.62160800      33.58360800
H       11.43982100      23.51339600      32.72789300
O        0.00509200       8.06100000       8.89487200
H        0.19611400       8.95627900       8.60554500
H        0.77875900       7.55557900       8.63289700
O        7.03606300      35.73918000      44.92065300
H        6.36004400      36.41648900      44.99795200
H        7.72758000      36.15122300      44.39656700
O        1.82314800      18.91986200       8.52637000
H        1.75226700      19.76498500       8.97633300
H        1.81100000      19.14509900       7.59268800
O       17.87094800      25.86486900      12.73897700
H       17.11189300      25.42396200      13.12777200
H       17.50365400      26.37742900      12.01439500
O       43.67609200      29.86422900       0.46141100
H       42.97733500      30.35333700       0.90213400
H       44.37609600      29.80591700       1.11657200
O       35.82981100       0.10779000      26.98088200
H       35.29419900       0.00190400      26.19117700
H       35.19132800       0.16326800      27.69635600
O       30.15288900      25.60102300      13.45327000
H       29.25108200      25.34802600      13.66412900
H       30.37152300      26.27070600      14.10623700
O        1.58051100      28.18801500      17.10760300
H        1.78072800      27.25220300      17.18436600
H        2.01415900      28.58760100      17.86584000
O        1.62117600      14.23975900      25.21791900
H        1.63608900      14.83909100      24.46805000
H        2.01501000      14.74421600      25.93420200
O        7.35232100      21.30291600       6.37754200
H        7.40196300      20.55618600       6.97892100
H        6.64080900      21.07575100       5.77356600
O        4.17280900      12.63658100      14.59268900
H        4.09479400      12.62924100      15.54955100
H        5.08299800      12.89662200      14.42966500
O       37.80500800      41.14171200      22.88807900
H       38.66411800      41.38327200      22.53409700
H       37.98417600      40.38694500      23.45453100
O       14.08204100      39.37931400      35.60062100
H       14.08822700      40.31613000      35.39070800
H       13.40684200      39.29123000      36.27810800
O        4.41702000      44.28693200      13.14064100
H        3.71163000      43.72904500      13.47666400
H        4.89244400      44.56921000      13.92609200
O        2.96168800      29.63808500      11.16363400
H        3.25882800      29.75237500      12.06937800
H        2.27344900      30.29898900      11.05329300
O        7.34558600      16.85264800       0.39558300
H        8.30455400      16.81122100       0.41530000
H        7.11480700      17.39653900       1.15292400
O       29.96573700      20.09145900      32.98572000
H       29.09869300      20.14172000      32.57653200
H       29.95925900      19.25393800      33.45599500
O       34.14072700      14.61170800      23.00514600
H       33.40373300      15.16507100      23.27413200
H       34.57141900      15.11112800      22.30677200
O        9.51151800      19.01202300      26.67009500
H       10.32940700      19.23482900      26.21938500
H        9.77381100      18.37410400      27.33860300
O       26.54439500       5.25415400      35.30934200
H       27.45859100       5.01377100      35.14145200
H       26.59399400       5.89910600      36.01942600
O       38.05283900      44.90991500      38.18161300
H       38.36735800      44.98672100      37.27778600
H       38.47905400      44.11662300      38.51578400
O       32.82296900      11.18387700      16.90461200
H       33.41262700      10.43732700      16.77541700
H       33.34454400      11.81569100      17.40602200
O       24.85904300      35.78476400       3.90321000
H       24.71098800      35.80159300       2.95477900
H       24.09377200      36.23310400       4.27198400
O       35.23538800      14.05129400      19.07542700
H       36.03411200      14.20912700      18.56665000
H       35.05449800      14.89252500      19.50233600
O       41.42928400      30.65107100      40.50361000
H       41.61938100      29.71580900      40.39933000
H       42.22214000      31.09214300      40.18821100
O       34.10633400      29.67783000       4.20921500
H       34.99611000      29.37730800       4.40849200
H       33.95598100      29.39408400       3.30393900
O        9.69878900      22.85223200       2.85519200
H        8.82892300      23.07535100       2.51567000
H        9.53963000      22.11970700       3.45579000
O        6.87358600      27.25002500      13.62909300
H        7.64421100      26.72764700      13.86357700
H        6.44835200      26.74706800      12.92991300
O        5.46655100      15.49019800      13.16485200
H        6.07175300      14.76851300      13.35093400
H        5.34505700      15.92421500      14.01309100
O       20.48298800      33.61202000      12.83543100
H       20.21194700      33.80678800      11.93524900
H       19.74819300      33.11467900      13.20335800
O       24.44975400      24.24178400       5.90377100
H       24.94796700      24.91483700       5.43418600
H       23.53977000      24.38564100       5.63196900
O       16.71276000      34.39096400       8.55987600
H       16.00574700      34.98198400       8.29051800
H       17.46953400      34.67162400       8.03914000
O       23.43010300      44.50730100       6.08534300
H       22.84684600      43.96355600       6.62001800
H       22.96473400      44.60705100       5.25100300
O        9.91489100       6.68995300      22.80442900
H       10.75861300       6.60622000      22.35404500
H        9.70134500       7.62416500      22.73895600
O       19.86335800       3.03431300      24.60509900
H       18.95560200       3.33552300      24.68861900
H       19.78587100       2.10924800      24.35833700
O       25.50743700      10.41259900       3.43805700
H       24.61222300      10.18918400       3.17272100
H       26.00738400      10.40798500       2.61789100
O       35.44313100      31.91077100       0.53199000
H       35.06574200      32.26453200       1.34078900
H       34.68154600      31.65504400       0.00546000
O       18.86364300       5.59120000       7.97770700
H       18.25113200       4.89013700       8.21236900
H       18.29957600       6.31904000       7.70435900
O       31.14906400      43.69756300      22.25213500
H       31.52508800      42.82902500      22.09097600
H       30.19953700      43.55480700      22.22640700
O       36.10583900       3.75769800      19.81686800
H       36.79278200       4.42731900      19.77889800
H       36.40065500       3.15224600      20.50181500
O        3.84698000      37.00739100      31.04232400
H        4.43931100      36.30870900      31.32992300
H        4.25411500      37.35122200      30.24316000
O       24.86282800       0.71446500      13.64749600
H       24.79521700       1.55223100      13.18349100
H       23.95224400       0.46777700      13.82811500
O       43.47461300      13.01559200      16.29611100
H       43.49737400      12.05675600      16.33900200
H       44.22339500      13.29591600      16.82845100
O       11.86220800      11.76268300       6.02140800
H       12.17418500      10.90721900       5.71714100
H       11.65659100      12.24214200       5.21488300
O       25.30259000       5.19353300      42.46922900
H       24.64864100       4.89563500      41.83257100
H       25.34878300       4.48290700      43.11383600
O        6.77710800      43.75731400      25.03497200
H        6.00740800      43.20885500      24.86621500
H        7.27118100      43.27568800      25.70323100
O       40.86589800      43.05314100      40.52581200
H       40.93910200      43.54393500      39.70393100
H       41.75935500      42.74717300      40.70119700
O        7.71999800      29.73900300      12.27141400
H        8.66897400      29.81186100      12.14547200
H        7.55935500      30.15777900      13.12080400
O       38.24920500      31.93853900      21.92770500
H       37.81842300      31.18364600      21.51992000
H       38.87294300      31.55126200      22.54706700
O       32.36428600      44.08835800      34.36283900
H       33.23627500      44.39873900      34.10783900
H       32.10964100      44.66300000      35.08919000
O       21.64973000      20.84382700       6.59161200
H       22.36117800      20.20278200       6.65963700
H       20.94479000      20.37086000       6.14216400
O       21.62035600       0.50762200      34.15915000
H       20.78636500       0.87491200      33.85702000
H       21.39004200       0.01032700      34.94800700
O       18.62230300      43.48928900      12.02818200
H       18.06487500      44.23163200      11.78338500
H       18.19466700      43.11521300      12.80267300
O       41.74588600      25.03958600      28.65673800
H       42.53690600      25.07606700      28.11389100
H       41.54812100      25.95903800      28.85203300
O       44.43426400      34.57142500      31.32465400
H       43.93141500      34.20622000      30.59288000
H       44.16129800      34.05127000      32.08463400
O        5.35242600      10.51931600      26.99862200
H        4.85077600      10.73790100      26.20976700
H        5.23318500       9.57183600      27.10208900
O       16.70087200      34.04339200       1.46710400
H       17.35057600      34.57592300       1.00232500
H       16.62936400      34.45547500       2.33181000
O       44.49001300      23.33260000      15.38481500
H       44.61732700      22.38732400      15.49421900
H       43.87613500      23.40701200      14.64979100
O       19.91615100       6.52713600      24.35973300
H       20.67994900       7.07001100      24.56859700
H       19.22951700       6.84358700      24.95221500
O       26.35660600       3.04065100      18.87180800
H       26.95216500       3.36282700      19.55242300
H       26.31190400       2.09315300      19.02310400
O       43.15690400       8.05769400      33.00636000
H       42.89697100       8.98189900      33.00876700
H       44.01984300       8.05381200      32.58450300
O       24.60257300       4.13270600      23.40569600
H       24.88266700       5.04710100      23.32111600
H       24.05414900       4.12329600      24.19422900
O       30.03097800      29.50207100      16.84643200
H       30.74224100      28.86219500      16.76649300
H       30.16184700      29.89712700      17.71213700
O       16.71133500      33.70396800      20.37701000
H       15.86974300      33.65892500      19.91720600
H       16.77826200      34.61857800      20.66275600
O       37.19012700      22.22306500      27.28891100
H       37.67200900      22.02379300      26.48280600
H       36.28956700      22.38228800      26.99517300
O       30.26785400      44.82782100      29.99939800
H       30.15852800      44.96309300      29.05521900
H       29.37219700      44.72474400      30.33078100
O       43.75279200      24.73924200      22.17635000
H       44.23133500      24.25755800      21.49760100
H       44.18551000      24.48869700      22.99648700
O        4.40059300      18.35543800       5.99537800
H        4.48262400      17.47468700       6.36857100
H        3.58482100      18.69785300       6.36942500
O        5.96512100      34.83888700      38.02371800
H        6.23854400      35.72784000      38.26189200
H        6.77811200      34.40311000      37.75578700
O        6.28661700      36.30756500      25.60931700
H        6.97711200      35.68124400      25.37982900
H        6.75228700      37.02820900      26.04113500
O       15.97751600      31.53986900      23.75335100
H       16.39635300      32.38795300      23.58887200
H       15.13293200      31.59907900      23.29968500
O       34.45711500       6.79100900      36.68878800
H       35.00801800       7.57419000      36.61909400
H       34.76935500       6.34975000      37.48278900
O       28.02241200      38.72950900       7.90186400
H       27.62873900      38.85855700       8.76794300
H       27.27179100      38.66437900       7.30607100
O        0.99227000      30.57320500      40.99898200
H        1.81482600      30.14173200      41.24179200
H        0.44718000      29.86567800      40.64553500
O       11.28522900      36.24552800       8.09823700
H       10.83075500      35.40439300       8.01065800
H       11.41310900      36.54274400       7.19383000
O       25.56216100      25.23241800      32.51181600
H       24.79744000      24.67004300      32.36807600
H       25.22249300      26.12579100      32.41615200
O       44.21082200      14.45445500      39.19965600
H       43.61209500      14.48517900      39.94952800
H       44.41876000      13.52214900      39.09861600
O       41.98637000      43.19987100      26.13257500
H       41.78121900      43.78223100      26.86775900
H       41.76360400      42.32254500      26.45400400
O       10.11591200      19.77877100      13.71158900
H       10.46923300      19.27679400      12.97341000
H        9.44547400      19.20499200      14.09097300
O       41.70825300      32.29647600      42.32859700
H       41.57278900      32.28038200      43.27892100
H       42.58275400      31.91851600      42.20597600
O       19.94798800      23.66895300       8.43069300
H       20.48182500      22.94236400       8.10082700
H       20.44940600      24.01532800       9.17315300
O       16.61670400       3.42745900      21.01685600
H       15.71779600       3.64679000      21.27295000
H       16.81947200       4.04281200      20.30772400
O       21.55377800      43.33703300      21.83645300
H       21.15654500      42.86819700      22.57410100
H       22.49926100      43.22732800      21.96556000
O       36.51193000       8.89015500      38.46938100
H       35.66216900       9.22931700      38.17851800
H       36.30296900       8.34709100      39.23361800
O       44.98449700      14.86976500      18.65365300
H       44.65644200      15.74605900      18.43867700
H       44.54930400      14.64856000      19.48088700
O       31.19782100       8.87859000      18.11723700
H       31.83063100       8.60300400      18.78456600
H       31.11601300       8.11721100      17.53736400
O       27.95927300      43.26613700      25.90567200
H       28.68984100      43.79788200      26.23008300
H       28.32152100      42.80036600      25.14773000
O       44.99153100       6.49112500      41.76286500
H       44.55686500       5.94994400      41.09960500
H       44.51456800       7.32458100      41.74051800
O       43.25789800      43.66115000      19.59200100
H       43.14977300      42.76867900      19.25506100
H       44.15208700      43.67699700      19.94245400
O       37.62963600      30.19795300      19.14216600
H       38.02052600      29.67198700      19.84380000
H       36.90120600      30.65815800      19.56671600
O       41.60029300       7.26467400      37.01571500
H       42.40136500       7.32845800      37.54101500
H       41.84041000       6.69136700      36.28338600
O       34.84811200      28.17577100       7.30693800
H       34.41789300      28.08120400       8.15998800
H       35.51737900      28.84958100       7.45082600
O       36.92552300      38.29039000      17.01273900
H       36.92174400      37.93377100      16.12137300
H       37.82628600      38.15774100      17.31879800
O       40.92442300       9.28589900      27.19922400
H       40.00649700       9.31122400      27.47939400
H       40.98578400       9.96422300      26.52191100
O       38.89307800      44.04492500       9.06934000
H       39.65228200      44.23474500       9.62548900
H       39.15091600      43.26459400       8.57210100
O       21.07478200      20.61667900       3.96049600
H       21.56227900      21.27093500       3.45451100
H       20.16129900      20.73773300       3.68931800
O        3.04205900      19.01958000      20.80391000
H        3.50739600      19.85729000      20.74536800
H        2.36820200      19.16735100      21.47228400
O       17.86326700       0.72176500       2.89426600
H       18.36905200       1.19575200       2.23000500
H       16.97882300       1.09068100       2.82867700
O       22.06726400      14.17480300       1.45496300
H       21.11254800      14.16175400       1.35460000
H       22.22630500      14.83173400       2.13745200
O       19.26125100      20.15270800      38.76504600
H       19.79027900      19.37073800      38.93933600
H       18.37533500      19.81282600      38.61579900
O       33.35063900       3.98673100      15.41561900
H       33.02131700       3.38527700      16.08757600
H       32.79074000       4.76311800      15.49548200
O        7.38001000       9.86580000       2.92180000
H        6.83623700       9.27249400       2.39832700
H        7.92050900       9.28168100       3.45967300
O       33.24367400      41.31911700      11.25891900
H       32.39407700      41.64587900      11.56410000
H       33.37728900      40.50560400      11.75185600
O        4.52539600      43.88259400      17.93756100
H        5.17740800      43.23925000      18.22515900
H        3.88698100      43.36783100      17.43747400
O       32.10309600       0.08441600      17.36024000
H       31.21012700       0.08970800      17.00767200
H       32.63462200       0.48786500      16.66933300
O       25.65926000      39.61469900      12.60964600
H       26.35084000      39.94068100      13.19031700
H       25.16750800      40.40104100      12.35966600
O        7.65558100      38.05402600      38.69575000
H        6.76245900      38.32256500      38.92366400
H        7.89291700      38.61883300      37.95594800
O       21.12619300      17.63947200      38.14710500
H       20.36755700      17.73200900      37.56604100
H       20.74848400      17.39117500      38.99464600
O       12.47692200      11.43856500      20.18888000
H       12.37018400      10.55258500      20.54295800
H       12.78902300      11.30050200      19.29100800
O       16.86693700      27.18590000      42.51679100
H       16.19939400      26.91587000      41.88181300
H       17.47730500      27.72428900      42.00666400
O       16.31930400      10.43177900      16.91033600
H       16.25104500      11.10191700      16.22624600
H       16.08204700       9.61339700      16.46693700
O        1.82126700      35.41354600      32.37952100
H        1.20358600      35.05287800      33.01992300
H        1.26472300      35.86220100      31.73795400
O       40.40010100       2.71618400       4.64502600
H       40.13190800       3.53869200       4.22876000
H       41.26959300       2.53601600       4.27874000
O       17.46770500       2.68929700      41.47695200
H       16.58325300       2.60710700      41.11265200
H       17.46769600       2.10279900      42.23765000
O       40.55719800       5.38580000       6.03657400
H       40.04336600       5.86241700       5.38042000
H       41.23339100       4.93256200       5.52669100
O       17.69605000      44.96369300      27.80437700
H       16.78052000      44.99464400      27.51702200
H       17.65223900      44.63228400      28.70487200
O        5.79856900      34.12044300      22.18276200
H        6.63088500      34.20994500      22.65283100
H        5.21580200      34.75547300      22.60674400
O       12.50941000      21.60039900      26.73496400
H       13.07490400      22.27069900      26.34427200
H       13.11177200      20.89334700      26.97966900
O       26.72956800      35.73344300      28.99308400
H       25.86141700      35.70769000      29.40220100
H       27.33793300      35.54770000      29.71282900
O       35.58875100      23.02652700       7.06003200
H       36.24213000      23.71325100       7.21244600
H       35.50449000      22.58496300       7.90889200
O       41.20849900      18.50429200      16.64483800
H       40.97962900      19.00507000      17.43132800
H       41.74524900      17.77814800      16.97233600
O       16.76995600       5.20132100      11.33554200
H       16.01003300       5.72760900      11.07619100
H       16.46046100       4.69004500      12.08750800
O       17.01495600       8.33115300      37.45783600
H       16.94789600       7.40343800      37.21998500
H       16.87972600       8.34388000      38.40872600
O       29.18015200      22.70350300      17.31044300
H       28.35605100      22.89688200      17.76341900
H       29.79435700      22.48488900      18.01585300
O        4.15549800       6.01334900      16.78235200
H        4.22755600       6.94202200      17.01494700
H        4.94321500       5.83605200      16.26205500
O       11.64808300      41.11614000       0.90084300
H       11.99680200      41.09366700       0.00663100
H       12.29817700      40.63859700       1.42235300
O       29.36511500      43.11575900      31.83008800
H       30.11864800      43.57197500      32.21189800
H       29.72103400      42.67558900      31.05406400
O        3.28814400      39.52277200      42.50397000
H        3.12118900      38.69816900      42.04149800
H        3.19910500      39.29714500      43.43338200
O        6.54383500      42.24282700      16.46544900
H        6.76334600      42.45958500      15.55629800
H        7.38073100      42.30130800      16.93324000
O       23.15318300      33.28765800       4.39534100
H       22.46861700      33.72216000       4.90944500
H       23.17490500      33.77446200       3.56757800
O       35.14592100      39.87380300       1.97739700
H       35.66209300      40.33923200       2.63971700
H       34.26870500      40.25932900       2.04451100
O       38.29182800      30.89303600      28.46643300
H       38.23571600      31.84086100      28.60857400
H       39.23425400      30.70736000      28.46615800
O        7.32449400       6.38902100      35.09087900
H        7.08568200       5.93912900      34.27706600
H        7.13511200       5.74894000      35.78158300
O       35.86191000       9.24419800      18.76664000
H       36.57489500       9.18810400      19.40713300
H       35.81674700       8.36496400      18.38251700
O       39.72415900      29.28824500      21.23221500
H       39.57931800      29.49194300      22.15917500
H       39.93069700      30.13627900      20.83118800
O       27.05612400      28.64552100      29.78678800
H       26.74053400      28.21874400      28.98679400
H       27.78945400      29.19156500      29.49233200
O       37.35514200      37.64611200       8.98661600
H       37.69028800      38.18931200       8.26944400
H       36.40741500      37.60890100       8.83472800
O       35.97140300      37.58711100      29.58922900
H       36.58718500      38.30250300      29.41386800
H       35.21002600      38.01935000      29.98434500
O       30.43298000      23.88014300      15.57488200
H       29.55489400      24.26354800      15.63563100
H       31.01194900      24.63236200      15.42790200
O       37.49499000       6.17064700       2.59705400
H       38.26776100       6.50404800       2.13510900
H       36.76253800       6.36309300       2.00618900
O       41.60753800      31.61541500      18.61466800
H       40.84513000      31.69172700      18.03619200
H       41.26597400      31.18801700      19.40416600
O       38.95075800       9.79685700      10.90430000
H       38.62189400       9.40134400      10.09365600
H       38.98616300       9.06739700      11.52822000
O       19.41995900       0.91084100      39.40902200
H       18.69067900       1.47772100      39.14725400
H       19.06638400       0.38577400      40.13147100
O       23.68823300      28.38883700       4.51673400
H       23.42125300      29.03228000       3.85610700
H       24.17599200      28.90197200       5.16590600
O       27.08243700      40.67881400      10.29105700
H       26.38410700      40.03554900      10.43342700
H       27.06084700      41.23186000      11.07611500
O       30.79093400       8.53890500      14.57454600
H       30.15715400       8.38277400      13.87050800
H       30.25458200       8.81996600      15.32018200
O        8.29661900      35.97879500      37.52607200
H        7.95855000      36.65231000      36.93125000
H        8.64661600      35.30005200      36.94344700
O       20.05751100      22.82828200      30.75878300
H       19.51879500      23.53994300      30.40515900
H       19.73361600      22.70670400      31.65486000
O       10.39497900      35.83866700      42.51165200
H       10.98808900      36.53280000      42.21479300
H       10.11316900      36.12309000      43.38476700
O       16.47319100       1.98313100      19.32398900
H       15.94171300       2.48696400      18.70317600
H       16.36917900       1.07098200      19.04148700
O       36.40227700      34.76457900      42.58356600
H       37.21229800      34.49839300      43.02485500
H       36.53393200      35.69497600      42.38439100
O        2.79832300      30.93191300      26.51976100
H        3.04996500      30.05788700      26.21238400
H        3.20046700      31.00386900      27.38909700
O       38.39843600      44.12769700      31.11292400
H       37.85959800      44.13350300      31.90749600
H       39.30140200      44.17652700      31.43682100
O        9.63538600      30.30832900      43.33113800
H        8.88386000      30.75538500      43.72746500
H       10.33948600      30.40739900      43.97694800
O        7.44476500      11.00087400      26.14033200
H        6.82982500      11.43090400      25.54146100
H        7.96706800      10.42701700      25.57417900
O        3.05759900      32.49481600      22.49632600
H        3.60243800      33.27629300      22.37729000
H        2.50191500      32.70431200      23.25128900
O        1.21830000      34.55492700      25.89577700
H        0.66477200      35.20826100      26.32992800
H        1.76381000      35.06700900      25.29342100
O        5.27191700      37.50717700       6.46750300
H        6.08251600      37.23390300       6.03164200
H        5.49981000      37.53310600       7.40026000
O       39.46242100      33.33109000      19.44642200
H       39.49578400      32.43565500      19.79110800
H       40.37133600      33.52814200      19.20624200
O       15.78180800      37.17821000      23.10273400
H       16.12710900      37.93588700      22.62480300
H       14.96374000      37.49545500      23.49358200
O       44.18968000      32.55451300      16.19135300
H       43.31293900      32.54255400      16.58238700
H       44.19015300      33.33458100      15.63087500
O       40.75414600      38.33860700      22.11279100
H       41.46933000      38.35611000      22.75305000
H       40.64712900      37.40800800      21.90024700
O        4.80645400      31.46115900      23.39265300
H        5.62438600      31.96313400      23.41972900
H        4.75768300      31.03816900      24.25366500
O       34.21674600      32.29459600      11.52876100
H       34.31429400      31.40439600      11.18270800
H       35.11553300      32.57803900      11.71446200
O       18.93922100      25.49221800      42.47526500
H       18.36208100      24.72533900      42.49831700
H       19.80075800      25.13540800      42.24486600
O       12.07213400      43.04769500      43.96635700
H       11.17036200      43.23136500      44.23984700
H       12.42424300      43.90515400      43.71451400
O       10.67198200      33.56946000      38.53404200
H       10.56612300      34.45790300      38.18592400
H       10.15653500      33.01773700      37.94027500
O        5.22087800       2.66712500      37.92373700
H        5.15835100       2.51465500      36.97792100
H        5.53410900       3.57202100      37.99917900
O       23.67301700      13.26687700      43.71225300
H       23.77166400      13.95068000      43.04561400
H       23.51460700      13.74966000      44.52740300
O        4.18504900      16.59913000       1.11865200
H        3.82774700      15.93077900       1.70803000
H        4.42777400      16.11324100       0.32641500
O        2.90587600       1.50832900      43.21088300
H        3.09677300       1.87644000      44.07678000
H        3.23088600       0.60570300      43.25859500
O       37.77643000      41.60784600      31.44302500
H       38.68558600      41.91401200      31.40532000
H       37.32604700      42.11371100      30.76192400
O       28.93814900       5.44467200      19.95117100
H       28.94788600       4.63218900      19.43979800
H       29.69823200       5.93702800      19.63101300
O       44.38740700       4.39611800      25.04043400
H       44.49942400       4.45822600      24.08895100
H       44.99842300       3.70488700      25.30783000
O       39.01996400      31.88807100      41.64980700
H       38.84047200      31.34270500      40.88033700
H       39.50540500      32.64000700      41.30112000
O       34.19104400       6.30425900      40.56597500
H       35.09392100       6.62273400      40.63747000
H       33.67560900       6.93150400      41.07933000
O       23.97639900       6.51636800      43.79625200
H       23.29349600       6.55761300      43.12270300
H       24.68518100       7.06512100      43.45108500
O       42.39102100      26.49920200      33.51658000
H       41.82452100      25.83637700      33.91840800
H       42.63301400      26.12253500      32.66675400
O       41.29879700      43.26029600       2.75226900
H       41.92311800      43.97866600       2.62620000
H       40.55219900      43.66867800       3.19775500
O        1.21731100      13.23480800      29.99245200
H        1.82893000      13.53374300      30.66942000
H        1.65789500      13.44247100      29.16456100
O       33.12127100      30.23019200      32.36553700
H       33.13922200      29.31398300      32.65182800
H       32.51223600      30.23601200      31.62278200
O       31.32068900       1.41427100       1.51018400
H       30.81214300       2.16540000       1.82468600
H       30.67877800       0.86757300       1.05006200
O       20.75190300      13.06689200      32.74022600
H       20.33745300      13.90126800      32.50833500
H       20.19864600      12.71246100      33.44088900
O       32.13752400      19.59773300      32.82104300
H       32.60231100      19.02066200      32.21056200
H       32.10904100      20.44641800      32.37208400
O       16.09065800      44.33728300      22.46070400
H       16.35132800      44.76645600      21.64242200
H       15.73352900      43.49015000      22.18237700
O       21.15953400      35.00063300      32.71852100
H       21.34827600      34.82798700      31.79315900
H       21.27794100      34.15002700      33.14874300
O       32.52300000      25.69417900      43.92070500
H       31.62592600      26.03618700      43.91714400
H       32.47486900      24.89312800      43.39283800
O       44.01959400      15.41220800      16.14502700
H       43.27652300      15.50977800      16.74506900
H       44.54908800      16.20020300      16.29111400
O       33.12557700      27.78798500      12.25510300
H       32.86946800      28.37177200      12.97296400
H       33.55820400      27.04950200      12.69113100
O       29.80143000      -0.01963700       3.83572100
H       29.96419400       0.60699300       3.12680100
H       29.00228200       0.30272900       4.26008600
O       32.43384300      33.46007500       6.29106800
H       32.51976300      34.40655600       6.15499100
H       31.82542400      33.37969000       7.02999100
O       21.82047900       7.37267600      15.18450800
H       21.29626400       7.18373100      15.96631600
H       21.89797500       6.52529500      14.73888300
O       15.91713300       1.32122100      13.27081600
H       16.74628000       1.47492400      13.72974400
H       16.05988400       0.50314100      12.78810500
O        2.34540700      10.94544700      19.56504400
H        2.71755800      11.01917700      20.44696900
H        2.34719300      11.84547100      19.22949100
O       32.37480900      23.92112100      13.12906400
H       32.32483400      23.56664400      14.01989100
H       31.48549500      23.81778300      12.78109200
O       36.14845600      33.19977500       3.77725900
H       36.59148500      33.78445000       4.39661800
H       36.59614500      33.35427500       2.94158800
O       10.16119100       7.88028600       3.72183700
H       10.79758700       7.34046100       3.24716500
H       10.51125000       8.77253800       3.65868700
O       39.36583700      18.30622400      30.67332700
H       39.24656100      19.25280800      30.56619700
H       39.97464700      18.06171200      29.97175300
O       40.73086200      25.34352300      25.83490900
H       41.61180600      24.96666000      25.77460800
H       40.40082200      25.04332900      26.68555500
O       18.37266800       3.59938100      36.64682500
H       19.12411800       3.50382700      37.23667000
H       17.92296400       4.38846400      36.95948500
O       11.87287100       3.49616800      13.26461800
H       11.29903900       4.18668900      13.60465100
H       11.94129300       3.68415200      12.32513800
O       42.63062100       6.99096500      23.74672300
H       43.17588600       6.32572100      24.17317500
H       43.17663000       7.78122600      23.74458400
O        0.90918700      16.06877300      21.21162500
H        0.00709400      15.75996700      21.32384400
H        0.85558000      16.70627200      20.49513100
O       31.18333800      31.82899100      11.37751500
H       32.06933100      31.86814000      11.74522200
H       30.67511900      31.34232300      12.03135800
O        8.95920400      40.15842200      39.23931200
H        8.03161900      40.28403900      39.45269400
H        9.27327000      41.03779600      39.01412900
O       43.14307300      26.08209200      14.35725700
H       42.39301100      25.50877700      14.53173600
H       42.91007400      26.53903600      13.54512700
O       20.23191100      32.43299200      37.06646300
H       20.20563600      31.47553100      37.13205600
H       21.07735100      32.67532800      37.45265800
O       12.57540600      31.45504200      27.64199900
H       11.90091300      32.13724500      27.67919500
H       12.09555100      30.65811700      27.40264100
O       32.82903800      29.49674900      17.05454800
H       32.52888900      30.09636400      16.36745400
H       32.45478000      29.85466600      17.86354100
O       17.87094300      17.17779500      29.46762000
H       18.73620900      17.43779700      29.14290700
H       17.72330800      17.74194100      30.23089300
O        5.69352900      10.71468500      15.90921700
H        5.14175600      10.73282400      15.12376000
H        5.07007200      10.74467900      16.63931500
O       24.08865500      15.87576900      40.51792500
H       24.02664600      15.50503600      41.40134900
H       24.89158500      15.49357600      40.15478000
O       41.82505000      18.96508200      36.34682800
H       40.90657600      19.23619000      36.41487300
H       42.25355900      19.68887900      35.88299600
O       21.10855200      38.54369200      23.96306200
H       21.13122400      38.14626500      23.08941300
H       21.68569700      37.98794700      24.49286600
O        2.78286600      35.37287900      14.61093600
H        3.64437300      34.95833600      14.52327700
H        2.36735700      34.90716500      15.34107600
O       15.76441600      12.30042200      19.79036300
H       16.49125000      12.00858500      20.34558200
H       15.76619300      13.25691000      19.87850500
O       18.92573100       1.78564500      18.31803100
H       19.34507700       2.28880000      17.61609900
H       19.64298000       1.57380500      18.92079100
O       29.11178500      16.95640400      11.80843500
H       29.84601000      16.54336000      11.34796500
H       28.37240700      16.36140200      11.66032800
O       18.65430200      33.02658800       9.63291500
H       18.40054500      33.91642600       9.88888300
H       18.00973500      32.46102900      10.06571700
O       39.07424500       9.61459800      35.56663400
H       38.49151000       8.89801200      35.82864500
H       39.69464700       9.20670600      34.95723500
O       24.05314000      22.46907900      42.85213500
H       23.91428100      23.21560700      43.43962100
H       24.75009300      21.96016100      43.27391600
O       31.13030800      41.00869400       9.20681600
H       31.18953000      40.05250600       9.14419100
H       32.02275700      41.28908300       9.42489600
O       38.90901200      40.01154400      38.00828700
H       39.80919300      40.25423300      37.77915600
H       38.47090600      39.89396000      37.16160000
O       20.74716800      43.80772800      19.38535200
H       21.30440600      43.07816400      19.66632600
H       20.18081400      43.42829700      18.70865600
O       26.37799700      12.55793200      28.56086400
H       25.62042100      12.91957400      28.09501200
H       26.28268100      11.60658300      28.46871100
O       13.42777100      10.47769400      41.22043700
H       13.48347500       9.54050800      41.01967700
H       12.67337000      10.78601100      40.71204500
O       17.77422500      25.47152800      30.80955900
H       18.36172500      25.79550100      31.49629800
H       18.29518500      25.52683800      30.00446000
O       33.05291700      20.99758500      14.59923800
H       33.58277200      20.49785400      15.22473600
H       32.23815400      21.18416000      15.07251600
O        5.84533500      45.00650100      20.09724800
H        5.14715200      44.35072700      20.16225700
H        6.11889200      44.97310200      19.17708900
O        0.86639100      11.65630900      43.12946900
H        1.69722200      11.81307700      42.67464000
H        0.39190900      11.04861600      42.55656600
O        5.71849500       7.27029400      32.73714500
H        6.53995800       7.74658200      32.87882300
H        5.03288800       7.91604200      32.92580900
O       18.86346200      12.35948300      38.17816200
H       18.22503700      11.64398000      38.13131900
H       19.52967300      12.04462700      38.79433600
O       35.69268300      28.83497100      41.84241000
H       36.31618300      28.14747500      42.08801500
H       34.88355500      28.36032800      41.63584600
O       16.85794600      40.65595100      28.21758400
H       17.67027400      40.15064700      28.13686200
H       16.34391400      40.40592400      27.44563900
O       15.74363100      44.99303200       7.85070500
H       15.97838900      44.07773300       8.02053500
H       14.90651300      44.94154300       7.38249200
O       11.58999600      16.95302500       2.12254900
H       11.37215100      17.88612100       2.18254800
H       12.43532000      16.93436300       1.66678500
O       13.40607600      27.23746300      37.15733400
H       13.36774000      27.80445300      36.38352600
H       12.67923000      26.62104200      37.03749500
O        2.04233400      21.71107900      20.23060100
H        1.70818200      21.20679300      20.97609600
H        1.86407500      21.15532600      19.46770800
O       39.22254800       4.04523200      30.67106200
H       39.91376800       3.48811900      30.30559700
H       38.43483000       3.80221200      30.17802700
O        3.54163400      20.96359100      42.83156600
H        4.25501700      20.34217500      42.66831300
H        2.79765800      20.41133500      43.08485400
O        3.11809200      24.62826900      22.58835200
H        3.22782900      25.52480900      22.91377100
H        3.60255200      24.61466100      21.75904300
O       17.59906200       9.39460400       8.07880000
H       17.95763300       8.50925600       8.17528800
H       16.93618600       9.30949800       7.38887600
O       31.58634500      25.40129800      35.84166200
H       32.43229700      25.71040100      35.50918000
H       31.40712000      25.96516300      36.59835100
O       12.44625900      14.27770500      33.06240500
H       12.94747100      13.50895200      33.34441500
H       13.06651000      14.78584700      32.53351800
O       42.52461400       9.99729400      42.91669300
H       41.95309600       9.68431800      43.62177300
H       41.96034000      10.56650400      42.38731800
O       35.92072900      43.82108100      23.93307000
H       35.89900300      43.00194300      24.43333600
H       35.31642600      43.67000700      23.20188200
O        0.95765900      44.89695400       6.56966200
H        0.40422200      44.99723200       5.79160200
H        0.35107000      44.99494300       7.30796500
O       24.43599800      35.29975600      15.05478300
H       24.11014600      36.01675800      14.50573600
H       24.29082600      34.51041000      14.52705200
O       23.35138800      31.23194700      29.58720300
H       23.55821500      30.30089200      29.69712900
H       23.46052700      31.60572200      30.46528200
O       10.98651800      27.81716600       5.38927100
H       10.55356000      27.12370400       5.89264300
H       10.27221100      28.24670100       4.91187500
O       28.76998500      31.18435000      31.54613100
H       28.38519100      31.21347100      32.42522700
H       29.40143200      31.90812800      31.53815800
O       29.65732100      21.32955200      43.56444700
H       28.93853600      20.69961600      43.65529700
H       30.41718700      20.88055700      43.94345600
O        2.90859800      44.45728000      26.78078000
H        1.98093700      44.21526200      26.83173100
H        2.97040100      44.99986200      25.99057300
O       12.62491900       1.25162700       1.36968900
H       11.91105900       0.66943800       1.09916100
H       12.98485200       0.83719700       2.15793900
O       40.65765500      44.61239200      19.81984700
H       41.50737800      44.99697100      19.59226400
H       40.44234300      44.99774500      20.67295000
O       39.71921100      27.44659800       2.59067100
H       40.28203200      27.62709100       3.34722900
H       39.30421700      28.29058900       2.39547600
O       13.07165600       3.57622500       3.38632400
H       13.26195100       4.23682500       4.05648800
H       13.68066700       3.77915700       2.67178500
O        9.17691900      12.17464100      33.37118400
H        9.62487500      11.33930100      33.52372300
H        8.35919100      11.92973300      32.93074700
O       15.52656500      14.85248600       7.07227300
H       15.69978900      14.48622000       6.20188900
H       16.39425200      14.92328000       7.47816700
O        8.51953500      11.14058600       7.11621800
H        7.76432300      10.54793200       7.12807000
H        8.13992800      12.00724700       6.95057300
O       33.76112200      36.33216300      16.18372100
H       34.09135900      36.50422100      15.29881100
H       32.81563200      36.48913400      16.12007800
O       44.65774500      18.46151300      12.77718600
H       44.99107800      19.36184600      12.77333100
H       43.75020100      18.54196400      12.47299400
O        8.79179000       3.39340200       6.68622300
H        8.91499600       3.96800200       5.92702600
H        8.07150800       3.79749000       7.17668100
O       14.48901300       4.52012400      13.04964500
H       14.06466600       3.68941900      13.27676700
H       13.92204100       4.90059600      12.37405200
O       30.18829300      19.85146000      15.68276200
H       29.75179800      20.69917600      15.57062800
H       29.66621600      19.40106900      16.35151100
O       12.90685300      12.99986600      42.26773400
H       12.24649000      13.61160800      42.60152800
H       12.55302500      12.13106400      42.47420500
O       40.85692400      12.01418200      38.73635300
H       40.00159500      12.25505000      38.37286900
H       41.10393900      12.76488000      39.28231800
O       41.87061600      37.61891700      28.69657000
H       41.45275000      37.32617700      29.50984500
H       41.13745700      37.79076800      28.10025900
O       26.34756500      38.10979900      27.63336900
H       25.55663000      37.75460100      27.22108000
H       27.01607800      37.43582800      27.48675400
O       22.12319800      21.59610800      40.91252800
H       21.47563500      21.94853900      41.52749100
H       21.63536000      21.47967800      40.09332100
O       33.09254500       0.97477900       3.04857900
H       33.35964600       1.52575500       3.78804300
H       32.25278400       0.59789000       3.32316900
O       34.50207300       2.18933900       0.29059900
H       33.88154000       2.86258400       0.00180200
H       34.03373500       1.71405000       0.98154200
O       12.49481700      42.14239800      33.51025500
H       12.03079700      41.58816800      34.14210900
H       11.89147100      42.21220100      32.76611600
O        9.34804800      34.07285300      23.39558900
H        8.90722100      34.77050100      23.88618400
H        8.81677500      33.96681900      22.60240100
O       19.61566600      16.22798300      31.10973000
H       19.88094800      15.99481800      32.00246900
H       20.14598300      15.65820500      30.54691700
O       19.64485600      18.31116200       3.51651300
H       20.58503900      18.30418100       3.71076200
H       19.23563000      18.61737900       4.32978200
O       35.42393800      24.42789100       3.90687500
H       35.84206800      25.06367200       4.49226000
H       35.99444700      24.40380700       3.13448800
O        1.56113600      39.12477100      36.52029200
H        2.07729400      38.32406500      36.63935800
H        2.20478700      39.83496000      36.58343500
O       19.70399700       9.95602200      37.57923200
H       18.80981600       9.60981900      37.53119300
H       20.17189200       9.50706000      36.87060700
O        4.01369300      37.79909000      10.93364700
H        3.97398900      38.73545600      11.14189500
H        3.30355800      37.40966000      11.45007300
O       40.13818100      28.51226400       5.37571900
H       39.29158100      28.07467400       5.49194900
H       40.72096300      28.07394000       6.00092200
O       16.27808800       7.56324600       9.89191500
H       17.04263200       7.07824100       9.57259300
H       16.60255700       8.04160900      10.65907300
O        2.67381400      23.35923400       5.44043800
H        3.18921500      22.98050900       6.15643600
H        3.33080700      23.67863800       4.81675300
O       34.05295900       5.89388900      24.49332600
H       34.11158400       6.51283900      25.22489200
H       34.96693300       5.68837000      24.28106200
O       23.83230600      36.66821000      30.48470200
H       23.99181100      37.61440900      30.45321200
H       23.06144500      36.57505200      31.05015400
O       44.26242000      29.89309100      26.83691600
H       44.99402200      29.37648200      26.49108600
H       44.02148500      29.44835000      27.65349300
O        9.95877000      11.76307600      26.74692900
H        9.83930400      10.90854300      27.16791200
H       10.69821400      12.15842000      27.21551000
O       15.84600100      32.61481400      36.27562000
H       16.11094400      33.53147500      36.38174800
H       16.62855100      32.11132900      36.51386500
O       18.62151700       5.99631800      16.84960100
H       18.32302600       5.40746300      17.54665100
H       19.57306600       5.86842400      16.82063500
O       27.75227800      19.13198800      35.12553100
H       27.42163200      19.68061000      34.41040000
H       28.66656100      19.40610200      35.23319000
O        1.43668800       4.38985900      38.62159900
H        1.32326800       5.21138000      38.13790100
H        0.60470000       4.27004900      39.08644800
O        6.57159600      27.41766400      38.87209600
H        6.50894400      28.19465700      39.43252500
H        6.97837400      27.73909200      38.06348100
O       37.91429100      25.48647400       9.16675800
H       38.81222800      25.19408300       9.33979300
H       38.01994200      26.33594000       8.73099800
O        3.74345400      36.58201200      22.73567700
H        3.49619100      35.95198200      23.41659400
H        3.10426100      36.43725700      22.03345100
O       31.97482400       2.50638300      35.99777400
H       31.30954500       3.19569700      35.93473000
H       31.49486700       1.74090200      36.32384500
O       12.64338300      23.47981300      11.10490700
H       11.68946300      23.58698000      11.12154600
H       12.83864100      22.96014300      11.88878100
O       41.07542500      16.08579200      42.91425300
H       40.36658900      16.43856800      42.37127400
H       41.78957800      15.91764500      42.29429100
O       16.31106800      39.38378900       2.96744600
H       17.13204200      39.50415400       2.48449800
H       15.92055800      40.26089600       2.99619400
O        6.39110500      31.18089500      10.79048800
H        5.96088100      31.69756300      11.47582400
H        7.32261300      31.39872000      10.87702100
O       29.28392000      22.79926900       8.84758700
H       28.91770900      21.91448400       8.91665200
H       29.05803200      23.08202800       7.95783200
O       23.22906100      18.40864100       8.82866000
H       22.33866300      18.67229300       9.07238900
H       23.48452700      19.03423600       8.14601100
O        4.89572900      33.11462000       0.00867000
H        3.96368100      33.02591700       0.22113700
H        5.05171400      34.06240900       0.01124900
O        5.99319900       5.94813000       6.04410000
H        6.91454400       5.92838900       5.77491900
H        5.94953000       6.65482000       6.69319500
O       29.12973200       9.80540200      23.62525200
H       28.36671100      10.37498800      23.50239000
H       28.89227800       9.24585100      24.36900000
O       12.78077200      31.79755900      43.68697900
H       13.35649700      32.14706900      44.37116400
H       12.46735300      30.96223800      44.04285900
O        3.90602300       6.38904200      22.17774900
H        4.35172700       7.23899200      22.15211400
H        4.35015700       5.86653600      21.50516000
O       41.47497700      24.13227700      22.05977400
H       41.59436900      24.96163200      21.59111500
H       41.31472200      24.39372500      22.97005200
O        3.87851900       2.99348200      32.04519000
H        4.56192800       2.35609000      32.26520700
H        3.31674800       2.53327100      31.41649200
O       32.76963200      13.93781600       9.07957600
H       33.47781700      14.55906300       8.89450000
H       32.04904400      14.48622300       9.39995900
O       31.97650800      18.00862400      12.64150300
H       31.72410400      17.10986200      12.41734700
H       32.59650000      17.90795500      13.36822100
O       24.67004500       3.52361100      10.71698200
H       23.77856700       3.23243600      10.51153500
H       24.84476800       4.22284600      10.08201400
O       11.36187700      44.50277700      27.36963300
H       12.11754700      44.97696900      27.72435800
H       10.60044300      44.95748300      27.73855400
O       11.80663900       8.09960800      10.02092100
H       11.81966200       8.97426800      10.41655500
H       12.35184900       8.18537700       9.23477100
O       43.51008200      27.01007000      28.74241600
H       43.11577700      27.87237600      28.89300600
H       43.92175900      27.08386400      27.87770900
O       14.30557800      15.11952500       9.64764200
H       14.78938600      15.90855800       9.39253200
H       13.67351500      15.42842300      10.30164600
O        4.74865800       9.59963900      40.92133200
H        3.80577800       9.42929300      40.86063700
H        5.07045500       8.94106400      41.54211200
O        4.23639700      24.46137500      41.29320800
H        3.74132200      25.10425200      41.80636900
H        3.63336000      23.72037700      41.19365600
O       20.22953900       5.23711200      35.14338500
H       20.48257500       6.15340600      35.00883800
H       19.64677600       5.26029100      35.90659700
O       39.85843700       5.92655500      11.07351700
H       40.01209600       6.83438500      10.80156500
H       39.08627700       5.97561600      11.64273100
O       35.46299600      22.51045300      16.28748700
H       34.84627500      23.09397900      16.73568100
H       35.67048600      22.96679000      15.46813100
O       36.52289300      33.59237000      17.73338000
H       36.83370800      34.14604200      18.45349600
H       36.46189600      32.71396300      18.11720700
O       22.90990100       4.52948500      44.16419600
H       23.64620600       4.36312900      44.75741200
H       23.18390100       4.14134900      43.32938100
O       14.28573500      36.45727500       6.53585500
H       14.44052300      35.56663800       6.85916800
H       14.86260700      36.53726300       5.77200800
O       17.65436200       2.28348000       4.60843500
H       17.72209500       3.05574800       5.17477500
H       18.53148600       1.89267500       4.63225000
O       38.28427800       9.26927000      33.25550000
H       37.62763600       9.89071000      33.57854700
H       38.82352200       9.78510200      32.65070600
O       25.14325600      10.14856800      33.54769500
H       24.22028900       9.91835200      33.41785700
H       25.54972300       9.33661400      33.86099600
O       13.87115500      39.62340800      21.84330200
H       13.04715900      40.10122900      21.96347700
H       14.33764400      40.11922500      21.16566200
O       24.10880400       9.16653500       5.95577200
H       23.46935200       8.46544900       6.10173000
H       23.82183400       9.58498700       5.14018200
O       14.36941200      18.74087100       7.31047400
H       14.42478900      19.67651500       7.10255900
H       14.79902500      18.66086900       8.16585400
O       39.52511100      36.14999100      16.27343100
H       40.19953700      36.16977500      16.95642600
H       39.31666500      37.07455800      16.11732600
O       39.10971600      14.90002200      27.33819600
H       39.72816900      15.61851500      27.18651200
H       38.37875400      15.30973900      27.80773600
O        7.60163500       9.48479800      20.28134300
H        7.09048800       8.67418700      20.22335200
H        8.39958300       9.23038100      20.75165500
O       12.14701200      37.35538300       1.42531500
H       12.68999800      36.70775500       1.88080300
H       12.77781500      37.90996900       0.95930700
O       36.89721000      28.57881100      25.75785600
H       37.76758400      28.68774500      26.14812400
H       36.38495800      29.31146000      26.10923300
O       14.66302300       1.19697300      42.29142500
H       15.01433600       2.04969900      42.55818500
H       15.27250500       0.88871100      41.61603800
O       14.76055100      24.39448800      31.79872400
H       15.44706200      24.91733200      31.37793600
H       14.30217700      23.97090700      31.06857700
O       42.51154600       8.84569000      14.66025300
H       43.45836200       8.75584400      14.79136800
H       42.23452800       7.98833800      14.32731000
O        5.32877900      17.09253100      11.00447800
H        4.87420500      17.87682700      11.32065400
H        6.12660000      17.43029100      10.58969800
O       15.06917100      26.73037500      25.28944200
H       15.51804900      26.12634400      25.88558000
H       15.14887900      27.58806400      25.71448200
O        3.58764000      12.89688400      42.97739300
H        3.43917500      12.53080600      43.85241800
H        4.28156200      13.54845400      43.10612100
O        5.33231600      37.20682500       3.62093100
H        6.11511600      37.72813600       3.42810100
H        4.85427800      37.72643800       4.27218000
O       36.86318100      42.50140400      33.23664600
H       37.33683800      43.12609400      33.79084500
H       36.90469500      41.67329000      33.72156400
O       25.36305800      37.28768200       5.72696500
H       26.08622100      36.89005500       6.21752900
H       25.79054300      37.91580400       5.13929100
O       14.76517700      29.29347500      27.45177500
H       14.59124400      28.37973000      27.68955900
H       13.96841700      29.57716300      26.99643200
O        3.97875300      25.01823400      26.79400700
H        4.73453000      25.18872500      26.22703300
H        3.67077700      24.14883800      26.52578300
O        7.36040500      31.06173700      27.18396900
H        6.52823300      30.70583000      26.86374300
H        7.56696200      31.77263200      26.57191900
O       15.82195800      25.27694200       3.93478300
H       15.93741800      25.65396000       4.81014100
H       14.95065600      25.57384200       3.66032900
O       27.52678900       5.98175700      22.48129500
H       28.26869500       5.54709600      22.05424600
H       27.00319500       6.32869100      21.75457100
O       37.86889100       3.83030800       2.19867200
H       38.09235200       2.93270700       2.45577600
H       37.05194200       4.01647500       2.66833000
O        0.33921100      10.15631800      26.69812700
H        0.50771800      11.09330300      26.82218300
H        0.66879900       9.96961000      25.81542900
O       28.34652600      39.64146600      11.88694700
H       29.23332300      39.42618300      11.58867100
H       28.48219900      40.15303900      12.68852500
O        7.71036800       6.91837900      43.54358700
H        6.96627200       6.36621800      43.79491100
H        7.77721700       7.56480900      44.25090700
O        5.68255300       0.36812000      35.01260400
H        4.95178300       0.93443200      34.75378000
H        6.45968400       0.80121700      34.65047700
O       22.26457100      30.86399300      38.12862500
H       22.94207600      31.53078100      37.99406800
H       22.54545100      30.12516000      37.58284800
O       30.38111400      13.10811800      35.32966700
H       31.25433300      12.93618600      34.96959400
H       30.29793700      12.48897900      36.05931700
O       18.21416800      24.70672600       5.17298400
H       18.95410300      24.11454100       5.32640900
H       17.71651000      24.28827500       4.46596400
O       21.28566600      43.01171300      30.82920600
H       21.28209600      42.10287200      31.13859400
H       21.36466100      43.53594500      31.63019500
O       20.18426600       6.99738300      37.75157300
H       20.40170700       7.31869000      36.87339000
H       19.79104500       7.75500100      38.19206800
O       40.67757100       6.27975100      43.55496200
H       40.53665100       6.66550300      42.68717000
H       41.62732600       6.14507000      43.60464600
O       11.29662500      23.39325300      27.24756400
H       11.25659800      23.01252000      28.12799900
H       10.71519400      24.15658300      27.29122700
O       41.49928300      21.54401800      34.86862100
H       40.99682000      22.16007200      35.40689000
H       41.63274800      22.00722300      34.03779600
O       11.84928200      27.34691700      14.19935600
H       12.41994300      27.71591600      14.87752300
H       11.02191100      27.17019500      14.65418400
O       33.41114100      24.08994000      24.66006300
H       32.87919900      24.34198300      23.90161900
H       32.80153500      24.12621400      25.40148500
O       39.19734600      33.88987500      16.85083700
H       40.14774000      33.98015400      16.74922700
H       38.98396100      34.44752100      17.60326000
O       19.71804100      43.85854900      33.45039400
H       20.19219700      43.02416500      33.42386300
H       19.09977100      43.80486100      32.71724900
O        6.17018700      15.87107800       6.05959700
H        6.99045100      15.37600700       6.12121700
H        5.74473200      15.53010700       5.26879500
O       26.52081400       5.48084200      31.05433200
H       26.48880500       5.66321200      30.11229100
H       25.92899600       6.12989200      31.44308400
O       15.46282000       8.52968700       4.94979700
H       14.87026800       8.96297900       5.56855800
H       16.26742700       8.38257400       5.45339200
O       42.26702800       9.08806700      35.92406300
H       42.47725700       9.73704300      35.24852000
H       42.61296100       9.46803900      36.73560000
O       19.44210500      16.23918600       6.65440000
H       18.60481800      16.41657400       6.21942000
H       19.52436500      15.28243100       6.63214000
O        3.88117700      32.83035300      25.23994400
H        3.15844400      33.38377500      25.54507800
H        4.23896400      33.30128200      24.48307100
O        8.27774800      11.73080200       4.38250700
H        7.96192100      11.04795200       4.97890800
H        8.91297600      12.22782000       4.90414000
O       43.68709100      11.95749400       8.58971100
H       42.76761200      11.82901900       8.83420600
H       43.65234900      12.54871600       7.83347600
O       34.22182100      39.71212600      42.26997500
H       33.31598000      39.57945900      41.98087700
H       34.17083200      40.44985200      42.88300200
O       22.20373700      34.97973900      12.32943600
H       22.56692600      34.88699600      13.21330100
H       22.94347200      35.28575100      11.79859500
O       30.76647500      39.34351000      14.59696200
H       30.32578400      39.70031400      13.82223200
H       31.35962900      38.67407700      14.24671800
O       33.65930500      24.21995100       9.14696300
H       33.86275400      24.36882600      10.07333800
H       33.15726000      23.40107100       9.14171900
O       32.33333900       6.78276000      10.19996600
H       31.85606600       5.99756400       9.92175100
H       32.94160400       6.46622500      10.87261900
O       26.81815200      14.84827200       1.01277400
H       27.68342200      14.48530000       1.21596000
H       27.00419000      15.71383700       0.64017700
O       21.99703100      17.25131200       5.02902700
H       22.49702100      17.20450200       5.84728300
H       21.31343500      16.58394200       5.12880300
O        9.31673000      24.39519600      41.55558400
H        9.24592600      24.11741400      42.47185300
H        9.13411100      23.59899100      41.05026300
O       35.65769400      28.26180600      19.23174400
H       35.89505500      28.95015400      18.60599400
H       36.45209800      28.13173400      19.75581100
O       19.51206500      32.91625200      32.70153500
H       19.10416100      32.08125600      32.94262000
H       19.00415900      33.22007900      31.94498800
O       12.73385900      42.92339400      41.64593700
H       12.33812000      42.06960100      41.83608000
H       13.64063100      42.71755600      41.40502900
O       24.50095000       5.30271800      37.23959500
H       25.23332300       5.33659200      37.85943900
H       23.97143600       4.55838200      37.53661600
O        0.67911200      30.87960900      16.26944100
H        0.90023200      29.97797500      16.02472300
H        1.21792400      31.42316400      15.68903400
O       30.43221900       9.59137400      39.70387500
H       29.86950100       9.05466300      40.26691500
H       29.83147300      10.22068600      39.29679700
O       10.77834100      34.09780500      12.79357200
H       11.62606600      34.54829000      12.80583900
H       10.90557600      33.36684600      12.18353000
O       42.78015000      14.90630700       5.71098700
H       41.97249300      14.47920800       5.41602600
H       42.96891600      15.55611900       5.02925900
O       43.97756900      13.80780400      23.55865300
H       44.62038100      13.98568900      24.24921400
H       44.36847900      14.18453200      22.76624700
O        9.18599100      14.02914700      37.98763700
H        9.48615700      13.64516300      38.81479000
H        8.25761100      14.22419100      38.13833700
O       39.76172300      39.02075000      17.90831700
H       39.64087500      39.32724600      18.81008200
H       40.01453000      38.09879100      18.00171000
O        8.33474400      22.83221900      31.89345300
H        8.77612700      21.98473700      31.98662700
H        8.15350500      22.90452900      30.95293900
O       44.38855600       5.91943400      22.15560300
H       43.77701100       5.35043400      21.68234200
H       44.28342500       6.77951800      21.74106200
O       38.93526700       0.81703200      44.25109800
H       39.62800600       0.82414500      44.91576900
H       39.40160400       0.68306400      43.42210800
O       25.40396800      17.67661600      13.76825700
H       24.88794700      17.14022500      14.37466700
H       26.14062200      17.99287800      14.29737100
O       12.54706400      25.10963700      28.05051600
H       12.76151900      24.51502700      28.77313100
H       13.35031700      25.14571700      27.52504000
O       12.22022200       1.00339900      17.20945500
H       11.50655900       0.57405500      17.68702600
H       11.79625100       1.37766500      16.43304300
O       10.01989800      32.42947200      25.47230600
H        9.75959700      32.17467700      26.36058900
H        9.83662100      31.65254300      24.93804700
O       40.96531400      36.50098300      11.91449100
H       40.26947000      36.23432600      12.51981700
H       41.63625500      35.81994600      12.00759400
O       11.39726300      37.52533000      36.36134200
H       11.26756200      38.11353500      37.10895100
H       12.03938200      36.88228200      36.67249200
O       34.17731100       3.87796800       2.55113000
H       34.24292100       4.32441100       1.70371700
H       33.31634000       3.45259200       2.53049600
O       14.16275100      27.64836100      31.99323800
H       15.09168800      27.81863700      31.82059100
H       13.69993500      28.33424300      31.50537600
O       13.54772700      34.40351800       8.49924800
H       13.26392200      33.76604000       9.15864300
H       12.87063700      34.36070000       7.81928000
O       14.25875700      37.07050300      18.88129700
H       14.78517600      37.69004500      19.39196000
H       14.90582400      36.54036100      18.40918000
O        9.35745500       4.34607200      17.63130100
H        9.41612800       5.29955800      17.53566400
H       10.24600500       4.07591600      17.87652900
O       25.69859700      13.24852500      15.63007900
H       25.83073500      12.65148700      16.37022000
H       26.52271300      13.73811100      15.56859700
O       19.19198500      24.62826900      38.20826500
H       18.52187100      23.94139800      38.23792000
H       19.72094000      24.47949800      38.99612100
O       21.45266000      30.05846400      12.86720700
H       22.25903300      29.56328300      12.70508200
H       20.87026800      29.43013500      13.30156300
O       30.66931100       9.10614500      26.19871700
H       30.22040400       9.94597400      26.32076100
H       30.75473600       8.75018900      27.08677100
O       41.88546000      25.10629600       9.97223600
H       42.82358700      25.27204500      10.09127400
H       41.84895700      24.39353600       9.32936600
O       14.45917800      41.07370500      40.04688600
H       13.92080500      40.30489400      40.24889500
H       14.39841100      41.16322200      39.09245700
O        4.32877000      41.36271500      16.64451600
H        5.00100400      40.73352100      16.91643800
H        3.51779000      40.84865700      16.61810000
O       39.18736700      10.99124400       2.18574000
H       39.51038100      10.23053100       1.69716800
H       38.61562700      11.44867600       1.56404000
O       30.66859800      23.53193300      44.18439700
H       31.40597500      22.98783000      43.89812600
H       31.04143100      24.10126400      44.86226100
O       43.33225200       2.10938300      29.28068200
H       42.74733100       2.76386800      28.89178400
H       42.74592000       1.52536600      29.76830900
O       11.79786500      43.07250400      39.38495000
H       11.08288300      43.39403000      39.93915800
H       12.47731200      43.74766000      39.45676900
O       19.34135600      24.04831400       2.95640300
H       19.52648400      24.91589400       3.32349700
H       19.94462600      23.97028100       2.21302000
O       29.73397300      22.10071200      13.59827300
H       30.61685700      22.17928600      13.96714600
H       29.23664700      22.80751500      14.01748600
O       17.41884600      32.24771800       3.19712500
H       18.33771900      32.43930600       3.39884600
H       17.44633200      31.40440700       2.73809000
O       12.03243800      33.32935000      22.56685200
H       12.66186800      33.00539200      21.91831900
H       12.01199100      34.27921400      22.42549000
O       15.48476000       4.43195600       9.07804600
H       16.18019300       5.08643400       8.97927000
H       15.11432800       4.34273400       8.19630800
O       35.66526500      28.56800100      31.78930400
H       35.86236700      27.73766800      32.22910200
H       35.32404200      29.13251600      32.48753800
O       28.75638400       0.96505700      32.29222600
H       27.88982900       1.05538900      31.88893000
H       28.86730100       1.77149400      32.80212700
O        5.89847400      11.85907300      20.81684700
H        6.08606100      12.56874900      20.19806100
H        4.97896200      11.99213900      21.06063700
O        6.87747300       8.03034900       8.73048000
H        6.53648900       8.02003900       9.62789300
H        7.08630600       8.95326000       8.56535600
O        7.07380100      23.76298600      42.53319700
H        6.27104900      23.92398900      42.03180800
H        6.78782600      23.77088800      43.45014700
O       24.21070200      23.06796400      11.06769900
H       24.22979800      22.10858300      11.03688600
H       23.91440600      23.27206200      11.95831400
O       19.25330100      12.46647200       8.32146200
H       19.64966100      12.83012700       9.11668500
H       19.90704100      12.62423200       7.63562200
O       16.07215000      36.42483200       1.12440900
H       15.38670900      36.40528200       1.79635600
H       15.60572700      36.64610700       0.31439200
O       40.21969400      14.10485500      36.61635000
H       40.32555000      15.00417300      36.93532700
H       40.98064000      13.63597500      36.96813800
O        7.98433400      43.69842100      19.63943800
H        8.19540700      44.28417000      18.90863600
H        7.30478600      43.11644000      19.28993200
O        5.51468700      22.13049600      40.75333600
H        5.59005700      21.22026000      40.45750900
H        5.14262200      22.59600500      40.00000300
O       43.96064900       2.11719400       6.80520800
H       44.84637100       2.48761500       6.80203500
H       43.42259600       2.78942200       7.23094300
O        8.32563400      42.42970800       6.90644400
H        8.24813000      43.34740100       6.63523000
H        7.96677600      41.93162700       6.16767700
O       41.55071700      27.78292300      25.94858400
H       40.68017500      27.53358700      25.62966000
H       41.64578300      27.30804900      26.77810200
O       15.51898400      10.00283100      14.31155300
H       15.34190800      10.43352300      13.47198600
H       15.80831000       9.11933600      14.06995500
O        3.62109500      12.85917800      28.35834800
H        3.43634800      12.15751200      28.98704400
H        4.45711300      13.22923400      28.65292400
O        7.01069100       4.45391300       4.14471800
H        6.10739200       4.76349900       4.04505000
H        6.97174800       3.83779300       4.88060000
O       39.50022900      36.65417500      25.94336200
H       39.70516600      37.43034200      26.46994500
H       39.77967100      35.91500300      26.48941900
O       34.46166100      40.53242700      16.16776300
H       33.68098200      41.09011300      16.13237800
H       35.19274900      41.13544500      16.01116500
O       28.45738200      41.99734100      43.93946400
H       27.92509800      41.63883200      44.65351600
H       27.90257000      41.90802200      43.16046000
O       31.44351800      37.86199700      39.13313800
H       32.12949800      37.40152100      38.64414000
H       31.51086200      37.51215300      40.02516700
O        7.80179900       9.51535500      43.23386300
H        8.26452300       9.74722100      44.04247200
H        8.50208500       9.34598000      42.59860400
O       33.29741300      31.74709700      27.51083300
H       32.54998300      31.20750100      27.77899200
H       32.96904200      32.25548900      26.76494300
O        9.09426200      15.66800600      35.88977900
H        9.22467400      16.57274000      36.18333300
H        9.75934700      15.54013100      35.20863900
O        5.81783200      29.16164400      23.05906100
H        6.40133700      29.79416900      23.48468900
H        5.17702800      28.93433300      23.73754600
O       23.17930100      38.80982000      21.25210100
H       22.99955500      39.49279700      21.90245500
H       24.07383300      38.99362800      20.95433000
O       44.02179400      34.80530600      21.87079600
H       44.26374000      34.79049900      22.79975600
H       43.49279600      34.01278100      21.74952600
O       31.82576200       2.18637500       9.51578500
H       31.71119800       2.64566600      10.35104100
H       32.01420100       1.27855300       9.76676600
O       18.55814600      43.86508100       1.96471700
H       17.79330400      43.31850400       1.76979300
H       19.08357300      43.33348600       2.56802100
O        8.64492400      13.09802000      20.85454000
H        7.92130000      12.77132100      21.39431800
H        8.38794500      13.99571900      20.62928400
O       38.45268500      18.40072900      21.82054900
H       38.09810900      17.83409200      22.50969500
H       38.24929000      17.93835100      21.00355500
O        0.00277200      35.69102100      29.16005100
H        0.07421000      36.25715700      29.93213300
H        0.64873100      36.04553100      28.54385200
O       33.50556600      15.46481400      10.90078600
H       34.02144600      14.70699300      11.18592000
H       33.59553000      16.09782800      11.61761300
O       15.78335300      43.04419400      27.69960100
H       16.70125300      42.82892500      27.88082800
H       15.74793800      43.15373300      26.74598200
O       15.91437200      20.58114400      12.36019900
H       16.07795700      20.12253600      11.53276700
H       16.47678300      20.13255100      12.99667300
O       24.05617800      40.82762100      42.36123100
H       23.34653200      41.10963100      42.94312200
H       24.64437500      40.32375600      42.92937400
O       30.97004000      12.31234600      20.25398400
H       30.24501500      12.91004100      20.45102600
H       30.66706400      11.81329700      19.49122700
O       12.01230600      26.96850100       3.16991500
H       12.84146400      26.48695000       3.12163100
H       11.36420200      26.30333100       3.41517300
O       10.86170700      19.47702100       5.85639200
H       11.35551300      18.93777400       6.47856100
H        9.96940100      19.49417800       6.21155200
O       27.32621500      15.77927800       7.49734400
H       28.13109100      16.10363500       7.90806500
H       26.91963500      15.22888000       8.17143400
O       44.55735600       8.41685600      12.83457300
H       44.95500500       7.54557500      12.90143000
H       43.63198100       8.24268800      12.64486800
O       41.09627200      12.43159700      17.69196000
H       41.35379300      12.81516000      16.85036200
H       40.96898900      13.18822700      18.26984600
O       38.98629600      38.73547600      43.09596900
H       38.52102100      38.05337700      42.60608700
H       39.65524100      39.05386000      42.48458800
O       28.83543500      31.09536500      19.29874100
H       29.66309600      31.53605400      19.09259700
H       28.27043200      31.28465300      18.54535900
O       10.93352400       6.95293200      27.80125400
H       10.14886100       6.91841500      28.35337600
H       10.65220000       7.43038800      27.01669400
O       44.25516200      13.35500100       4.79633300
H       43.67030200      13.68289300       4.10920000
H       44.99993000      12.98232600       4.31771500
O       22.69371600      12.03810000      34.28334600
H       23.37443400      11.49918500      34.69312300
H       22.23975200      11.43657500      33.68775700
O        0.87188300       9.91480900      44.47465300
H        0.77569000       9.00071100      44.75195800
H        1.81740400      10.02741600      44.34835700
O       41.82723700      22.85326300      28.15032300
H       41.33671400      23.08602000      27.35852900
H       41.24485500      22.25407100      28.62407500
O       19.40467200       3.70521300      20.26419500
H       18.95459300       2.90370300      20.54120500
H       18.87808900       4.03303400      19.53078800
O        2.60998200       8.88922300      10.16930200
H        3.51301300       9.06158000      10.44598300
H        2.69744400       8.26146600       9.44755900
O       21.93186300      25.79367100      12.21753800
H       21.20830400      26.41493900      12.10702500
H       22.64189100      26.31924500      12.59472700
O       32.42416600      26.81813100      19.72480300
H       31.46833300      26.72896500      19.73729500
H       32.57434900      27.75199800      19.55753300
O        9.78528400      44.08060600      21.53679500
H        9.80380300      43.13243000      21.38731100
H        9.91776500      44.17537300      22.48342600
O       34.41015900      14.13268900      14.85311500
H       35.26618900      13.82478000      14.54631100
H       33.81565300      13.39916700      14.67662500
O       22.07206300      13.24574100      10.34809300
H       22.01151300      12.47429000       9.77983000
H       23.00477400      13.30612700      10.56955400
O       41.65348100      12.45523000      25.94326900
H       42.32596000      11.79756100      26.13554200
H       40.96222100      11.96444200      25.49168600
O       37.34969900      32.72766400      12.66016900
H       37.91780800      32.93040800      11.91326100
H       37.43542900      33.48964100      13.23868600
O       33.92627300      14.26714600      27.29814400
H       33.17712600      13.78385300      26.94187200
H       34.12567500      14.92573900      26.62796800
O       29.81417300       0.58080500      41.62259300
H       30.70193500       0.46915300      41.97064100
H       29.84669700       0.17605200      40.75210000
O       42.61016700      30.24786300      16.52036100
H       42.44212100      30.72217300      15.70273300
H       43.55230100      30.35882900      16.67106600
O        7.99468600      39.22033800       4.66418300
H        8.65533400      38.55292800       4.46460200
H        8.44651900      39.83650800       5.24626900
O       21.81842300      38.76808400      36.73030800
H       22.65533900      38.41113400      37.03671200
H       21.55556300      39.38409700      37.41883900
O       28.08696300      33.29595800      37.49814000
H       27.30536600      32.77818800      37.70488900
H       28.72752200      33.03766400      38.16568000
O       20.39788900      34.84073300       2.15315200
H       20.31998100      35.75078100       1.85740300
H       19.74148300      34.36543600       1.63753000
O       21.63800800      22.70796900      11.66996000
H       21.71861600      23.55269100      12.11903900
H       20.80432000      22.76814200      11.19668800
O       29.58560400      37.71348800      19.75324300
H       29.64344000      37.68789800      18.79526300
H       29.87887700      38.59798300      19.98627100
O       21.35433700       4.90711000      23.97073700
H       21.85589200       4.09873600      24.09996400
H       20.70175200       4.67878900      23.30392100
O       17.74516200      25.43741000      39.65658200
H       17.40016100      26.14621000      40.20458000
H       17.01419300      24.81918700      39.57830100
O       38.66905900      18.01203900      10.90662600
H       38.44893700      17.07768800      10.89048500
H       38.04576300      18.41441300      10.29651200
O       26.39218100      33.56521000      28.73731700
H       27.33026600      33.52479200      28.53709900
H       26.33308300      33.29721100      29.65782000
O       40.79056500      41.43763400      18.63607600
H       41.16587100      42.29678200      18.42935100
H       40.71403500      40.99974500      17.78458300
O       17.27280800      10.30881600      28.05113200
H       17.25066100       9.35022800      28.09954300
H       16.81490400      10.51686500      27.23279100
O       16.78779100      22.26552900       4.44774800
H       16.02620400      22.84846500       4.49129500
H       16.62017800      21.60341200       5.12313600
O       14.31120300       1.32295900      44.70634900
H       14.76732000       2.11629400      44.99669700
H       15.01637300       0.70204000      44.50675400
O        0.16176400       9.80337800      21.91671100
H        0.34614700       9.93172100      22.85012100
H        0.73755700      10.43021800      21.47154100
O       18.21930000      13.72185900      36.55305500
H       17.87518100      14.61747300      36.51865500
H       17.44547400      13.17499100      36.71044300
O       14.65805400       9.50148500       1.97755600
H       13.82089700       9.08618400       1.75751400
H       14.74228500      10.21855100       1.34402400
O        7.90601800      27.18806200       4.88702400
H        7.22305800      26.63888500       5.27906400
H        8.67939200      26.61935500       4.85374500
O       36.45439500      10.00918700      11.26669300
H       36.64409700      10.67914400      10.60571200
H       36.27709000       9.21468000      10.75682700
O       27.81207100       9.35288600      39.37275100
H       27.39213100       9.46544400      40.22873400
H       27.09700500       9.08587600      38.78963200
O        9.64374300      32.62672000      31.62517100
H       10.17200100      33.02573300      32.32048100
H        9.23296500      31.86635100      32.04438600
O       12.63624000      27.03719800       7.17911600
H       12.69193400      26.73221300       6.27048600
H       11.88931100      26.55764500       7.54622500
O        5.96717600       2.14047100      20.56793400
H        6.72916600       1.78193000      21.02896000
H        6.21499100       2.11282400      19.64032100
O       18.34533600       8.42507700      33.07575000
H       18.69669300       7.74155500      33.65113700
H       19.08717300       8.67135600      32.51747900
O       29.18383600      37.36707500       9.21614200
H       29.98712000      37.59449800       9.69020800
H       29.44340700      36.64303500       8.64078900
O       40.10549000      43.01097300      16.19735500
H       39.97296700      43.85278300      16.63952900
H       40.50517300      43.24411200      15.35560500
O       14.69874100      37.48168500       9.81069800
H       15.03535300      36.59104000       9.93385800
H       13.94932200      37.37373100       9.21963200
O       36.36189700      19.98493600      21.60436000
H       35.66268400      20.45766100      22.06191700
H       36.38046400      19.12140300      22.02460700
O       38.07770100      17.53102500      38.17498600
H       39.01125700      17.55051500      37.95178500
H       37.95683200      18.28271100      38.76064900
O        6.54157800      44.15836600      11.07652500
H        7.44067600      44.37963400      10.82277700
H        6.33718700      44.77036700      11.78808700
O        6.12557700       7.44842500      38.70605300
H        6.71156600       7.25721400      39.44210900
H        6.31105300       6.75538000      38.06735900
O        2.10119800      22.07639400       9.74553200
H        1.14928600      22.13005300       9.85826800
H        2.32748800      22.86714400       9.24939900
O       43.28995700      40.81775200       8.23342000
H       43.80050400      40.83332500       9.04633100
H       43.01097600      39.90292000       8.14456700
O        5.96539700      11.75735600       6.70523700
H        5.24707200      12.37025800       6.53178400
H        5.60968800      11.15265500       7.36132400
O       29.57868400      33.70923900       6.35470400
H       30.06236200      33.48893200       5.55517500
H       28.69352600      33.92053100       6.04730800
O       12.00040700      40.31264100      10.04461200
H       12.67568200      39.64996900      10.20769300
H       12.47225100      41.14841000      10.08328800
O       35.56408900      31.94817600      39.02188100
H       35.97044300      31.09762400      39.20398600
H       35.30842100      32.28021100      39.88618900
O       28.13189200      44.22703700       2.29080800
H       27.33870500      44.47941200       2.76922900
H       28.34849000      45.00019300       1.76359200
O       40.14350400      28.91381500      17.06792000
H       40.35651800      28.02683500      17.36728100
H       39.23603600      28.84989800      16.75960200
O       19.92764500      14.96154400       9.58168300
H       19.85811700      15.51532700      10.36284500
H       19.19461900      15.23925100       9.02653000
O       33.90603100       0.34267400      22.90963000
H       33.08178100       0.49975200      22.44308600
H       33.63488000       0.11336300      23.80211900
O        3.18089500       6.97758200      31.68707100
H        2.22333900       6.97389600      31.75634300
H        3.47571500       6.44422900      32.42953800
O       18.75628300      43.17534300      22.63628800
H       18.25612600      43.95642300      22.38833000
H       18.10971500      42.60090700      23.05415700
O        3.03632400      29.53365600      15.58955500
H        3.92521600      29.63050600      15.23996200
H        2.66569700      28.79649800      15.09774700
O       40.41436800      29.91404000      31.26485300
H       40.71614000      30.70569400      31.71645200
H       39.50569000      29.80491600      31.55646800
O       23.79190500      39.94365400      28.47934500
H       24.49894400      40.49840400      28.81709100
H       24.20740000      39.08989200      28.33410100
O       31.79293800       8.44741300      30.71624700
H       31.73818400       7.88702000      31.49386300
H       32.32302300       7.94188300      30.09488500
O        6.08581000       4.11979800      22.22981300
H        6.07169100       5.01444400      22.57785700
H        6.80787100       4.12176100      21.59635700
O       30.76590900      13.07526500      40.57077900
H       30.39171300      12.37389400      40.03246600
H       31.20891300      12.61482300      41.28798300
O       43.74029300      35.36408200       7.31063800
H       44.09040900      36.21425600       7.58695200
H       42.78711800      35.46979400       7.36470600
O       19.67438600      12.23917600      29.95944600
H       19.72797900      12.58147700      30.85481300
H       19.23395800      11.39086200      30.05446100
O        5.26681900      31.59258500      31.48704500
H        4.38214500      31.40589000      31.16421100
H        5.21089800      31.44522300      32.43456800
O       32.10274100      29.10385600      44.73168100
H       31.89264500      28.33659700      44.19418800
H       31.59869300      29.81852700      44.33441100
O       33.17986600      37.32542100      27.70323100
H       33.95122000      37.59691600      28.20625100
H       32.51731400      37.12874200      28.37030200
O        5.63290900      38.57944400      35.48011800
H        4.85833800      38.01284500      35.45308300
H        6.29136200      38.06091900      35.94938700
O        6.06555800       7.97577100      24.43594300
H        5.92793600       8.82043300      24.87106400
H        5.26673100       7.47709100      24.62524700
O       23.13526600      43.16338900      32.98298500
H       22.38177900      43.28678100      33.56501300
H       22.96148400      42.32804200      32.54180900
O        1.96992000      34.58039900       1.11701600
H        1.24180200      34.99643200       0.64959200
H        1.55699800      33.87612800       1.62311900
O       33.65294200      18.57369800      10.29210600
H       34.47491900      18.27250900      10.68626800
H       32.98059600      18.00951100      10.68234300
O       22.39187100      14.64554500      30.47248900
H       21.89986200      13.82124200      30.45921700
H       23.08880800      14.49688800      31.11655600
O        4.12640900      32.16437400      16.35435800
H        3.72540600      32.09726900      15.48463500
H        3.82724800      33.01319200      16.68999700
O       43.82305900      35.45986500      13.55509400
H       43.45520000      34.64544600      13.20420200
H       44.28896600      35.18805800      14.34988600
O       34.25306700       9.22169900      39.86789700
H       34.59106600       9.45696600      40.73515200
H       33.64792000       9.93405100      39.64655300
O       31.75712000      18.93732800      40.47316600
H       32.10353000      19.81871200      40.63091900
H       31.12499200      18.79900100      41.18304100
O       22.74243300      22.10415300      31.49522700
H       23.36281900      22.78381400      31.22153600
H       22.16366500      22.54748700      32.12062700
O       13.78935500      39.55612500      12.57669200
H       12.85467400      39.69298700      12.40532700
H       13.81255400      38.83276700      13.20824300
O        5.39983000      40.17395800      42.50485900
H        4.93820000      41.01422700      42.55556500
H        6.12600800      40.33712500      41.89766600
O       13.42195900      30.07835400      41.25612400
H       13.15786600      30.95569600      41.54291900
H       14.35367300      30.02367400      41.48319500
O       26.36412300       9.12249700      31.46078400
H       26.56526500       8.21912100      31.71608700
H       25.72211200       9.03263100      30.75199100
O       15.77204700       5.65599700      26.66451300
H       16.46845900       5.75817100      26.01160000
H       16.17718900       5.93222000      27.49046900
O       29.19101400       7.24267200      16.95814400
H       28.65030700       7.41134000      16.18295900
H       28.60997200       6.76375300      17.55452300
O        2.83882600       5.42327200      27.10757400
H        3.09721700       4.55595600      26.78707200
H        3.41551800       5.58121300      27.85932100
O        7.99264600      26.92849400      17.22464200
H        8.60578700      26.55996300      16.58435400
H        8.55587800      27.28607200      17.91569200
O       35.43307900      16.20191700       3.07444200
H       35.19567800      15.59642500       2.36822300
H       34.64042800      16.72566400       3.21598600
O       33.09764600      34.07506500      38.65600800
H       33.94441200      33.67724900      38.87154500
H       32.87841900      33.71599600      37.79249800
O       10.01283500      41.73537700      27.82669600
H       10.64835800      41.20232300      28.31011000
H        9.22180900      41.19149400      27.79336400
O        6.16875800      13.64021100      16.86158200
H        5.71529500      12.81145100      17.03262000
H        5.62229500      14.07999300      16.20537300
O       10.29446100      21.64954800       5.91282800
H       10.30702100      22.52159200       6.31420900
H        9.39396100      21.54636900       5.59487100
O       33.96128600      10.89713800      11.99282400
H       34.27097500      10.13451900      11.49862800
H       34.62823800      11.02834100      12.67150100
O       41.89171800       9.67973300       8.30250600
H       41.13345100      10.20656900       8.03944800
H       41.54800100       9.08638700       8.97514300
O        5.71992700      23.22648700      23.60801700
H        5.62244200      22.27458600      23.52987900
H        5.17082100      23.58097700      22.90412700
O       37.83223600      22.21071500       3.99180600
H       37.64351600      23.11697700       4.24636300
H       38.47229700      22.29131300       3.28014000
O        4.76601300      38.97356900      40.22143500
H        4.38949900      38.16553400      39.86500600
H        4.08871000      39.63817800      40.07244500
O       40.62394100      40.32299400      35.51646700
H       40.09741800      39.54570900      35.71728300
H       41.41397400      40.22100300      36.05320500
O       43.98816500      23.52216100       8.59708500
H       44.17818900      22.70935300       9.07138300
H       44.49665800      24.19280600       9.06002300
O       44.03428200      20.16320300      19.44553500
H       44.52037600      19.36031300      19.64754000
H       44.57404300      20.60975100      18.78834800
O       35.19299000      11.64175800       9.17609900
H       34.62532800      12.40641700       9.29767900
H       35.08719600      11.41116200       8.24966700
O        8.69819700      10.23617100      37.35063400
H        9.21008800      10.17650700      38.16065400
H        8.22824600      11.07045900      37.42647400
O        2.11487300       6.31841600       6.31387000
H        1.26763500       6.23256800       6.75720000
H        2.50091800       7.11381100       6.68931400
O        3.44835800      10.72673000       8.56465900
H        4.28090200      10.53186500       9.00126300
H        3.33782900      11.67458600       8.67417500
O       42.20906300      44.37138900      11.62461900
H       43.08337100      44.60285300      11.30254100
H       42.34323800      44.16867200      12.55389000
O       36.93596800      12.62886900       7.67726600
H       37.13255300      13.55519900       7.83535100
H       36.99839000      12.53123400       6.72373900
O        4.15687300       3.78277600      39.70156500
H        3.73827100       2.95429600      39.94675400
H        3.58711300       4.14470600      39.01817400
O        4.96485800      29.02171500      35.36808100
H        5.31687200      28.42854300      34.70028100
H        4.76227700      28.44940100      36.11243300
O       20.55978000       5.58938400      44.04371000
H       20.33753500       6.38356100      43.55216700
H       19.88851700       5.53732100      44.72879100
O       11.37328100      29.10570900       9.00365100
H       12.08516100      28.54945700       8.67878700
H       11.37082300      28.95963100       9.95301800
O       15.37135500      39.37710100      17.30765700
H       15.98239800      38.88749700      16.75210400
H       14.65397300      38.76042400      17.47413300
O       43.92688600      39.52822600      34.47154900
H       43.13187100      38.99087300      34.44109900
H       43.99349300      39.80366500      35.38933900
O        1.41994300      20.99338100      12.28905300
H        1.59298000      20.42950000      11.53154300
H        2.06193500      21.70340700      12.20935300
O        4.21480700      13.76972500      35.24401200
H        4.45653100      13.03537500      35.81324500
H        4.19310500      14.52951900      35.83128000
O       41.77843400       5.38407900      30.81409400
H       41.89199600       6.26773200      31.17184400
H       41.16058300       4.96090500      31.41561300
O       38.83056800      11.51639100       9.53871800
H       38.69756900      12.43659300       9.77801800
H       38.05537500      11.29094000       9.01824700
O       26.95809900       4.85586800      39.81126000
H       26.08139400       5.11668600      40.10295700
H       27.01696500       3.92400200      40.03665500
O       41.69785400       7.70903500      17.66788600
H       40.84175000       7.90129600      17.27820900
H       41.50749700       7.06756700      18.35703400
O       24.34037100       3.87673200       5.51621700
H       24.50539800       4.82151800       5.47296500
H       24.79454100       3.59159800       6.31313000
O        7.30061700      32.88199000      17.62974200
H        8.08946600      32.57055600      18.07968700
H        7.06324900      33.68806500      18.09508100
O       42.61678500      26.02912100       6.58147200
H       43.02844800      25.17016000       6.46128700
H       43.33290300      26.59764600       6.87574500
O       35.97184400      25.19046100      12.44831400
H       35.46869900      26.00499900      12.37691000
H       36.74840500      25.34135900      11.90349600
O        4.65615300      21.53880400      13.15982500
H        3.81479900      21.56850400      13.62130800
H        4.48536300      21.98026200      12.32400900
O       17.39144800      29.74602400       5.18027400
H       16.55122400      29.90683400       4.74451100
H       17.15185900      29.34489500       6.01952000
O       34.87305100      22.99896900      32.46933000
H       34.50609600      23.21920600      31.60993200
H       34.41098100      22.19744600      32.72758300
O       27.47625500      35.37894900      43.34975000
H       26.62150800      34.94453600      43.30057000
H       27.95676300      35.04676700      42.58724800
O        3.63500400      44.82582000      10.90704300
H        2.92886700      44.45399200      10.37333900
H        4.43969000      44.48264000      10.51036900
O       24.03618500      33.34334800      11.63423500
H       23.74891000      32.58626300      12.15000600
H       23.48443200      33.31965900      10.84832800
O       43.79194600      32.82992700       6.36724400
H       43.83305700      33.07058200       7.29574900
H       43.77448200      33.67092800       5.90350600
O       34.11844800       7.13797400       6.87207000
H       33.80777000       6.29928600       6.52306200
H       35.06211500       7.00937500       6.99695800
O        6.40641200      14.44788300      21.47124400
H        5.52710400      14.70412900      21.75913400
H        6.95289900      14.54976700      22.25457800
O       26.93406000       9.20399200      15.05833100
H       27.46049000       9.24610300      15.86009400
H       27.25781000       8.42367500      14.60123800
O       11.77022800       7.84437600      30.31658900
H       11.88446700       6.98841900      29.89705200
H       11.36080300       8.38900800      29.63954400
O       35.81869500      36.96683700      22.64521900
H       34.97037300      37.21432300      23.02048700
H       36.29491000      37.79707700      22.56421300
O        6.82825500      39.00399800      24.25873300
H        6.20737600      38.38610700      23.86573600
H        7.52377300      39.09312000      23.60226200
O        1.13458200      41.19261400      35.22718000
H        0.40190400      41.72354500      34.90621300
H        1.03914300      40.35331600      34.76989100
O        1.77576900      34.59300300      29.85380600
H        1.86348600      33.64400300      29.73791700
H        2.58885700      34.85579400      30.29252200
O       13.81263900      25.20813700      41.98007400
H       13.85290800      25.40799900      42.91824200
H       14.24889100      25.95295600      41.55868200
O        5.72358500      37.58676500      42.45781700
H        6.36585400      37.63921900      43.16948000
H        6.09433000      38.13441300      41.76120400
O        8.23622300      18.33998500      11.23013100
H        7.71293800      18.76920700      11.91106200
H        9.07261800      18.14435400      11.66003100
O       43.95822300      21.75146900      31.98624000
H       43.56966200      22.45283300      31.45819200
H       43.29400000      21.55901200      32.65288100
O       23.31524900      38.60822900      39.83652000
H       22.77921200      38.54776100      40.63070600
H       22.78521400      39.13201300      39.23042100
O       20.72759600      33.46166700      30.18395200
H       21.42283700      32.88412400      30.50769400
H       20.10562500      32.86871400      29.75476600
O       30.64402300      41.44858900      37.49963100
H       31.57113300      41.45693000      37.25038700
H       30.58333800      42.08815500      38.21371400
O       42.10180400      33.06260300      14.80890700
H       41.34821300      32.53291800      15.07957000
H       41.73240300      33.71161500      14.20478100
O        4.61929700      29.24644500      28.61885200
H        5.56548500      29.32437600      28.76161000
H        4.51996600      29.26493800      27.66363800
O       39.84368200      17.88718600      32.92165500
H       40.05274900      16.98403900      32.67197000
H       40.24487600      17.99405000      33.78783300
O       36.99442200       2.31069600      28.75333700
H       36.12820100       1.98610700      28.49637800
H       37.27095900       1.71982100      29.45834500
O       10.74600300      41.18756800      12.68262500
H       11.13273100      40.66739800      13.39085400
H       10.13568200      40.58500400      12.25011300
O        4.03290200      33.27974500      29.78530900
H        4.93033400      33.60057600      29.90110400
H        4.13120400      32.48000100      29.26244300
O        8.65116900      27.19987800      42.30271000
H        9.00786200      26.62731900      41.61957700
H        8.51849700      26.61854100      43.05576200
O       33.47090400      32.13647200      31.03722900
H       33.92127600      32.19205200      30.19117900
H       34.17893800      32.03163100      31.67780600
O       13.09614800       6.79279800      38.34484200
H       12.79025100       5.96807100      37.96016200
H       12.57573300       7.46906900      37.90385700
O       21.25951000       3.60632100      18.02404100
H       20.85016100       4.27968400      18.57243900
H       22.20063300       3.70345600      18.18985500
O       40.64921000      31.64956200      11.14973800
H       39.74350000      31.95449200      11.05790900
H       40.76147900      31.01722800      10.43546200
O        5.34519600      29.02959800      10.89841700
H        4.69028600      28.34162700      10.75872600
H        5.93675000      28.66459400      11.56134800
O       16.58876700      20.04750300       0.24410900
H       17.32595300      20.04157800       0.85912600
H       16.27679000      19.13906300       0.23710600
O       19.14922100      34.99196200      30.26729000
H       19.71771100      35.75002200      30.11273200
H       18.62200300      35.24100000      31.03061300
O       42.60716600      15.26372800      32.82691800
H       42.56966400      14.45779700      32.30653900
H       42.36324100      15.95784200      32.20938400
O       43.06867200       8.88544100      26.37795200
H       43.17039200       9.78667500      26.69284100
H       43.73449000       8.79617800      25.69139500
O       16.37441600      10.58135000      30.82513400
H       15.96756300      10.04289800      30.14229800
H       17.28105900      10.26702200      30.86802600
O       30.84345600       4.73686200       1.03780300
H       31.59285500       4.38252300       1.52212800
H       30.44759400       3.96977700       0.61647600
O       32.17229200       8.59457300       5.39818400
H       31.61492700       8.83047500       6.14344900
H       32.40318000       7.67541600       5.55465400
O        5.84773800      18.53595900      19.42913600
H        5.83488000      19.30100300      20.00902200
H        5.79578000      17.78429500      20.02490700
O       36.43184200      14.35491000      30.82556900
H       37.00574000      13.73755500      31.28517600
H       35.74620900      13.80250600      30.44164200
O        8.11425500      16.70213700      24.49437300
H        7.91146700      17.51562800      24.02657500
H        7.50610700      16.05680700      24.12511900
O       26.18836600       7.19074600      40.82565300
H       25.96342700       7.65294700      40.01479100
H       26.44435800       7.88818800      41.43449200
O       39.58247500      34.15511100      11.15715200
H       39.89137800      34.11502300      12.06528100
H       40.19735200      34.75128900      10.72225000
O       38.87969300      36.66025700      23.55576200
H       38.60966500      35.75559200      23.38143600
H       39.81438100      36.59362300      23.76685500
O       38.33455600      44.31005800      11.60732300
H       39.01541300      44.98682800      11.59544200
H       38.76996400      43.54036600      11.98233700
O       23.65402300      21.35937000       8.52107700
H       22.82595500      21.74630800       8.22729900
H       23.43587400      20.93314600       9.35377600
O       40.51213300      41.73736100      29.27033000
H       39.79192700      42.31974800      29.52302300
H       40.76516600      42.03758400      28.39369800
O       39.28131900      18.55214300       6.27469500
H       38.72274800      19.15674600       6.76883900
H       38.83212700      18.44713700       5.43217400
O        3.62730800      37.05461300      19.22814900
H        3.28738700      36.87369700      18.34868900
H        3.93874000      36.20238900      19.54337400
O        6.97045300      42.68774200      34.06569300
H        6.16472400      42.71190600      33.54421200
H        6.72634900      42.20502600      34.85944400
O       18.27155300       1.63343000      25.90511000
H       17.79678800       1.02264400      25.33654600
H       18.92030100       1.08575000      26.35434800
O       34.20486300       7.00995000      17.59914800
H       34.09194100       6.29988000      16.96292900
H       33.31109700       7.31053900      17.78209700
O       42.54430800       3.38985500      22.62368400
H       42.32176600       3.82496400      23.45005000
H       42.52857400       2.45312600      22.83565900
O       15.69486500      18.20314900      27.72422400
H       16.04817300      18.06005700      28.60537300
H       16.28400000      18.85366700      27.33385700
O       38.88630000      10.54958800      23.55120200
H       39.69966700      10.78671800      23.09961700
H       38.74481000       9.62822400      23.31944700
O        4.91965600      35.31884700      35.07407500
H        4.90706100      35.44253900      36.02605500
H        4.01083500      35.10373900      34.84954400
O       19.41779600      17.28176400      42.62185200
H       18.52727900      17.58992100      42.80554300
H       19.67553400      17.75701400      41.82790600
O       32.96280400      13.16505200      31.15180900
H       32.18470200      13.67952600      30.92465400
H       32.64665400      12.25883500      31.19002800
O       31.31488200      28.05000500      38.66611500
H       31.55253100      28.67447900      37.97670900
H       32.13179300      27.58153000      38.85540400
O       11.50948600       2.80056100       7.52165800
H       12.36365800       2.87020400       7.08891800
H       11.32568200       1.85787900       7.53611900
O        2.59038100      29.54029600       0.38817200
H        2.24865700      28.64923400       0.49285200
H        1.86149000      30.03116000       0.00034000
O        0.56558000       7.68900200      27.15691900
H        1.49995000       7.89301400      27.07290500
H        0.32561700       8.02339800      28.02481300
O        3.58843900      19.23422100      23.42902000
H        3.93828000      18.44802100      23.00331400
H        2.89670900      18.90409700      24.00795900
O        3.93537400      13.93047400       3.53609500
H        4.82378800      13.77883100       3.86692700
H        3.70128200      14.79968700       3.87122600
O       30.52413800      42.26929100       6.98865400
H       30.72619300      41.39842500       6.63866600
H       31.25867500      42.46683000       7.57523300
O       42.28304600       3.23875500      35.72079500
H       42.82097400       4.01604300      35.88866800
H       42.73853100       2.78287000      35.00851400
O       16.74989300      26.92730900      37.69291900
H       16.12832000      27.43468900      37.16572100
H       16.19670300      26.33966300      38.21378000
O       33.64473100      19.59073100       6.13850500
H       33.40618700      18.86381600       5.55849000
H       34.58584000      19.71430100       5.99124700
O        1.40874900      21.89002300      35.98958900
H        1.51622100      21.63530800      36.90898800
H        2.07606100      22.56668500      35.85007400
O       13.89655800       6.18010100      43.02023400
H       13.95654700       6.04010400      42.07232700
H       13.00199800       5.91177300      43.24474000
O        4.93528000      27.53664800      26.30894700
H        4.23439300      27.22653700      26.88714700
H        4.47355900      27.94975700      25.57492000
O       27.55112000      33.85375800      14.79026500
H       26.76835700      33.29878700      14.82210100
H       28.14458800      33.46635900      15.43861700
O       17.82021100      40.31464200       9.26273500
H       16.98929400      39.95323800       8.94541800
H       18.23750100      39.58308500       9.72461800
O       33.35660600       5.21078200      38.84913600
H       32.50732400       4.77284300      38.94216500
H       33.95820000       4.51049400      38.58395200
O       15.57676900      18.91890000      34.63373300
H       15.25730800      19.82322400      34.67695100
H       15.41291700      18.56592300      35.51191400
O       31.88776900       5.05845300      43.09789000
H       31.22833300       5.18417500      43.78423000
H       31.80354400       4.13351300      42.85287300
O       17.52254700      19.03821600       2.80728700
H       18.04715800      19.83240500       2.93287000
H       17.00557400      18.96400400       3.61343400
O       31.74470300      36.43623200      20.09175600
H       31.96157000      36.13716700      20.97790200
H       31.81296800      37.39314700      20.13968000
O       38.69949700      37.65577900       3.32312600
H       38.90153000      38.52049800       3.68805100
H       39.15488500      37.64152300       2.47751400
O       32.96154300      33.66079100      14.82228400
H       33.76068100      33.48163400      14.32127800
H       33.23004500      34.31315700      15.47417900
O        6.14849000      29.41950500      31.73910700
H        5.59817600      29.48359600      30.95503300
H        5.86094300      28.60882600      32.16660900
O       17.31941100      13.51935900      30.00838100
H       17.58615800      12.75345600      29.49460700
H       16.37389300      13.40515900      30.13326200
O        5.70849300      31.29236000       4.61835800
H        6.20487900      32.10988800       4.53485200
H        4.84362000      31.56944400       4.93118500
O       19.40167000      41.42415400      15.15692400
H       20.27571500      41.41503200      15.55402200
H       19.32351400      40.56588000      14.73277900
O       21.27788400      25.27038100      31.54787200
H       20.39138700      25.00267400      31.80121200
H       21.14223800      25.90164800      30.83671500
O       16.91790000      41.23932100      35.08944000
H       17.60725600      41.90539100      35.03592600
H       16.43814100      41.45671700      35.89269100
O       29.86116200      27.86223900      36.83697000
H       29.07245900      28.10556500      36.34659700
H       29.59443600      27.09742700      37.35326600
O       25.76918600      21.97887600      32.44167600
H       26.01071900      22.61040000      31.76008600
H       24.88951500      22.24953200      32.71657000
O       25.63044200      19.62531500      16.18122700
H       25.77247000      18.71470300      16.45018400
H       24.98195000      19.56697200      15.47504300
O       34.92094000      29.53209200      34.62298400
H       34.43495800      30.22980400      34.17717500
H       35.70948000      29.96689400      34.95734000
O       40.44706600      36.47959500      44.10620000
H       41.21329600      37.01452400      43.88604300
H       40.81316700      35.62172700      44.33570800
O       17.49402700      20.31376000      42.70481500
H       17.22853500      19.82626000      41.92150000
H       17.96457400      19.66882600      43.23893900
O       21.57243600      34.74742900      18.07903600
H       22.41688900      35.03134400      18.43682900
H       21.46576700      33.84963500      18.40342900
O       11.95686900      23.94060300      35.66432600
H       12.07977800      24.62788400      36.32331200
H       11.88072400      24.41735900      34.83393600
O        3.38111400      14.98323600      22.80973600
H        3.93579300      14.32150400      23.22946000
H        2.60453900      14.49618900      22.52275300
O       25.19192100      20.39846900      30.56670100
H       25.46054400      19.49189700      30.40028600
H       24.29205800      20.44540600      30.23400600
O       40.84343900       0.79984500      40.00359100
H       41.75594700       0.54247100      40.15462700
H       40.67330600       1.47460300      40.66570800
O       30.80245600      43.02787900      24.93699400
H       30.24114100      43.61708600      24.42759600
H       31.43819400      42.69363200      24.29921800
O        5.95537700      41.51495600      19.96518200
H        6.76034000      41.13510400      20.32500500
H        5.91821000      41.18501500      19.06385000
O       10.99657900      31.42807500      17.84025800
H       10.09327000      31.59819700      17.56310100
H       10.93849200      30.62340300      18.36157500
O       29.51333400       3.33694900      11.83870800
H       28.80235100       3.96242500      11.99684600
H       30.18550200       3.85018000      11.38326600
O       37.94841100      19.94105800      19.38532000
H       37.64249500      20.81281000      19.64645000
H       38.57081000      20.11010800      18.67350300
O       22.45356100      35.66542700      24.32648700
H       22.68628900      36.24515000      23.59745800
H       22.88067600      36.06033500      25.09085800
O       35.98666000      31.45408200      26.48723100
H       35.34560300      31.26454500      25.79813900
H       35.81927100      32.37001700      26.72321000
O       10.38559200      18.69411000      40.06482100
H        9.73132400      19.37041800      40.25525400
H       10.28438200      18.05726900      40.77674300
O       43.25357300      36.08472000      42.19366500
H       42.61652400      35.57471500      42.69942100
H       42.80615000      36.26975800      41.36407700
O       42.39974100      17.54094700      14.88260100
H       43.22900000      17.93150100      15.16812300
H       42.47011100      17.50526700      13.92530400
O       43.61463600       6.01766900      44.96133300
H       43.40511500       6.90371600      44.65679000
H       44.57437800       5.99791100      44.99521000
O       42.20502100       8.18406600      10.97524100
H       42.79381800       8.91687600      10.78022300
H       41.66495100       8.49962400      11.70420600
O        8.39063000      21.99651700      19.96766400
H        8.07565700      21.26922400      20.50947800
H        8.60725900      22.68754200      20.59869300
O       34.32270400       9.53948700       7.38151100
H       35.04557200       9.49425600       6.75132000
H       33.53675300       9.62973400       6.83673700
O       34.26091100      26.47642900       0.03354900
H       34.91116100      27.18200400       0.00093200
H       34.53573600      25.93306500       0.77642700
O       34.08130800      10.34916100      32.00131300
H       33.39846400      10.66849400      32.59585000
H       33.76597300       9.48759100      31.71687900
O        0.63298500       4.89367700      27.68551800
H        1.18600300       4.90176200      28.47026700
H        0.04948300       5.64845200      27.79724300
O       33.46964600      12.19948400      20.79194000
H       32.80569400      12.35800400      21.46704300
H       33.26985800      12.84120100      20.10569900
O       28.88682900       4.45691000      37.74015800
H       28.86056300       5.07757700      37.00816900
H       28.73706900       4.99961100      38.51841900
O       13.31604900       5.55840200      30.76088800
H       13.92343500       6.28403700      30.59883400
H       13.83994800       4.91142500      31.24004500
O       40.19973300       5.45544900      17.35447600
H       39.57555500       5.94128600      17.89861700
H       40.21316200       5.93412800      16.52181200
O       30.08874100      11.61402400      22.73360800
H       29.29430300      12.06491800      22.43816300
H       30.80668300      12.18624600      22.45118600
O        2.20376000      13.99145000      34.37882800
H        2.39015600      14.75943900      33.83369000
H        1.52265100      14.29017300      34.98669000
O       16.65525300      43.02912000      24.68694800
H       15.74785300      43.24324400      24.45781800
H       16.62461000      42.10371300      24.94253500
O       35.89099900      12.67600600       4.35226200
H       35.94401200      13.08204300       3.48390300
H       35.93075000      13.41544500       4.96405500
O       44.61888200      12.47791000      18.87414300
H       44.04072200      11.83133100      18.46257000
H       44.98329400      12.02090300      19.63637000
O        6.39718100       0.14242300      37.08133900
H        6.57244900       0.94042400      37.58552300
H        7.19606800       0.00581700      36.56582100
O       34.44547500      36.41215700      31.27741400
H       35.19128500      36.68982600      31.81443500
H       33.77873400      37.08695900      31.42821200
O       24.83239400      14.92814900       7.54437400
H       24.60843200      15.85569000       7.65036300
H       24.76834600      14.77398300       6.59844900
O       12.59243400      12.89594400      23.90729100
H       12.29721200      13.79714400      24.05698300
H       13.05343100      12.93279500      23.06540900
O       12.26976600       2.04682500      44.34974900
H       12.34942900       1.31949500      43.72816200
H       12.31283700       2.83456100      43.80179100
O       26.49920000      27.89294800      37.55152600
H       26.76972400      27.00888700      37.29272500
H       27.05013700      28.09809100      38.31114900
O        0.42239600      42.71296000      11.26344900
H        0.37990700      43.64851500      11.47477000
H        0.50851600      42.27955100      12.11631600
O        3.76694400      43.93419900      40.80055800
H        3.21355700      44.69543300      40.61079100
H        3.77788500      43.88050900      41.75953700
O       23.16249600      39.77353700      34.23298400
H       23.73854400      40.08928900      33.53284600
H       22.54428000      39.18870500      33.78753700
O       11.14211700      20.25506900      36.23151000
H       11.54009900      19.38137900      36.23198200
H       11.12719700      20.51077500      37.15727100
O       30.26680300      36.54855300      26.91040600
H       31.05646000      36.91314900      26.50391400
H       29.54225800      37.00596000      26.47629200
O       20.08355600      27.77735100      43.37304700
H       19.16980400      27.48333600      43.39141000
H       20.07132600      28.55907100      42.81501000
O       41.51661100      20.61367300      41.21602100
H       42.23209200      20.05275600      40.90750000
H       41.76545300      20.84501000      42.11446600
O       40.27121600      12.69715000       3.73508100
H       39.53873700      12.14562500       4.01971800
H       40.81775700      12.79110100       4.51936900
O        2.51366800      24.86135700      35.42683800
H        2.99389500      25.24287400      36.16545300
H        1.59466800      25.07911100      35.60195400
O       12.57009400      17.79052800      35.11413700
H       13.33941000      17.85057400      35.68534000
H       12.76955200      18.38037800      34.38274500
O       17.13839000      13.94193300      38.77912900
H       17.15503100      14.88087400      38.57953400
H       16.22106400      13.68725900      38.65146900
O       36.34204500      43.81399100       8.41892200
H       36.21761700      43.67846900       9.36119500
H       36.76760400      43.00781200       8.11623700
O        2.44633400       8.81180700      33.93799800
H        1.92248500       9.54104600      33.59811900
H        1.93714300       8.47849000      34.68114500
O       12.87722600      14.71276000      30.07408500
H       11.95245400      14.51431600      30.23883500
H       12.90526500      14.96694100      29.14820900
O       20.83369800      32.05793500      42.16467700
H       20.74882900      32.93704800      42.54108600
H       20.09161100      31.56952200      42.52991900
O       43.07734700      41.89637100      31.04258900
H       43.44109000      41.19480300      31.58776700
H       42.13989000      41.69426500      30.98809900
O        9.97191900      10.79604800      19.14842500
H       10.78946800      10.61828100      18.67753500
H       10.17807500      11.54884700      19.70827800
O       11.71364600      16.27230600      11.08457100
H       11.21378600      15.48286900      11.30515200
H       11.51073200      16.43225400      10.15943100
O       43.58156100      22.85611900      11.28271500
H       44.52433200      22.69465300      11.36539800
H       43.17646400      22.00642400      11.47391500
O       33.53886300      14.05414600      17.67422700
H       32.88182100      14.67408700      17.99933200
H       33.30533300      13.92098800      16.75206900
O       14.40873300      11.80497000       6.37736300
H       15.16532500      11.23021800       6.23968600
H       14.08014900      11.98267900       5.49243700
O       14.65196800       2.75762900      30.53521300
H       15.38500600       3.34618200      30.34031400
H       13.92736300       3.09472100      30.00233400
O       16.75709300      36.09936000      37.68513200
H       17.07799600      35.23267700      37.42511700
H       17.50045800      36.50189000      38.14122300
O       12.62223700       1.84832100      22.09724300
H       11.82935500       2.28538800      21.77781300
H       13.02681800       2.48954100      22.68698300
O       33.70175000       1.48010300      30.82687700
H       33.00321700       2.12811800      30.94457700
H       34.36561600       1.93735200      30.30452900
O       16.96875500      27.17949800       9.24540000
H       16.99387500      26.22962800       9.38265900
H       16.48636500      27.28874600       8.42198800
O        5.93563500       1.52475000      41.56501000
H        5.09715500       1.06134300      41.62770400
H        5.85564800       2.05569500      40.76855400
O        4.32142000      27.90815700      17.45751100
H        3.95229200      27.28143100      16.83086600
H        4.82340100      28.52094800      16.91424000
O       22.47099100       9.15613700       2.98955300
H       23.13118600       8.54622800       3.32701200
H       21.95705700       8.63225500       2.36982600
O       23.57882600       6.06170500      19.73933200
H       24.12435300       6.66179700      20.25315600
H       24.20810900       5.48210600      19.30262900
O       38.92717800       6.04548200      23.33119800
H       38.88827300       6.22643700      22.38914300
H       39.49793700       5.27623500      23.40285500
O        6.11671200      23.41119600      26.49758500
H        5.50485400      23.17331900      25.79703500
H        6.94622900      23.57840200      26.04306800
O       11.46722600       4.78433700      23.36362300
H       12.14621900       5.42105200      23.59875900
H       11.82238400       4.32969500      22.59563500
O        0.49883300      26.76360600       7.24198100
H        1.42871500      27.00205100       7.22826400
H        0.19791000      27.02736500       8.11520400
O       21.24748300       4.28891900      10.55066400
H       21.46876800       3.75379300      11.31643100
H       21.79887000       3.93766000       9.84693800
O        9.64514800      28.72045000      16.27136500
H       10.21723100      28.06438800      16.67637100
H       10.15885800      29.06312200      15.53562100
O       31.96939900      23.94205100      21.53862500
H       32.44979000      24.75130300      21.34872700
H       32.00120300      23.44725600      20.71594200
O       38.26372200       4.33326700      24.97866200
H       38.91666500       3.67808500      25.23581200
H       37.76122900       3.90746100      24.27949700
O       25.72521200      17.05604900       6.17924300
H       25.19618000      17.77395200       6.53486300
H       26.34486200      17.48782000       5.58573600
O       17.65898600       2.19238200      44.99453400
H       17.01788400       1.47776600      44.98846000
H       17.34379200       2.80119400      44.32174700
O       24.92208600      42.23223100      43.99007400
H       25.85412600      42.00473200      43.95441900
H       24.86674600      42.90453800      44.67387400
O        2.88557900       8.56226700      19.37290200
H        2.14951200       8.64536000      19.98366100
H        2.53444600       8.86920100      18.53317700
O       35.49708400      39.81025200      37.43929000
H       34.91313800      39.35919000      38.05351700
H       36.37692500      39.66452200      37.79605900
O       19.41398400      41.63314500      20.82177200
H       18.49115300      41.37261100      20.86900800
H       19.38671100      42.57135200      20.61765000
O       20.86306800      40.94045400       2.99803200
H       19.95108400      41.14921400       2.78256000
H       21.37782100      41.41076300       2.33736400
O       37.14146700      18.92329900      36.24358700
H       36.53970900      18.66266000      36.94478600
H       37.95235100      19.15981700      36.70093600
O       25.13942200       1.29457300       1.55431600
H       24.99729800       0.37537800       1.31639600
H       24.25816600       1.63485300       1.72820800
O       28.50195700       2.47638200      40.82272800
H       28.90808300       3.32991600      40.99085600
H       28.95015500       2.14938500      40.03861500
O       33.72612400      39.87835400       4.20642600
H       34.28924700      40.64476600       4.33769100
H       34.32025100      39.12847300       4.29206700
O        9.99989900       4.47286500      31.46391100
H       10.69656000       4.52743900      30.80557300
H        9.73309600       5.38477800      31.60487900
O       16.24364000       3.06411600      37.87213000
H       17.06939800       2.65919500      38.14760500
H       15.91668100       2.48892700      37.17578400
O        6.51906200       1.44086500      25.02926100
H        5.70509600       1.47824000      24.52153300
H        7.09801600       2.07490800      24.59863200
O       20.33958000       1.47522500      37.49142500
H       21.05418500       2.10672300      37.60221600
H       20.29931600       1.32458600      36.54362300
O       34.72026100      35.95346900      37.63983800
H       34.52414000      35.08565600      37.27905700
H       33.85813900      36.34741800      37.79537400
O       21.69211400      12.21887400      13.88342000
H       22.59042500      12.47645100      14.10346000
H       21.16054700      12.98382700      14.11778300
O       30.54678300       2.48618400      18.32766100
H       30.72702600       3.31807000      18.77173700
H       31.40198800       2.20414900      17.99341000
O        5.34303600       0.79965500       4.29439200
H        5.73694400       1.25782000       3.54830500
H        6.04423100       0.23081400       4.62209200
O       20.97212300      15.60522800      44.57550600
H       20.73271500      16.44257700      44.97955400
H       21.89416600      15.71425400      44.32935300
O       32.05914600      30.61909200      39.92653400
H       32.54665400      31.38800800      40.23121200
H       32.66062100      30.18061100      39.31940700
O       41.93321200      36.28311700      34.74569100
H       42.86769200      36.50320500      34.75142600
H       41.88561900      35.45786300      34.25647500
O       31.27469700      29.95691000       4.47565600
H       31.61428700      29.05956100       4.50982700
H       31.84504600      30.40383400       3.84509900
O       20.86406400       0.00697200       5.78312000
H       20.70098400       0.49840300       4.97464900
H       20.03687400       0.06435600       6.26799500
O       12.97525600      25.67953000      10.27598400
H       12.79799700      26.37180300       9.63484300
H       13.52986900      26.10250600      10.93639100
O       42.56041600      17.99923300       0.33236600
H       41.81137600      18.49806400      -0.00204500
H       43.22377600      18.66634800       0.52615100
O       20.48818400      30.53060700      29.97471100
H       20.44335300      30.94239400      30.84082200
H       19.63791000      30.72669000      29.57317900
O       27.59566200      23.62324500      38.56736200
H       28.39510000      23.19185200      38.87804400
H       27.07365100      22.91240600      38.18676400
O       40.94493600      14.16854400      33.76254000
H       40.51036500      14.66878800      33.06782500
H       40.24256500      13.64160800      34.15196900
O        7.47558500       3.55594500      39.03031600
H        7.32290500       2.61720300      38.89924600
H        7.18207400       3.72195100      39.92972400
O       43.93703000      26.55303500      35.74382200
H       44.79966000      26.31372100      36.09069700
H       43.52811400      27.05945000      36.45020300
O       10.98762700      27.97843600      11.96570700
H       11.77097000      27.42363800      11.98296200
H       10.34007900      27.49282100      12.48291300
O       35.92777800      30.84080400      28.97438800
H       35.14635600      30.78307400      28.41961700
H       36.08406600      31.78383900      29.06873400
O        5.74365800       0.80627100      44.39734200
H        5.29681300       1.40140600      43.79081900
H        5.92493700       0.02263500      43.87227700
O       41.91547700      40.76705100      20.86027300
H       42.15950600      41.26283100      21.64537000
H       42.75435800      40.49324100      20.48086600
O       11.15771300      28.42754300      33.12962300
H       10.40813700      28.97263100      33.38010200
H       11.90045900      29.03640200      33.11347100
O       32.81275200      12.61336800      12.74880200
H       31.93174600      12.76939600      13.09695300
H       32.78503600      12.97468400      11.85923800
O       25.70805300      38.97867400      18.83186800
H       25.80525400      39.86372300      19.19098500
H       24.76401700      38.80650900      18.87426800
O        0.43678200       1.24627800      43.88928400
H        0.44765400       0.37730000      44.29730900
H        0.93795000       1.79971800      44.49358200
O       17.04279100       3.30242600       2.69972800
H       16.89281400       3.99040700       2.04710800
H       16.26698400       3.33683700       3.26504400
O       16.37644500      34.26088700      14.43876500
H       15.82786700      34.71129400      13.79229800
H       15.75633700      33.95310400      15.10463000
O       42.70976700      11.66530600       4.50097800
H       42.25682300      10.85336200       4.26157700
H       43.31060500      11.40486200       5.20369000
O       37.29675300      22.68853100      10.54003700
H       37.34654800      22.94479900       9.61614800
H       37.93235700      21.97322800      10.62365100
O       21.59262200      42.53116600      16.91782900
H       22.12653400      41.76484900      16.69552100
H       22.08692000      42.97255300      17.61316300
O       41.31995800      12.96549500      42.69605300
H       41.29754700      13.35932700      43.57133500
H       41.43401000      13.71147800      42.10179400
O        4.99932300      39.02264100      32.97298600
H        5.60910200      38.35266600      33.29083300
H        4.74254100      38.71624300      32.09958700
O       35.16638500      34.18841300      31.19067700
H       35.78029100      33.45135700      31.15077000
H       34.80080300      34.24249100      30.30407300
O       36.60047900      39.12364000      42.59728900
H       35.94304400      38.55530800      43.00533800
H       36.32780900      40.01320300      42.83597500
O        1.72642600       4.40633300       1.38121700
H        1.80933500       4.34913400       0.42645100
H        1.62920000       5.34577600       1.55624800
O       18.79249800       9.84085500      43.36373000
H       18.58248800       9.44179600      42.51616100
H       18.55579300      10.76564100      43.25704300
O        9.12746200      42.44129700      40.75055900
H        8.24488000      42.09801400      40.90845100
H        9.71278500      41.74176900      41.05172400
O       40.12092300      43.34937500      24.97478400
H       39.51922400      42.70908000      25.36170100
H       39.85194900      44.18942900      25.35505300
O        4.44350500      28.72435600       1.88916500
H        5.36639300      28.97147800       1.98368300
H        4.39706300      28.30074400       1.02833000
O        4.95704700      26.27109500      43.46975300
H        5.25723200      27.09284900      43.86514400
H        5.56291000      26.12266900      42.73931300
O       37.22657100      16.49006300      18.43603000
H       37.54688600      17.36910800      18.22061600
H       36.27753700      16.59987900      18.53561500
O       28.52356700      35.13331100      34.84889800
H       29.21501900      35.60489400      34.37854800
H       28.75421100      34.20661900      34.74552000
O        1.47083800      43.46344100      20.49967200
H        1.45988200      43.44820400      21.45955400
H        1.25910200      44.37257500      20.27321100
O       41.13958200      11.95847100       6.71356700
H       40.36844700      12.52766900       6.65799300
H       41.86940300      12.51796600       6.43613800
O        9.38880000      10.35821600      16.06580600
H        9.59923000      11.26923000      15.84786600
H        8.57122400      10.41562700      16.56672000
O       14.17090000      17.57818500      12.29609900
H       14.61539200      16.75275400      12.50302000
H       14.75419500      18.01225800      11.66841300
O       30.64645300       6.34118700      28.09302300
H       29.95118100       5.67915400      28.08722800
H       30.60647900       6.72122000      28.97428200
O       26.18202600      36.80493600      24.96599800
H       25.75623000      36.25291400      25.62606900
H       25.72661100      37.64818100      25.03063800
O        1.41559200      32.73697000       8.85471200
H        2.30313800      32.85475100       9.20128800
H        1.48886300      32.97277100       7.92645000
O       26.67401700      16.15585300      17.52034500
H       25.82959200      16.50887800      17.81024900
H       26.47091800      15.26505700      17.22390900
O       11.93307100      27.17293600      39.27871300
H       11.17045100      26.59569200      39.36193200
H       12.33553700      27.16350600      40.15082300
O        0.56417400      29.80702300       9.34021500
H        0.25096500      29.88932600      10.24401300
H        1.11018500      30.58567500       9.20525200
O       10.65676600      28.90306300      39.74931300
H        9.74574400      29.04354600      40.01769400
H       10.79201300      29.52502100      39.02992500
O       20.00821500       1.75951900       0.65560100
H       20.49146500       0.97985900       0.93901300
H       20.68365900       2.34240500       0.29970600
O       44.37647200      20.04262300      42.10147500
H       44.36579200      19.15294000      41.74081600
H       44.39251200      19.91390600      43.05321900
O       37.16235700      25.96485600      32.15201000
H       36.51192800      25.54782300      32.72187900
H       37.90606100      25.35695700      32.15429600
O       13.25205900       4.39528200      36.15152800
H       13.89959200       5.09430900      36.26894900
H       13.48388800       3.99442500      35.30997600
O       24.17981000      44.83695600      21.40415300
H       24.46441700      45.00246900      20.50230500
H       24.98189500      44.57466000      21.86296000
O       39.97227500       7.50156200      13.59522400
H       39.11663900       7.62411500      13.17738200
H       40.50815200       7.07627200      12.92098000
O       36.44303300       7.01500300      12.58519700
H       36.61083400       7.94151100      12.77268500
H       35.48701000       6.93240600      12.62807800
O       30.99959500      22.20094900       7.41555800
H       31.45272400      23.03866500       7.29460000
H       30.70560200      21.95937200       6.53360000
O       28.15039900       7.54361600       7.05451700
H       27.75448600       7.86666000       6.24173200
H       27.89328600       6.61896200       7.09388800
O       39.92018900      31.28388200      13.96684100
H       38.99805300      31.40017100      14.20739700
H       40.06183800      31.91239600      13.25441700
O       33.94814800      12.71066900       6.48924800
H       33.62192800      12.82122100       7.38539800
H       33.99923400      11.75895100       6.36981600
O       35.60723900      35.48414500       8.58603500
H       34.91548800      36.08400000       8.29727600
H       35.16535000      34.88525100       9.19324300
O       42.06268300      13.84108000      27.68823900
H       41.13278400      13.94704800      27.47427000
H       42.12362800      12.95518500      28.05446100
O       30.95554200      22.29468100      39.07350600
H       30.34062200      22.15506000      38.34955600
H       30.50342600      22.91140500      39.65478500
O       39.99530100      23.51399300      10.12533100
H       39.98051100      23.54963000      11.08462000
H       40.49542700      22.71903200       9.92395100
O       37.34957300      42.17182100      19.99864800
H       36.65467200      42.68145400      20.42186300
H       37.33706200      41.32667200      20.45494900
O       11.91548700       4.42005500      33.33811700
H       12.40936300       3.99088200      32.63553500
H       11.98851800       5.35763700      33.14254200
O       31.58452600      18.44069500      19.65715900
H       31.62384700      17.48794700      19.76873800
H       32.30815800      18.77368400      20.19392400
O       28.46484300      11.57923100      13.75272700
H       28.22346400      10.74596500      14.16397900
H       27.72295000      12.16043900      13.93829400
O        2.52770300       9.88540700      27.14375500
H        3.00492600      10.66963800      27.42476400
H        2.95458700       9.62795100      26.32270200
O       31.15476500      38.76887900      36.09722000
H       30.75436600      39.62463000      36.26779900
H       30.89343400      38.55852000      35.19716600
O       32.61084100      28.85089100      41.56298100
H       31.78385400      28.77054600      41.08198100
H       32.39077500      29.38945800      42.32728400
O       28.04097000      12.59700400      40.93194600
H       28.28457700      11.84221600      40.39095100
H       28.79808400      12.73218000      41.50740100
O       19.07133800      37.68166900      18.39119900
H       19.09933800      38.26128200      17.62635400
H       19.07706000      38.27902200      19.14338200
O       38.16969600      23.10722900      34.77398500
H       38.49058800      23.92662700      34.39013400
H       37.53551600      23.38761200      35.43869800
O       10.51324800      27.76766800      36.16525200
H        9.57094500      27.80475200      35.98521300
H       10.57897000      27.28547100      36.99338800
O       30.78702400      28.48353400      14.39066500
H       30.69462800      28.34435500      13.44524600
H       30.18661100      29.20771400      14.58485800
O       25.77528800      42.01440800      38.36651800
H       26.67800600      41.85555000      38.65215600
H       25.64476400      41.40278100      37.63746500
O       22.48197100      11.19288200       7.48947600
H       22.33654800      10.65357500       8.27032400
H       23.43660800      11.28628100       7.43861800
O       30.42927200      23.85765300      36.95786600
H       29.88578600      24.51487300      37.39878600
H       30.06516900      23.80347500      36.07066000
O       40.45951900      32.44317300      23.78179500
H       39.81100100      33.14810100      23.84680800
H       41.05216500      32.72823600      23.08168600
O        3.09543400       8.73604900      15.86733700
H        3.37613900       9.34318500      16.55604300
H        2.37397100       8.24184100      16.26469300
O       32.96002100      21.39541100       8.00533400
H       32.51196600      20.58912300       7.73911700
H       33.86480800      21.12073000       8.17431500
O       19.66730000      36.80539900      13.22760100
H       19.20682000      37.61107400      13.47371500
H       20.28666500      37.08291000      12.54788300
O        3.95080800      37.18429300      26.90830000
H        4.78202200      37.24891200      27.38435800
H        4.00056200      37.87854300      26.24634700
O       42.31056400       9.12883900      29.81724000
H       41.51309400       8.60221500      29.72540600
H       42.93343000       8.72680900      29.20646000
O       44.95073300      11.51090100      34.07923500
H       44.99393900      11.39888900      35.03176400
H       44.29833800      10.86673100      33.79276000
O       22.64854800      14.74417600       5.76266200
H       23.21887400      14.94524100       5.01699000
H       21.96925700      14.17256800       5.39596100
O       32.86176600      14.78907000       4.58362900
H       32.33181900      15.23638100       5.24755200
H       33.70291800      15.25264400       4.59793100
O        1.62868900      22.49814400      23.13633300
H        0.94789300      22.87043200      22.57096200
H        1.48550800      22.91644600      23.98907300
O       21.43937500       2.15804300      43.05302300
H       22.39118300       2.09488400      43.16163800
H       21.24567400       3.08960300      43.18461900
O       43.28611600      14.47869700      14.26893900
H       43.17850300      15.41958700      14.11123200
H       44.23570400      14.33822600      14.23440100
O       21.69617400      28.64194200       6.56909100
H       21.80739900      27.69667800       6.69490600
H       22.58002300      29.00239500       6.67645600
O       28.86936100      39.29281400       3.21273200
H       29.09961100      39.02101100       2.32119800
H       28.42805300      40.13819900       3.09778300
O       23.47616400      39.02484400      14.30797500
H       24.11091800      39.73586700      14.42311400
H       22.83291600      39.16384700      15.00765500
O       19.59792600      27.00604100      13.48410800
H       19.38257900      27.83216900      13.04494500
H       20.22553400      27.25562000      14.16708800
O       15.48187900      19.78750300      31.68418700
H       15.68279800      19.43536400      30.81392500
H       16.07480500      19.31612400      32.27484900
O        1.56236600      12.84898900      21.14252300
H        1.38872900      13.74146200      20.83419400
H        1.21146600      12.83309100      22.03653500
O       17.25978400       4.91154400      39.59293300
H       16.54021000       4.28173400      39.67824300
H       17.09299500       5.35218000      38.75587700
O       10.37207800      14.86737400       5.05831700
H       10.97423200      15.37687300       5.60562600
H        9.75877500      15.51865200       4.70854800
O       26.57580500      12.69936500       9.52547300
H       26.19040400      13.19886400      10.24913800
H       27.48153500      13.01497900       9.47366800
O       44.72169800      43.86551500      17.01717000
H       44.96983100      44.79289100      17.02847100
H       44.95867900      43.54462300      17.89096000
O       42.50547000      28.38171200      11.60111000
H       42.66306700      29.17286700      11.08057000
H       41.54849700      28.31650400      11.65202500
O        1.77732200       3.89433600      15.27514900
H        1.26636800       4.29693500      15.98124100
H        2.03427200       3.03762200      15.62537700
O       35.60579800      21.85622200      29.14292200
H       35.69371400      22.33638200      29.96962800
H       36.28081800      21.17449300      29.19020000
O       36.62756100       6.94222200      20.54920000
H       36.78794800       6.81175400      19.61166100
H       37.10142300       6.22304800      20.97450500
O       12.53299700      14.19652500      15.37285400
H       12.92606500      15.00397400      15.03337200
H       12.11920600      14.46147500      16.19821400
O       33.49402400      10.48957800      19.40010200
H       32.83150800      10.14716000      20.00470800
H       33.71411500       9.74162400      18.83906200
O        1.71316700       7.86652800      24.77989300
H        1.15643900       8.41390500      24.22118300
H        2.31889900       7.44021100      24.16835100
O        0.42254300      32.99955000      23.90644700
H        0.18700000      32.10897800      23.63602900
H        0.00791800      33.10511600      24.76643800
O       19.34001000      14.48371400      39.28476800
H       19.04889300      15.33660000      39.61576900
H       20.29885300      14.52919100      39.31933200
O        8.25764800      14.44479600      26.20964600
H        8.19546100      15.39699800      26.31532800
H        8.40161000      14.11495600      27.10022000
O       32.42469100      36.93239600      11.43662200
H       32.67460400      37.65527400      12.01689400
H       32.57251300      36.14239000      11.96262700
O        5.76593500       7.30932800      19.11711100
H        6.24854600       6.90212900      18.39392300
H        5.21203000       7.96923400      18.69242900
O       23.00656800      43.82190800      38.12220300
H       23.01924500      44.77895100      38.04715300
H       22.12809700      43.62040800      38.45436000
O       37.61394100      35.19464500      11.08060800
H       38.19034000      35.91807800      10.82344300
H       36.83908000      35.62654500      11.44897600
O        8.73617100      42.36337800      14.58728100
H        9.18563600      41.61909700      14.18015600
H        9.00811400      43.12147600      14.06385300
O       40.55108300      19.48751500      24.06240000
H       39.89761500      18.83963900      24.33619000
H       40.12966400      19.96086400      23.34060400
O       15.37542600       1.00050500      15.38395000
H       16.12391800       0.43603300      15.59096800
H       15.15198000       1.41650800      16.22040400
O        9.62029800      33.42373200       9.54221500
H       10.36272800      33.95771900       9.83441500
H        9.97781300      32.88787300       8.82969800
O       10.25178100       4.79768200      35.47762800
H        9.83920400       4.28404100      34.77928800
H       11.18502100       4.57915100      35.41479600
O       33.00128600       4.33513400       8.90783500
H       33.43685300       3.70292400       9.48430300
H       33.72128800       4.77239700       8.44627200
O        0.21060200      38.11072100      11.99229700
H        0.49435300      37.52283500      11.28830800
H        0.78645400      38.87521500      11.91114800
O       25.30628000      20.43000300      38.78226200
H       26.02431900      20.16423800      39.36149800
H       24.80570100      21.06607200      39.29944500
O       15.36443500       2.29550800      34.20679000
H       14.97812500       1.88918300      33.42743800
H       16.09095400       1.71357400      34.44378400
O       21.04072000       8.70780300      41.53043800
H       21.75403800       8.07491500      41.64160000
H       21.21366500       9.11463400      40.67766600
O       35.46521700      12.44494600      17.34421900
H       35.86154500      11.63333500      17.01874000
H       35.48440500      13.03897100      16.58962800
O       24.74797000       0.39699200      35.84337900
H       23.97289700       0.01237300      35.42737900
H       24.76649500       0.00605500      36.72057200
O        4.96119000      40.80190600      29.53867900
H        5.57870000      41.53114300      29.63152000
H        5.41749100      40.05197300      29.92859100
O       11.57436100      32.20604800      10.43977100
H       12.44287600      31.96140100      10.11181600
H       11.35715000      31.51906600      11.07500100
O       34.47252400      35.28603700      34.72544500
H       34.52850900      35.65070300      33.83909900
H       34.36469300      36.05364700      35.29271100
O        9.74357300      29.07639900      29.79884700
H       10.36056600      29.79368500      29.96177800
H        9.06057600      29.19368100      30.46398100
O       37.48703300       2.49973600      43.11639700
H       37.37545200       1.57247900      42.89397900
H       38.43821300       2.63341600      43.11109000
O       41.36466900      24.42389100      16.24745700
H       41.07953800      23.57557000      16.59498800
H       40.67664400      24.66949000      15.62380300
O       21.93075000       4.88821600       6.47468700
H       22.73111400       5.36653800       6.70349300
H       22.19616000       4.30964500       5.75534400
O       33.97150200      21.61419800      25.70710300
H       34.53034500      22.36014700      25.47692800
H       33.18931600      22.01340600      26.09628100
O       44.12401200      22.79954500       5.36596800
H       44.92391200      22.28130400       5.25059600
H       44.38317100      23.50920400       5.95914900
O       39.28539900      28.10637200      38.02423900
H       39.32494200      29.04752600      38.20968500
H       38.97159900      27.71493600      38.84335500
O       20.75748400      35.85356200      27.35058700
H       21.65409200      35.89991800      27.01048500
H       20.76928900      36.41334100      28.13106700
O       22.44439700       3.70821800      40.99582400
H       22.61124500       4.63260300      40.79733400
H       21.48858300       3.64913300      41.07046400
O       35.30340200       2.91925900      23.11920700
H       36.19171600       3.13250700      22.82399700
H       35.13587100       3.53617500      23.83613800
O        3.80327200      27.46097900       7.31590100
H        4.03449000      28.28245600       7.75571800
H        4.15377200      27.55956200       6.42704100
O        9.32746900      40.88648700       2.69265700
H        8.81385700      40.08615500       2.82454800
H        9.11675700      41.43316700       3.45382900
O        8.16438200      19.37042300       8.67046900
H        8.97988500      19.48396200       8.17672000
H        7.72005100      18.64021300       8.23228600
O       40.46455500      23.37605100       6.99635200
H       39.83296900      23.37034200       7.71939500
H       41.14876500      23.98659500       7.28224600
O       38.08677100      42.08004000      43.00086800
H       37.83190700      41.51905000      42.26462100
H       37.60004000      42.89583100      42.85867200
O        3.44268200      11.64547300      23.59355500
H        3.54342000      11.49265900      22.65109900
H        4.33403400      11.57129500      23.94374400
O       29.35500300      36.62257600       3.43917300
H       29.66414300      36.30959700       2.58582600
H       29.34321600      35.83671800       3.99137800
O       23.94570000      13.81066800      37.15315300
H       23.94797400      14.06965600      38.07762300
H       23.82856300      14.63534900      36.67479800
O        9.94243300      44.43888200      42.30438300
H       10.30198600      43.55074600      42.24386900
H        9.60480600      44.61995400      41.42355300
O       27.86359000      44.32285900      42.05380500
H       27.28465000      43.57906800      41.87124600
H       28.60761600      43.93643800      42.52257600
O       26.18950300      40.70476700      35.34178900
H       25.26010000      40.61563600      35.11820300
H       26.33733300      40.03776700      36.01699200
O       42.70196400      18.17022100      33.54491000
H       43.27383900      17.98845700      32.79547900
H       43.01148000      19.01486700      33.88168100
O        0.71087100      26.49338900       1.62937400
H        1.54264200      26.68610600       1.19034800
H        0.96536600      26.23021500       2.51741300
O       14.33654400       8.19269900      44.02492300
H       14.37669000       9.13548500      44.20174900
H       13.43608100       7.94592300      44.25055600
O       13.12062200       9.08808800      17.42233900
H       14.01345400       9.18878800      17.08405700
H       13.19904800       9.27419700      18.36141100
O       41.55626000      16.74048700      36.13502500
H       42.31354100      16.15825700      36.23124600
H       41.35930100      16.72213100      35.19507200
O       22.22356700      27.38949300      42.95657500
H       22.23515700      28.24768700      43.38680000
H       22.75903100      27.51065800      42.16838800
O        8.39778300      26.76954500      26.37469600
H        8.28294800      25.99221200      25.82307000
H        9.20850600      27.17223700      26.05343500
O       17.03633800      22.45921700      43.28501600
H       17.17571000      23.31389400      43.69953600
H       17.55208000      22.49980700      42.47569200
O       19.42688900      18.43854100       6.51312500
H       20.32911400      18.23489400       6.25575000
H       19.51977100      19.09137400       7.21156900
O       25.02197300      18.52754600      34.58160100
H       25.39303400      19.17569700      35.18487500
H       25.60965600      18.54492200      33.82201700
O       28.11496400      33.12640700       3.41122200
H       28.31398600      32.62867900       2.61474100
H       28.22222100      32.49031100       4.12292500
O       23.66836500       7.98144200      27.03205600
H       23.62341500       8.53423700      27.81571500
H       23.12054100       8.43652200      26.38751600
O       41.89221300      16.66024300      38.53938400
H       42.85155600      16.65845300      38.50219100
H       41.65164700      15.73033100      38.53367900
O        1.82161300      18.69695800       1.25758600
H        1.85843900      17.88601100       0.74501000
H        2.44998800      18.55715600       1.97049700
O        7.15687100      14.08752700      30.88142400
H        7.32127300      13.24844200      31.31803900
H        6.91142400      14.68303300      31.59400400
O       15.46498500      43.49626800      42.39770300
H       16.16158700      44.11297300      42.63465000
H       14.77246300      43.65938300      43.04303100
O       41.25926400       0.99157200       8.06147300
H       41.53116400       1.90677800       8.16243800
H       41.85426800       0.63817000       7.39535000
O       25.51925900      39.43935300      38.69291400
H       26.40574200      39.07397900      38.74165000
H       25.49074300      40.09075700      39.39825200
O       11.05973200      33.45032600      15.73710500
H       11.86098700      33.97683100      15.68702700
H       10.55004200      33.71809000      14.96823600
O        7.52390700      16.85406800      34.52202200
H        8.14513800      17.52522900      34.22989300
H        7.25208700      17.14506800      35.39613600
O        4.28196200      34.72860100       2.11399200
H        3.55543900      34.36682500       2.62683400
H        4.98746200      34.08424200       2.21253800
O       28.27154300      12.68924900      11.85184600
H       27.54698100      12.10392200      11.61919400
H       27.98610300      13.55452800      11.54777500
O        4.40114800      21.13208900      30.91084200
H        4.97805200      20.50301600      30.47132700
H        3.58641300      21.10371400      30.40286200
O       44.97424600      41.15304100      20.42204200
H       44.98073900      41.58470000      19.56451500
H       44.57719800      41.79937100      21.01132400
O       21.11000900       3.73654500       2.02485800
H       20.38738500       3.17540300       2.31582200
H       20.67975600       4.45310000       1.55149400
O       31.06990700       5.23760500      30.60010700
H       31.49803100       4.50593400      31.05076400
H       30.38625200       4.82270700      30.06801900
O       40.96894300      10.80134200      31.31898700
H       40.60131600       9.91546300      31.36134600
H       41.72445400      10.77454700      31.91154700
O        6.28776800      34.71599200      33.19035800
H        5.63402700      34.01377000      33.15526100
H        5.83170300      35.48418600      32.83747600
O       43.57342700      29.55839700       8.43090900
H       43.78983500      28.75381900       7.95389100
H       43.27831500      30.16757900       7.74940500
O       15.51531100      43.86696500      10.80679900
H       15.96993200      43.58448500      11.60382400
H       15.30038100      43.04859100      10.35214400
O       35.66663300      29.76182100       0.95579600
H       34.88164700      29.32408100       0.61829700
H       35.39430100      30.11824800       1.80517000
O       19.13681200      29.37975800       6.97171100
H       19.91011600      29.49302600       7.52929100
H       19.21470500      28.48346200       6.63521600
O       33.02647300      31.54992900      37.45521500
H       32.69868300      30.82932400      36.91206900
H       33.94890100      31.33129900      37.61003800
O       40.93472500       3.96637900       8.65389700
H       40.57683800       4.81899800       8.91212500
H       41.54352200       4.16986000       7.93933200
O       28.72365300       1.21604500      43.47841900
H       27.78053000       1.20817000      43.65781300
H       28.86577200       2.02794500      42.98520300
O        7.17030700      21.07947700      28.38598200
H        6.92282700      21.78484400      27.78354000
H        6.80020600      21.34687300      29.23106600
O       32.50409200       8.79701000      41.14369100
H       32.21758600       8.39430300      40.32060800
H       31.73311800       9.27811500      41.45478300
O       33.34476200      19.90849500       3.49388500
H       33.46009300      20.57412900       4.17605500
H       34.13948400      19.37169200       3.54775800
O       39.10474700      12.57658300      41.68348700
H       39.23466500      13.40843900      42.14485600
H       39.85638400      12.51389100      41.08871400
O       19.98175800       5.31707600      26.80985800
H       19.37588900       4.67933900      26.42523100
H       20.01328500       5.08433300      27.74124400
O       28.23559300       7.92312200      10.27969700
H       28.90988600       8.04894500      10.95142900
H       28.22306900       6.97452900      10.12917800
O        7.88162100      38.30183700      44.84345200
H        8.47207200      39.05680600      44.78764700
H        7.01468800      38.68766500      44.99246900
O       29.57256200       6.78360900       0.73299800
H       28.79885400       6.21778400       0.67876200
H       29.76695100       6.83231600       1.67240300
O        9.25537400      30.52141200      22.53806900
H        9.40540500      31.43512800      22.79172100
H        9.88047800      30.36605700      21.82550200
O       11.12671700      25.58792900      41.92984500
H       11.84690200      26.17662200      42.16754000
H       11.38222700      25.23157100      41.07523100
O        9.15820900      25.41681700      19.78991800
H        9.48165700      26.31735200      19.71154700
H        9.24668000      25.05383800      18.90501100
O        3.40285500      16.36089900      32.54350100
H        4.28680300      16.00549700      32.66203700
H        3.38165900      17.13966900      33.10538300
O       26.90527200       3.97610400       5.84271500
H       27.86011400       3.90468200       5.77271600
H       26.58700400       3.79688700       4.95433000
O       31.09098900      36.22699300      33.06633900
H       31.03260500      36.99227700      33.64310400
H       31.95524100      36.30430900      32.65435200
O        3.60473400      22.68136700       2.35638900
H        3.26441700      21.92294800       1.87606600
H        2.92004300      23.34872500       2.26433500
O       41.38597700      40.04085700      15.67817900
H       40.42905000      40.07933600      15.74551800
H       41.63393200      40.89463300      15.31454900
O       16.75909700      23.33566700       6.66727000
H       16.46660000      24.21479000       6.41565100
H       16.04199200      22.99065700       7.20520200
O       33.09599300       8.15443600      15.41527400
H       33.46116300       7.45447500      14.86898700
H       33.83156400       8.43618100      15.96499900
O       30.93778800       8.53624100      21.66306100
H       30.90555100       9.46860700      21.43638700
H       31.47292200       8.50298800      22.46003600
O       44.99945300      15.45184000       4.18224800
H       44.99915500      15.21460900       3.25195400
H       44.92974400      16.40984800       4.18403400
O       31.63826600      29.63696100       6.87523800
H       32.10058300      29.19244100       7.58965400
H       30.95659700      29.01485600       6.60886500
O       42.00180000      30.82756200      38.01522100
H       42.85799600      30.54592800      37.68456000
H       41.92056900      31.73843100      37.72134700
O        5.32848500      16.21883400      36.91167800
H        5.97699500      15.68257200      36.44952800
H        5.79589700      17.03183800      37.11950600
O        0.02469500       6.62020100      36.89597900
H        0.89548300       6.98024900      36.71207900
H        0.02071400       5.76785300      36.45311400
O       26.02750600      15.87214100      11.47790300
H       26.15336500      16.75330400      11.83767400
H       26.10329500      15.29085600      12.23882700
O       23.53453700      24.74659900       1.15741800
H       23.55588300      25.70223500       1.06781200
H       23.90700800      24.42152300       0.33386900
O       33.05028200       5.09917800      36.55829300
H       33.18051600       4.35741800      35.96284700
H       32.11980600       5.05614100      36.79282500
O       41.72782900      17.56758200      26.51678500
H       41.30252500      17.97778600      27.27347100
H       41.09710500      17.67671800      25.80060100
O        3.57563200      43.23960600       3.31311500
H        3.73463700      42.69770100       2.53672500
H        3.07739300      43.99090300       2.98152300
O       20.48345000       3.60185300       4.56952700
H       20.58480800       2.65544100       4.44399900
H       19.58937400       3.78749600       4.27152100
O       41.19257000      44.04237200      30.33450300
H       42.08076500      43.75917600      30.10507800
H       41.21715500      44.99861100      30.24707300
O       18.02797500      37.92771300       5.82784000
H       17.85296900      38.46423100       5.05115000
H       18.80180200      37.41035700       5.59082600
O        4.65338800       4.54734600       8.02147400
H        5.53268500       4.77573700       8.33195500
H        4.80857300       3.98808500       7.25610700
O        3.86487700      25.82838100      32.95692400
H        4.22332600      25.44255000      32.15419500
H        2.92037000      25.88686500      32.79221900
O        0.47850800      32.38813300      31.31386400
H        1.07116700      33.03845500      31.69800200
H        0.00729100      32.02119900      32.06616500
O        9.97663700      21.52450600       9.18378400
H        9.17333000      21.17211600       9.57396900
H        9.80340600      21.52287000       8.23899300
O       14.03673100       5.65836400      20.81361300
H       13.90109100       4.88413300      21.36487800
H       14.88647900       6.00610100      21.09583700
O       13.64257200      14.62609400      26.53234400
H       13.66049800      13.68080900      26.69919500
H       12.88986500      14.75098600      25.94884100
O       28.09594700      24.31190400       9.91560500
H       27.33560400      24.40599700      10.49418000
H       28.29881000      25.20959200       9.64056900
O       41.31279800      17.59259600      22.70973100
H       40.36284100      17.61041200      22.57193000
H       41.67591100      17.39652200      21.84235200
O        5.85285300      26.23648500      15.79697100
H        6.34631400      25.69035700      16.41338500
H        6.20794500      27.11989200      15.92402900
O       34.72082400      19.02723000      29.72841500
H       34.71944600      19.63790700      28.98760800
H       34.84897600      18.16451100      29.32600300
O       10.45313300       8.33822700      12.26821100
H       10.31832800       9.25022200      12.00022300
H       11.12123800       8.38824500      12.95652500
O       23.78795400      37.72564900      11.30825000
H       22.90277900      37.47795900      11.58545000
H       24.33450000      36.97634400      11.55819300
O       37.75321100       6.98732900      15.18217000
H       37.58504300       7.82862000      14.75127100
H       38.70588000       6.96772500      15.30332900
O       43.69268500      39.94907500      44.41183000
H       43.23845100      40.72406500      44.75063100
H       43.42230700      39.23856200      44.99894900
O       20.79173200      39.25195800       1.25761300
H       20.34087500      38.47546500       0.91774300
H       21.59612900      38.90663300       1.65301000
O       32.05156200      33.28285700      29.76220200
H       31.45132100      33.63728400      29.10203800
H       31.47572500      32.96906400      30.46404800
O       17.88172000       0.81945800       6.43953600
H       16.96305000       0.88214400       6.16780000
H       17.86619900       0.23117700       7.19869800
O       20.88883400      11.73033700      26.78349400
H       21.65843600      11.21519500      26.53038100
H       21.12712100      12.63588700      26.56939000
O       23.86717000      14.82810300      12.85863900
H       23.09487100      14.40981800      12.47093300
H       24.08997000      14.26966100      13.60773500
O       22.52133000      30.46397500       9.17962800
H       23.28741800      29.89349500       9.08273900
H       22.88728400      31.35156600       9.20966400
O       30.67341800      43.39995100      36.18823700
H       30.72444300      42.97191200      35.33038900
H       29.77866100      43.22362800      36.48983800
O       32.92977500      21.72757700      37.41987100
H       33.10985700      22.59832200      37.78194400
H       32.83828600      21.87636300      36.47534200
O        6.02441800      17.27159900       7.92647200
H        5.32731400      17.10684300       8.56571000
H        6.66434400      16.57331100       8.08625400
O       34.53736100      26.18284100      26.50912100
H       34.06075100      25.90340000      25.72395800
H       33.99134700      25.88108800      27.23950100
O       35.77184100      15.86717300      11.84363700
H       36.32379300      15.30974300      12.39712200
H       35.70597600      16.69384900      12.32831100
O       17.58893400      28.02278700      25.70206300
H       18.14052600      28.75298800      25.41175700
H       17.66275400      27.37360700      24.99796300
O       28.74942100       2.00070700       6.64335700
H       28.87839800       1.95738800       5.69298200
H       28.43112200       1.12611700       6.88088600
O        2.92070000      35.56486000      28.23610500
H        3.62062100      34.91681400      28.34506500
H        2.64022100      35.46167300      27.32323800
O       12.59644100       0.65361900      14.39297600
H       12.24060700       1.50823700      14.13854300
H       13.31790600       0.50278900      13.77703700
O       31.47947600       2.21325600       4.86149600
H       31.04743100       1.36968800       5.01465100
H       30.76549600       2.85523200       4.88872900
O        8.63843800      34.14024000      16.36613100
H        8.49307300      34.34269900      15.43898200
H        8.43904900      34.96102100      16.82352000
O       33.89022000      17.42517400      25.54228300
H       34.61775200      18.04336900      25.64356900
H       33.12236400      17.90635000      25.86088800
O       38.43527000       7.75590200      40.25670900
H       38.56593200       7.82496800      39.30808800
H       38.38004600       6.81123600      40.42163200
O       42.90493400      18.59464200       2.74932200
H       42.11443900      18.12012800       2.48159400
H       43.15087600      18.19457000       3.58723500
O       44.97165000      39.25015800       2.96523900
H       44.93278800      40.20212300       3.08346000
H       44.48532400      38.89680700       3.71442100
O       18.67808600       7.08463400      13.75486900
H       18.55896600       7.20545600      12.80991500
H       17.96840100       7.59583400      14.15193700
O       23.72884700       0.79759100      15.99177600
H       24.51805600       1.33760300      15.90655200
H       23.13460300       1.32703300      16.52955600
O       15.98300000       3.13940000      26.16467800
H       16.68857500       3.64297700      26.57735000
H       16.39945600       2.72331100      25.40568100
O        6.50756000      43.86422600      28.97547000
H        6.89223800      43.03247800      28.68921300
H        6.18909700      43.68633600      29.86405200
O        4.00947100      13.38629100      31.07295600
H        4.10232300      12.55606800      31.54606600
H        4.90085500      13.59675900      30.78350900
O        6.66517300      23.93218300      11.74108900
H        6.12449500      24.70412600      11.55807000
H        6.15295100      23.42795200      12.37828600
O       17.90405200      42.45113500      37.66710300
H       17.11547700      41.96685000      37.92272300
H       17.61495400      43.01249300      36.94326400
O       11.72953400      38.89080600       4.28148900
H       11.63050000      38.98102400       3.33081700
H       11.02032000      38.29671500       4.53977800
O       25.27134100      32.29585800       5.56325700
H       26.05711700      31.77186700       5.73563600
H       24.94463100      31.96613400       4.72231400
O        3.95831500      18.72819200      14.74441400
H        3.42903900      19.52910900      14.75557100
H        4.77382000      18.97512300      15.18783100
O       32.10568500       7.24165100      43.22520100
H       31.66377400       7.16760500      42.37610800
H       32.44957700       8.13843700      43.23761000
O       15.80927000       0.63561800      38.95786900
H       16.74984700       0.44616600      38.92398700
H       15.75008100       1.46359100      39.44119100
O       38.41895700      18.99587500      40.78972600
H       39.19327800      18.53332100      41.11865800
H       38.38665000      19.80455800      41.30705500
O       44.09564300      10.43626900      29.99488600
H       43.40514100      11.02567200      30.30719300
H       44.24022800       9.83000800      30.72576600
O        5.94189500      35.56532500      10.88068500
H        5.87134100      35.67218200       9.92919800
H        5.49755700      34.73298700      11.06073800
O       17.48820800      41.16839800       6.17493200
H       16.71485900      41.48923400       5.70512200
H       17.93757300      40.60637000       5.53866200
O       28.90991900      31.35457200       6.16389300
H       28.78683400      30.79394200       6.93348400
H       29.73839500      31.05525400       5.78090700
O       14.55406200      39.12599600      27.43275100
H       13.85780700      38.71840900      27.95316100
H       14.19851500      39.98455300      27.18962800
O       10.42638700      20.63531600      18.20640200
H       10.49885100      21.51751000      17.83463800
H       11.27352100      20.48645100      18.63400500
O       35.66162200      42.17056500      11.66331500
H       36.45521500      42.70947600      11.62445200
H       35.85499800      41.42011300      11.09580300
O       38.38752300      10.19852300      39.95321000
H       37.59304000       9.83726900      40.35323300
H       38.31579100      11.14596200      40.09412100
O       42.54140900       9.88549200      19.02029900
H       42.68597400       9.73205300      18.08366600
H       41.96512600       9.16719800      19.29341900
O       29.70242200      37.12165400      12.62273000
H       29.56556600      36.17211100      12.58580400
H       30.64857200      37.22121100      12.75513200
O       11.38355700      41.67846900       3.14558300
H       12.05813200      41.13132800       3.55461900
H       11.36407000      42.47446700       3.68284400
O       31.72176500      11.45518500      38.44258400
H       30.98842300      11.37601700      37.82803800
H       32.46501100      11.06119300      37.97890500
O        7.51208800       3.82111600      32.11426400
H        7.66988200       4.76606600      32.05184900
H        6.69924100       3.68207500      31.62173000
O        0.84348000      25.78650900      19.41952100
H        1.67299700      25.98319400      18.97800000
H        0.83146100      24.82853200      19.48864500
O       18.46451500      15.88586100      44.23799600
H       18.81800000      15.24995600      44.86441400
H       18.24511100      16.65204000      44.77416100
O       41.42967500      34.89800500      27.89514500
H       42.30843000      34.59250100      27.65811600
H       41.28528700      34.54728000      28.77763300
O       27.33343900      37.06257800      36.55994000
H       26.74107000      37.55312200      37.13456200
H       27.81208200      37.74051300      36.07626000
O       38.06432700      20.76023600      35.19710300
H       38.06645000      21.28438300      36.00146000
H       38.88656000      20.99316600      34.75856100
O       17.92323000      13.33111600      26.24771900
H       17.44433200      13.12504300      25.44154600
H       17.26249800      13.26300000      26.94157500
O       12.56935600      12.89210200      38.01134200
H       13.17101800      12.66073100      37.29986700
H       12.09731700      13.66178100      37.68359900
O        0.23211900      32.98415500      12.73790900
H        0.50268100      33.87185400      12.98389800
H        0.00089200      32.56587600      13.57110700
O       30.70997400      34.50253700      36.63264100
H       30.01008100      35.14214400      36.48172100
H       30.52011700      34.14215400      37.50253800
O       23.18484100      19.90672800      34.45868600
H       22.62694500      20.67611200      34.59479700
H       22.57807200      19.16294500      34.49418000
O       20.75311500      33.96036900      22.52242600
H       20.94664000      34.77495600      22.99223500
H       21.27105800      33.29280500      22.97930300
O       13.21263700       9.17758100      23.29746000
H       12.89565600       9.09840300      22.39469800
H       13.89822200       9.84877200      23.25143200
O       29.75246000      27.61065500       3.30817000
H       29.08188600      28.03457400       2.76747700
H       29.43576800      27.71818700       4.20860600
O        4.99866400      38.79964000      37.61641200
H        4.06198300      38.87126700      37.41836500
H        5.31564800      39.70624000      37.60092900
O       21.86749400       1.30883200      25.43818700
H       21.97509900       2.25098800      25.28823000
H       21.09895300       1.24478500      26.01079900
O       13.11663400       3.89287600      10.20261500
H       13.90029800       3.51875600      10.61204000
H       12.66814500       3.13835400       9.81249100
O       24.03836100      26.61650000       3.26131800
H       23.27964400      27.01782600       2.83118900
H       23.70350800      25.78628600       3.60954200
O       26.32031400      33.96885700      10.03778100
H       25.45066500      34.31228900      10.25570600
H       26.81003900      34.73649600       9.73193600
O       12.72609400      20.91023900       7.75908700
H       12.03762500      20.94392600       7.09080500
H       12.75012000      21.79938700       8.12168900
O       20.57785800      39.35155900      27.23143700
H       19.80995200      38.80918900      27.42607000
H       20.39781800      39.71624500      26.36124600
O       17.31940100      21.66623200      32.76094500
H       16.55320600      21.38720800      33.26771600
H       17.98930800      21.85129400      33.42398200
O       22.18787200       1.29609900      22.68884400
H       22.34763900       0.36850400      22.49972300
H       22.80683000       1.50596900      23.39275300
O       36.36454500      28.20596500      39.45680200
H       36.79896700      27.97717700      38.63178100
H       36.17368600      27.35938600      39.86852800
O       29.69524400       2.77218500      30.47589300
H       28.75981700       2.57699000      30.56862600
H       30.12966900       2.13515000      31.04869700
O        7.91904500      32.87339900      44.82521200
H        8.30634400      33.01499900      43.95822000
H        7.24087100      33.54986200      44.89677000
O        7.38648500      17.98662900      26.55406500
H        6.81627300      17.32277500      26.15924800
H        7.49385500      18.64835300      25.86614400
O        4.92977300       0.37832900       1.70203900
H        5.77357200       0.00056700       1.44315100
H        4.34068700       0.16804000       0.97306900
O       30.48742700      38.29066000       4.31801700
H       30.88046700      37.63246800       4.89596800
H       31.11531000      38.37992000       3.59660300
O       10.54058000      18.03183100       4.21474900
H        9.88746000      17.49783400       3.75648600
H       10.85898600      17.46456700       4.92148200
O       26.91303900      26.85649000       0.60409500
H       27.37650100      26.02149600       0.70265400
H       26.19008700      26.65846400       0.00345500
O       22.56363300      13.97992600       8.08479400
H       23.35626300      13.53826200       8.39847600
H       22.19585600      13.37627300       7.43442200
O        9.12922000      30.33037700       9.20710300
H        8.64073800      31.14761800       9.08370200
H        9.91051300      30.59183700       9.70092600
O       13.17844100      38.55106700       6.65297900
H       13.73842900      39.33082000       6.64184900
H       13.21928200      38.21533700       5.75394600
O       42.48225600       0.70508800      42.89766500
H       41.54720000       0.91213300      42.96495300
H       42.72677200       0.41679300      43.78069400
O       18.83733500       7.19357200      40.34681000
H       18.44811000       6.94641500      41.18891600
H       18.13791200       7.03994400      39.70661600
O       27.30381300      40.31301100      27.77081800
H       28.00280200      40.54879400      28.38526500
H       27.76806400      40.00731400      26.98745200
O        6.00855300      24.94847500      33.81631900
H        6.18786500      25.88684800      33.91133700
H        5.26978800      24.78576300      34.40825900
O       40.96755000      12.76563600       1.64895200
H       41.12523400      12.69994000       0.70420600
H       41.51948600      12.07865700       2.03114200
O       35.07522400      11.61601900      14.96373000
H       35.82210100      11.21951900      14.50910100
H       34.36825100      10.97306800      14.86654700
O        1.20308500      21.30379000       7.32234200
H        0.67822100      20.80204500       6.69425400
H        2.10081200      21.24142400       6.98642900
O       36.54440500       2.28300800       5.09334800
H       35.92643800       2.98284800       5.31710200
H       37.08360700       2.65641100       4.39158300
O       17.64304400      30.75054600      30.99984600
H       17.94429800      31.64636000      30.83106100
H       18.40618000      30.31053400      31.38280000
O        8.86733500      23.50694300      24.54319200
H        9.03629700      23.97453800      25.36449000
H        9.71393400      23.11593100      24.31292600
O       44.99843400      11.00585800       3.35620300
H       44.99763200      10.04967500       3.44245800
H       44.16688700      11.20654100       2.91928400
O       36.94734600       9.15977900      25.61508400
H       37.05715400       8.64717100      26.41938500
H       37.59640500       8.79405300      25.00877600
O       33.81775100      32.07349300      16.08241500
H       34.37428000      31.34535600      15.79637800
H       34.28410200      32.44931500      16.83335800
O       14.71237200      10.46583400      21.17045600
H       14.91466400       9.54957300      20.96730700
H       15.38428700      10.72289400      21.80692400
O       18.88192600      43.48143600       9.73329300
H       18.24397100      43.71987300       9.05662100
H       19.26040700      42.65475800       9.42345900
O       29.47284700      38.17550900      31.06458800
H       29.58868400      39.11779800      31.20741200
H       29.86266100      38.01549400      30.20140600
O       26.97781500      27.39332500       2.73603000
H       27.13971600      27.13986100       3.64777000
H       26.04674100      27.20235300       2.59720600
O       28.94139300      29.11873700      38.80768900
H       29.10557000      29.58059800      37.98218600
H       29.35096100      29.67317200      39.47664100
O        6.11922000      14.75863900      43.11434700
H        6.92433700      14.24286300      43.02782900
H        6.31454300      15.39049900      43.81094200
O        4.64891000      39.35827000       9.14260200
H        4.15013000      38.64554400       8.73644500
H        4.48776400      40.11591300       8.57457800
O        7.28247500      26.74844100       0.04692300
H        6.86957800      25.88290600       0.00122000
H        7.90478300      26.67759000       0.77517800
O        7.90688300      32.90743800       7.01945500
H        7.04945600      33.29518300       6.82920100
H        8.47707500      33.23422900       6.31893300
O       12.47842500       8.13668400       4.42400400
H       12.75628500       9.01614500       4.69059000
H       12.71813000       7.57575500       5.16598900
O       28.42777900      32.98519500      40.37090600
H       28.93358600      33.28762000      41.12881300
H       28.39615100      32.03040300      40.47097300
O       41.63166400      15.53224900       0.76068000
H       40.96798700      15.79013200       0.11666600
H       42.40881800      15.32922100       0.23394200
O        2.40226300      31.09912600      18.09448000
H        3.00612900      30.64872200      17.49932600
H        2.35001100      30.52353300      18.86168600
O       17.67516000      30.80153900      12.73682300
H       17.41483200      30.62273500      11.83018900
H       16.84622100      30.95607500      13.19684600
O       43.05127100      39.34636800      11.80721400
H       43.02960300      38.41004000      11.59615800
H       43.79367800      39.68751000      11.30214300
O       28.27720700      30.18421200      44.26639900
H       29.19555500      30.26078300      43.99714500
H       28.18972000      30.80450400      44.99456600
O       35.66172900       2.95502600      26.35549400
H       36.59553800       2.96701600      26.57816100
H       35.28471600       3.67329500      26.86988100
O       37.60010500      10.50275300      37.16262400
H       38.07649700      11.22976800      36.75491700
H       37.01869700      10.92597400      37.79940500
O        8.95194200      35.69800000      19.01268200
H        8.72321700      36.62316900      19.12875000
H        8.27927100      35.22231900      19.50652800
O       13.51893200       8.11167700      14.51809900
H       12.59567400       8.21528300      14.76014300
H       13.90402200       7.62348100      15.25022700
O       17.50592000      18.46564900       7.85072300
H       17.68042300      19.22883000       8.40644600
H       16.87281500      17.94548100       8.35196800
O       36.67880400      38.73161000      19.42237200
H       35.81471000      38.54411900      19.79642100
H       37.11301300      37.87565300      19.38441900
O       28.99332300       6.38787200      26.23845600
H       29.23269100       7.22432400      26.64438100
H       28.08851800       6.51660200      25.94282400
O       27.75369500      34.96756700      39.08916900
H       27.05782500      34.34782900      39.32028800
H       27.46059500      35.35744300      38.26168400
O       42.21860600      33.53455200      10.44254200
H       42.77157300      34.31923900      10.45735800
H       41.87467700      33.46831100      11.33695100
O        6.68437900      35.27038200      13.49948100
H        7.41643300      35.89152500      13.50107000
H        6.19773500      35.47333800      14.30236900
O       40.53638900       8.84939700      38.10940300
H       39.92485600       9.41307600      38.58900600
H       40.47564200       9.15147700      37.19962300
O       29.46928500      24.22722700       5.56733900
H       29.64800600      25.10058400       5.92375300
H       28.53329800      24.08902400       5.73308100
O       39.34111100      35.33241400      38.75775600
H       38.75310200      34.63078100      38.46847600
H       40.09838300      34.87154500      39.12759600
O       10.12840400      23.58269900       0.00404400
H       10.56726100      24.40254100       0.24277100
H        9.27165300      23.63661700       0.43498800
O       22.57881000      24.94081800      37.23389200
H       22.97039600      24.10014200      37.48218300
H       22.35305800      25.35507200      38.07059400
O       26.72232800       8.25889200      23.99820600
H       26.45707900       9.13957200      23.72294200
H       26.02967100       7.97907200      24.60200200
O       40.41065500       3.70157800      42.79743800
H       41.04223400       4.32342100      42.42845900
H       39.93714800       4.20859000      43.46179500
O       36.47940200      20.10970300       7.53965400
H       37.25410000      20.10513000       8.10670500
H       36.81971100      20.34560400       6.67294600
O       28.76808200      41.72049400       9.32282200
H       28.94251800      40.81068800       9.07073200
H       29.14577300      41.80081400      10.20233400
O       33.22243100      38.86099100      25.37388600
H       32.41278400      38.41223500      25.62847300
H       33.84814400      38.63530200      26.06684400
O       13.80791300      24.78989800       5.58886500
H       14.26999900      24.03846600       5.20998500
H       14.39470600      25.10681700       6.28015200
O       40.49700600      41.02341700      41.99376500
H       39.99232600      41.14252500      41.18578200
H       40.29207100      41.80064500      42.51965500
O       23.73371000      40.41548100      36.68991200
H       23.67626700      40.37069900      37.64721000
H       23.29007900      41.23655000      36.46258200
O       30.54735300       9.12960200       0.90652300
H       31.14008600       9.02299200       0.15884200
H       31.11598800       9.04306600       1.67581300
O       41.87056800      28.67070000      38.44561900
H       41.46717300      27.94705700      38.93073500
H       42.81332600      28.49271000      38.49219200
O        6.50132700      33.01920600      42.36915500
H        7.14475700      33.37310500      41.75070700
H        6.63362000      32.06850800      42.33290300
O       41.48166100      26.19703100      37.25598600
H       40.54529400      26.34852300      37.10769400
H       41.50999100      25.58629400      37.99682400
O       22.27241700       4.38838200      21.79093800
H       23.13439600       4.64369400      21.45399100
H       22.37913900       3.46859700      22.04637600
O       11.94155300       4.89032700      27.99042400
H       11.09205500       4.48252200      27.80664700
H       12.35503800       4.30294200      28.62811600
O       35.19586600      12.37292100      36.39753400
H       36.04613000      12.00381400      36.14746200
H       35.40169600      12.98614900      37.10762300
O       43.78389500      17.86708400      22.28783900
H       43.67916100      18.74662100      22.65820400
H       44.27006400      18.00844000      21.47156800
O       34.95742100      40.15135200      29.49180100
H       35.06412500      40.53544500      28.61841000
H       34.12180500      40.50475900      29.80722300
O       33.36960400      21.83504200      40.78912200
H       33.47847700      21.65863300      39.85170400
H       33.79716500      21.09221500      41.22276000
O       33.94240100       8.78333700       4.11304000
H       33.66239300       9.39668800       3.42957700
H       33.75209000       7.91575600       3.74735200
O       20.76254700      28.49797000      35.62068200
H       21.22300200      28.47125700      36.46269900
H       20.66927400      29.43467200      35.42954700
O       44.27939900      16.96861400       2.15660700
H       44.18528800      16.80634100       1.21504600
H       44.98775600      17.61448500       2.21761000
O       35.11716100      11.57163700      39.70296300
H       34.42258900      12.10022000      40.10283100
H       35.60094100      12.19157000      39.15134400
O        8.80251000       6.68320000      33.12062800
H        8.90001900       7.61927600      33.31031200
H        9.22451800       6.24417400      33.86346600
O       26.00849100       5.38602600      27.98349900
H       25.21917200       5.09774400      27.51917700
H       26.44503400       5.97871600      27.36641700
O        1.95582500       3.22155100       6.77262000
H        1.46101900       4.04196500       6.71087200
H        2.11877000       2.97208100       5.85946300
O       29.31962500      15.46909500      32.13136100
H       29.65425800      15.54546900      33.02797200
H       29.62447600      16.26822400      31.69421000
O       17.56231500      34.86613400      27.62111700
H       18.30145300      35.18870300      28.14202900
H       16.78792000      35.08202300      28.14680300
O       10.54825800      27.87778300      21.38162900
H        9.71450900      28.17364900      21.75452500
H       11.19996000      28.09401800      22.05331900
O       23.98946900       7.37714700      40.94536500
H       23.29398200       6.72428200      40.83677900
H       23.65159500       8.16097600      40.50480200
O        3.34715800      28.95471400      31.72573300
H        3.58607800      28.03932100      31.56234000
H        3.37912000      29.36780400      30.85914300
O        4.43693300      28.38195400      19.64425200
H        4.80754100      29.13614300      20.10855100
H        3.52985300      28.63809300      19.45920900
O       30.49450100      23.84015600      42.00435800
H       29.63361900      23.44565000      42.16238100
H       30.30160500      24.64817100      41.52212900
O       41.41923500       3.40171800      39.76924900
H       41.82045400       4.23916400      40.01303800
H       41.75078600       3.22699300      38.88483600
O       39.44963600      42.30476100      20.68636000
H       40.40324200      42.35961800      20.78306200
H       39.15729400      43.21973000      20.68303000
O       30.76050900      19.36947300      38.16015500
H       31.53818500      18.80905000      38.21373400
H       30.93593800      20.08075800      38.78139600
O       43.13650400      40.99164600      41.86629100
H       42.59535100      40.92510000      42.65651300
H       42.54598900      40.74158700      41.15116500
O        1.77949300      34.49132500      22.17550000
H        1.20196100      35.07276100      21.67538600
H        1.66831100      34.77162400      23.08748300
O       40.10997400      27.82030300      32.30672400
H       39.16379400      27.70884100      32.18821100
H       40.34891200      27.15463500      32.95667500
O       42.57479700      12.86297400      19.73858100
H       42.01276800      12.09632200      19.87309600
H       42.37640200      13.43749900      20.48235700
O       14.87862300      28.27521700      16.64508000
H       14.01499400      28.40795500      16.24727200
H       15.32369100      27.66570400      16.05090000
O        7.80938400       4.60678500      28.26150700
H        7.75248200       5.10017000      29.08312600
H        7.29039400       3.81473300      28.42258600
O        8.52466900      14.43308800      12.89795600
H        9.33960900      14.40961000      12.39095800
H        8.13987100      13.56215600      12.77126800
O       35.06121100       6.68315400      34.57884300
H       34.32648600       6.12982800      34.30364400
H       35.67153200       6.07515100      35.00367700
O       42.63247800      15.50223100      23.14644200
H       42.05039100      14.75663900      22.98214800
H       42.22283500      15.96735800      23.88026100
O       18.03922400      35.98972900      22.96855100
H       18.93117700      35.64858300      22.86973400
H       17.87433900      35.95570000      23.91422400
O       29.24130200      22.64382700       2.48654400
H       29.07070900      21.71593300       2.30867900
H       29.26313800      22.70278100       3.44502700
O        7.07451300      42.13858300      22.57349900
H        7.95738400      42.47448300      22.74506500
H        6.98085100      41.39586900      23.17536800
O       25.93916800       8.09582500      26.91222400
H       26.87207200       8.18439300      26.70348900
H       25.64785700       8.99408300      27.08804500
O       32.84273400      33.90518000      41.47677900
H       33.07563500      33.17866200      42.05957800
H       32.24578400      33.51346300      40.83424500
O       13.20820900      41.73185500      36.83047300
H       14.09298000      42.09339400      36.73994500
H       12.92237400      42.01648900      37.70220900
O       33.49743000      23.12731800       3.19511400
H       33.60720100      22.96538900       4.13503600
H       33.14755000      22.30191900       2.85023600
O       42.56611600      24.04463400      42.24293100
H       43.25068000      24.56106500      41.81119400
H       42.92199400      23.15288300      42.27072900
O       42.25253600      40.29898500      29.00103300
H       41.91173700      39.87558300      28.20963400
H       42.44809000      39.57052400      29.59579800
O       14.65553100      31.20724600      20.82989800
H       15.36073800      31.33162900      20.19041500
H       14.54418100      32.07186200      21.23323600
O       11.27655000      39.52873400      29.72030100
H       10.79965100      38.72115200      29.92549200
H       11.73775500      39.33168400      28.90109200
O       37.22372600       0.53765700      21.76569000
H       36.51242400       1.07582600      22.12086400
H       36.80327600       0.00551500      21.08547700
O        9.72865600      21.19164400      15.60368700
H        9.55468900      20.37594500      16.07918200
H        8.97872500      21.28675700      15.01106600
O       28.04270100      40.64604800       5.33308800
H       28.78970700      41.15685200       5.01248500
H       28.15031600      40.63960500       6.28756100
O       24.91287300       1.21383300      44.27557100
H       25.32709000       2.03730600      44.00716500
H       24.27265900       1.03212700      43.58293000
O       34.60533100      42.58083700      34.11263800
H       34.04295500      42.45757600      34.88092500
H       35.15136600      43.33886000      34.33599500
O       16.23754200      34.20874000      30.84740500
H       16.42718500      35.14965300      30.86843300
H       15.46225000      34.10924000      31.40567400
O        7.91736600      26.51187200      21.38818500
H        7.30571000      26.07637100      20.78990400
H        7.68306800      27.44179000      21.33342600
O       37.77461600      30.86877900      35.76384900
H       37.92899400      30.18116300      36.41582700
H       38.64760700      31.22641800      35.58322700
O       37.33213500       6.40536600       5.79972400
H       37.20982200       7.06808900       6.48350900
H       38.03714000       6.75703000       5.25023200
O       37.62615000      16.78692000      29.38164700
H       37.03098700      16.03363200      29.38954900
H       38.38675100      16.49519800      29.89059400
O        5.97176700      37.90570700      15.98200800
H        6.64445200      38.47993000      16.35548800
H        6.42642400      37.42921900      15.28280300
O       10.56648900      30.83162600       6.66414100
H       10.06460100      31.17913100       7.40513700
H       11.19097600      30.22133900       7.06440100
O       17.30917100      42.20206500      40.73493300
H       16.42809100      41.98449200      40.42174900
H       17.42486000      41.65822400      41.51819200
O        5.74613700      25.14241300       4.61039600
H        5.75100900      24.45484800       5.28043800
H        4.96430200      24.95693100       4.08411400
O       12.30064900      16.72539100      30.77803200
H       11.97577600      17.00942800      29.92041600
H       11.51823500      16.70595000      31.33489200
O       41.13810100       7.20846300       7.84940300
H       40.26511700       7.41452000       7.50711000
H       40.98447200       6.97200000       8.76762200
O       15.55187700      32.22427300       1.01037400
H       15.08265400      32.89769200       0.51231600
H       15.10648800      32.20325000       1.86115600
O       44.21815100      25.49860600      16.68723400
H       45.00256200      24.95267200      16.77877600
H       44.35545300      26.21916800      17.30737900
O       10.90577500       9.66620000      44.24302500
H       11.80993300       9.41404000      44.04143500
H       10.98791800      10.28463300      44.97339200
O       17.37053200      25.27695700      27.87776100
H       17.71827100      26.16641100      27.97611900
H       16.41908300      25.38289400      27.95626300
O       39.12864900      31.61391900      26.22989800
H       39.32989000      31.32458400      25.33686300
H       38.17929700      31.49266800      26.31157700
O       26.34792900      37.27323900      17.38341400
H       26.24694600      38.09076600      16.89028300
H       25.75568200      36.65628700      16.94608700
O        6.02661700      14.83191900      39.74152900
H        6.90904900      14.60474400      40.04390400
H        5.73189900      15.51037000      40.35429900
O       12.99205300      37.18988900      21.47759300
H       12.90545200      36.77972600      20.61388500
H       13.92269100      37.41926100      21.54038600
O        6.62281600      16.65999400      15.64712700
H        6.84640900      15.98597900      16.29321900
H        5.96670700      17.20518200      16.08863800
O       23.60493200      37.19060900      16.29512500
H       24.11294400      38.00215300      16.36616200
H       23.44212700      36.93077600      17.20541300
O       16.04620700      40.72276400      23.30165600
H       15.33175000      40.15275300      23.59553400
H       15.68543300      41.18399100      22.54024100
O       14.23290600      12.71514800       3.02754700
H       14.80921800      13.05570700       3.71574000
H       14.11981000      11.78730000       3.24878800
O       23.88206100      12.62748000       4.98028300
H       23.13909900      12.19450700       4.55335600
H       24.29351800      11.93463600       5.50307700
O        7.98870800      18.55486500       5.95307300
H        7.04233800      18.40635900       5.88939000
H        8.28047600      18.62813800       5.04085300
O       14.69171500      30.74757700      36.11281400
H       13.87381900      31.17171000      36.38278200
H       14.52037100      29.80864200      36.22090700
O       10.55261700      15.88634600      22.48859900
H       11.03451600      16.71346400      22.56189700
H       11.16382500      15.22403900      22.82088800
O        8.90245100      17.21828000      38.90585200
H        9.47240100      16.47656100      39.12203400
H        8.36029700      16.89878700      38.18015500
O       37.25969000      19.10324800      28.57041200
H       38.17715500      18.82052200      28.56344100
H       37.12548200      19.49871000      27.70540300
O       19.68862200      33.40951800       6.70564000
H       20.01808700      34.25482900       6.39159300
H       19.33467100      33.60072500       7.57787900
O        3.53833000      15.27227100      10.67053700
H        3.36963000      16.17144500      10.37941500
H        2.67972000      14.94853800      10.95448800
O        3.01735800      36.38281900      38.27266000
H        2.90866800      37.31362200      38.48127000
H        3.77577200      36.35743600      37.68375800
O        2.52640600      21.54690600      39.57011300
H        3.38917300      21.26083400      39.87917900
H        2.71927700      22.13618300      38.83649500
O       11.18021800      13.13139900      40.14740000
H       10.65423800      12.92203700      40.92279600
H       11.37215300      12.27740800      39.75179800
O       40.45709400      24.74847100      32.31506800
H       40.07991500      25.01091400      31.47210600
H       39.83945200      24.09915500      32.66082800
O       27.36977300      13.32917500      18.84438600
H       26.92157100      13.53799100      19.66732900
H       28.10025600      12.76368900      19.10756100
O       27.99106400      40.69082300      31.72619000
H       27.34107600      41.29456200      32.09325700
H       28.82310100      40.97014600      32.11649000
O       42.30312500      10.43248700      39.72372200
H       42.93876800       9.84956400      40.14548500
H       42.35916500      10.21121300      38.79069500
O        7.63640500      14.03027000       4.14030500
H        8.18258000      13.70888700       3.41910400
H        6.98864600      14.59742400       3.71441100
O       21.55425500      25.02761100       7.49203400
H       22.02987800      25.48402300       6.79404000
H       20.87270000      25.64848500       7.76155000
O       19.22645600      23.01076300      35.61303500
H       19.29074100      23.78247800      36.18052900
H       18.35721500      23.08245800      35.21064000
O       44.46067100      34.83703500      36.63292800
H       44.29616400      35.25328300      37.48228100
H       43.95091600      34.02348500      36.66338700
O       44.21656600       1.06746000      41.50169500
H       43.87441200       0.57139600      40.75431600
H       44.84698700       0.47191300      41.91465400
O       29.60542600      41.68434900      23.58984900
H       29.02087900      41.20630100      22.99697500
H       29.60096200      41.16585900      24.39842200
O       11.62850500      37.17006300      25.17563100
H       11.02675300      37.73132400      24.68105400
H       11.36721900      37.28972800      26.09217500
O       17.88548300      33.58303100      34.51592600
H       17.45049200      33.78594700      33.68446200
H       17.78292700      32.63292700      34.61301700
O       29.61521400       4.73144600       2.86549200
H       29.88957600       3.84506700       3.11203400
H       28.94597200       4.59470900       2.19017000
O       33.71492000      11.04908300      35.19718500
H       33.99948100      10.57439500      35.98167300
H       34.49499100      11.07356400      34.63724500
O       37.22332700      15.67022300       6.18657600
H       36.50116700      15.92988700       5.60970100
H       37.37109000      14.74357800       5.98130500
O       20.96898200      44.94292700      28.39997800
H       20.09127000      44.99636900      28.01463200
H       20.90919400      44.22031500      29.02997700
O       36.77764800      19.48636600      31.53514200
H       36.57392100      20.41822900      31.42627300
H       37.60427900      19.47858600      32.02428700
O       41.16648300       5.69320900      24.80785600
H       40.56970100       5.13871700      25.31590600
H       40.70697900       6.53353100      24.73467100
O       33.61117100       8.82577200      13.14009400
H       34.52610700       8.95497500      13.40071300
H       33.64999500       8.14619500      12.46237000
O       34.56719500      36.34442400      13.02349000
H       35.35491900      36.14337000      13.53417000
H       34.89707100      36.80469900      12.24762200
O        8.50257700       0.57379000       6.60635700
H        8.05914400       1.09133800       5.93016400
H        9.43651800       0.66195000       6.39990100
O        1.06670800      26.97202100      40.72258800
H        0.62550400      26.15305100      40.48520200
H        0.65491100      27.63550400      40.16325300
O       28.29229300      41.81125500      34.07871600
H       28.22544200      40.86565500      34.23068600
H       27.39277900      42.13299700      34.17871200
O       20.28473000      20.66234700      33.86479000
H       20.48267000      21.31446100      33.18855700
H       19.81416300      21.15575700      34.54136700
O       39.81613300      27.92728100      35.15436000
H       40.56231800      28.43502300      34.82705400
H       39.45162500      28.46717300      35.86025900
O       24.54150700      28.77827000       0.42524300
H       25.25744800      28.49172900       0.99712300
H       23.85177900      28.12355600       0.56039800
O       13.81926300      42.67779000      23.53271600
H       14.04968900      41.88743400      24.02664500
H       13.84993200      42.40172000      22.61321200
O       18.72686300      31.04335800       8.54257700
H       18.06055300      31.31543300       7.90717900
H       19.51736700      31.52074600       8.27829300
O       14.37970000      12.80969400      17.49097700
H       14.43732600      12.00948300      18.01829700
H       13.47597800      12.81624300      17.16557600
O        1.25215800       9.91083900      15.37118800
H        0.46668900       9.36510300      15.45446200
H        1.06311400      10.48893400      14.62774300
O       35.46570800       3.51886700      42.57120100
H       35.48024900       3.47933700      43.53034100
H       35.44355400       2.59916700      42.29497100
O        2.44578700      21.14653900       4.64410800
H        3.05048900      20.49468000       5.00623900
H        1.90528400      20.65143400       4.02332600
O        9.83410600      26.47051200      33.58119100
H       10.35639800      26.31096100      32.79158400
H       10.48370900      26.66536000      34.26140700
O       16.01962000       7.87334400      26.41852900
H       15.61470300       8.15463400      27.24232700
H       16.51631300       8.64048900      26.12285000
O       27.26858100      15.55370900      14.08964300
H       27.51729000      16.38906000      13.68708100
H       26.71775300      15.80331500      14.83591900
O        0.51760500      42.63861300      27.29331900
H        0.89335100      42.50136600      28.16607500
H        0.86148200      41.91124500      26.76860300
O       42.99789100      40.69173700       5.09678600
H       42.39766200      39.96582200       4.91104900
H       42.99113400      40.76766900       6.05429800
O       27.43871300      31.98497700      43.32145300
H       26.93410900      32.74570500      43.02414200
H       28.10474900      31.85982200      42.64073700
O        1.61381500      27.88240500       9.56493400
H        1.32822700      27.07620000      10.00105200
H        2.41563300      27.63068200       9.09978400
O        3.88600400      32.73112000      37.20802300
H        3.93245300      32.21221600      36.40160700
H        4.58725100      33.38081000      37.11421800
O       25.31731000      10.63492300      39.45966600
H       25.24621800      10.25670000      38.58011000
H       26.01744500      11.28799200      39.38250100
O       28.65058100       7.31875700      39.21884200
H       27.80429700       6.94025800      38.96931100
H       28.96408200       6.75393200      39.92970900
O       34.76652500      29.18821700      15.97760000
H       35.48860800      28.71871100      16.40172900
H       34.87722300      29.00087100      15.04203100
O        2.70922800      44.75737400      22.71307300
H        3.10738400      44.00399700      23.15536200
H        1.95253300      44.98252300      23.26021400
O       39.57543600      39.29909100      25.31427600
H       39.69810100      39.34938500      24.36340800
H       39.39977400      40.20519600      25.58027800
O        2.41942500      38.86989000      18.93388300
H        2.61208700      39.77727400      18.68637200
H        1.78187000      38.94780400      19.64809200
O       39.27292800      40.18467500      33.78031700
H       38.33681100      40.00800100      33.66116800
H       39.44047500      40.95893100      33.23708800
O       33.78451000      19.47296400       0.57439300
H       34.21080900      20.30179000       0.34408500
H       33.19850900      19.70003500       1.30081100
O       12.92206300      29.09424800       2.45249600
H       13.81831300      29.33517000       2.69829500
H       13.03281000      28.40137200       1.79652300
O        8.58867700       6.76118200      41.51451600
H        8.58267600       6.33722000      40.65315400
H        8.06785100       7.55880500      41.39130700
O       44.95937800      16.53143500      24.73757200
H       44.39121600      16.53683400      23.96369300
H       44.51508600      15.94538400      25.35546500
O       33.97105400      32.83674400      23.89200500
H       34.09536400      32.80261800      24.84337700
H       33.02665600      32.71051400      23.77026600
O        8.64640600      15.44553200       2.15178300
H        9.50836800      15.20846800       2.50184900
H        8.45562300      14.76182900       1.50464000
O       13.99422600      31.50983100       6.64752500
H       14.27870400      31.75211600       7.53188700
H       13.98075500      32.34052300       6.16543600
O        4.04718300       1.04434100      18.15081100
H        3.99922000       1.92408200      18.53222900
H        4.31087800       1.19369700      17.23932900
O        9.60426400      11.96876900      24.25249100
H        9.80399300      11.07952400      24.55428200
H       10.45951700      12.33973000      24.02103500
O       29.36698200      37.18373800      37.56751900
H       29.79034200      38.04023900      37.66184000
H       28.74399600      37.14401900      38.29755500
O       42.74492900       3.22993600      17.62375700
H       42.37300900       4.07789300      17.87746800
H       42.16559800       2.58304600      18.03430700
O       42.36744500      32.81668400      31.75517200
H       41.52783600      32.70169500      31.30399600
H       42.50705400      31.98484600      32.21473500
O       42.33985500      16.49600700      19.94815700
H       42.59129600      16.18075800      19.07688200
H       41.61483900      15.92252900      20.20915100
O       31.43776200      37.92185000      43.13276200
H       31.77422000      38.54205600      43.78381100
H       32.17517500      37.78193600      42.53335600
O       16.28700800      31.02307400      34.50890900
H       16.60357500      30.25235500      34.98588200
H       15.53530900      30.69993600      34.00574700
O        3.77723200      26.14824100      38.28880200
H        4.14528000      26.89596800      37.81217700
H        2.83109100      26.20972800      38.13492700
O       26.98956000      19.11722000      37.45262100
H       26.05359400      18.98601200      37.28387300
H       27.21011900      18.44840400      38.10582900
O        3.51593300      28.54893800      41.17536700
H        4.02184700      29.25325000      41.58733900
H        4.13285400      28.13818500      40.56435700
O        1.35054400      17.06961400      23.11813600
H        1.00056800      17.92241200      23.38641900
H        2.11858600      17.28476300      22.58291200
O       29.26473100      36.83762400       6.28261700
H       28.31277700      36.93111700       6.36488400
H       29.43888600      35.93052600       6.54621700
O       37.64390700      23.11952300      30.62018700
H       38.17311300      23.30811700      31.39871000
H       37.73300200      23.90546100      30.07520400
O       39.35785300      34.81814400      21.53645700
H       39.37613500      33.86444100      21.64527700
H       38.45303400      35.01137200      21.27837400
O       26.98092300      17.75318200       9.22007000
H       26.27302600      17.65276900       8.57934900
H       26.92950700      16.95942500       9.75854000
O       28.55008000      11.09007700       9.04962300
H       29.16597900      11.46878300       9.68126800
H       28.01096400      10.49092200       9.57212500
O       31.64296100      21.58907200       0.76879000
H       31.96869700      22.46221000       0.99955100
H       32.25195800      21.27797800       0.09426500
O       16.08038900      23.00275200      38.54161200
H       16.57202300      22.37979700      39.08193500
H       15.62887000      22.45361900      37.89568200
O       25.81359400      40.19888700      22.04646700
H       25.82656600      41.15738800      22.09968700
H       25.11385700      39.93604200      22.64972600
O        5.92743200      31.15351300      17.49902500
H        5.19787700      30.55323200      17.66972000
H        6.04937300      31.11593000      16.54699600
O       42.43464500      24.41162100      18.32624300
H       42.47483000      25.32276400      18.02636400
H       43.22933300      24.00763200      17.96860100
O        5.89475400      26.96354400       2.71163600
H        6.61346400      26.41958900       3.04223200
H        5.50765700      26.44256500       2.00355600
O        9.02958400      41.07900200      21.22249200
H        9.68010700      40.65976600      20.65434900
H        9.27101200      40.79844700      22.10885700
O       21.69759000      16.50682400       8.46294900
H       22.53082600      16.49766700       7.98612800
H       21.14786900      15.87353200       7.99455800
O       37.13426400      23.56923000      43.76383400
H       37.82631100      23.20209500      44.31881900
H       36.56099100      24.03748800      44.37598900
O       11.61372500      16.60255700      33.53030000
H       10.66898600      16.66955800      33.37312500
H       11.69161500      15.96984700      34.24880800
O       19.13454500      28.14474500       1.00317000
H       18.49596700      27.80447200       1.63416700
H       19.47954700      28.93939800       1.41807000
O       37.46148200      36.00297400      17.06479200
H       37.03837500      35.60050500      16.30273900
H       36.73693700      36.19783000      17.66454700
O        7.19815800       4.88562700      12.30013500
H        7.21214400       5.76922200      11.92491700
H        6.26661400       4.70425000      12.44836000
O       31.30543200      12.84043400      28.98040200
H       31.07488300      12.02840700      28.52303600
H       30.48319900      13.12761000      29.38550200
O       10.03047000      15.12259800      41.72902100
H       10.14978200      15.85636400      41.12150400
H        9.11524900      15.19358700      42.01181400
O       43.11351800      36.79933900      22.15191700
H       42.41175600      36.20083900      22.41847700
H       42.77631500      37.22409900      21.35912800
O       26.87974000      33.07493300      34.97187400
H       26.39838100      33.87396800      35.19894500
H       26.20153200      32.46604600      34.66867200
O       32.11808400      18.97963000      16.98645300
H       32.50364700      18.41248100      17.65832200
H       31.65069600      18.37551600      16.40401200
O       25.76967600      13.34885500      41.45875500
H       25.05765100      12.79436200      41.13121400
H       26.20057200      12.81244800      42.12900700
O       25.86872800       5.01645900       2.01287600
H       25.14877700       5.64113000       2.12768900
H       26.32747800       5.32323200       1.22669500
O       43.23311700      42.64978400      35.46226000
H       42.95629200      41.73559100      35.55892800
H       42.77404600      42.95605600      34.67607100
O       37.64977700       1.40582200      19.62271800
H       38.58022000       1.20858800      19.49195500
H       37.42565700       1.99151500      18.89513500
O        9.85304100      33.60658200      20.02504900
H       10.68444700      33.47300300      20.48618400
H        9.87443900      32.97033500      19.30576200
O        8.97820100      21.50283800      25.86688700
H        8.80634800      20.69730400      25.37362700
H        9.26020400      21.19674800      26.73258000
O       17.95877200      13.41968700      12.21292400
H       17.06243000      13.08985000      12.11544000
H       18.28768600      13.48586800      11.31288000
O       17.37204200      42.09327700       3.67796600
H       18.09019200      42.37617100       4.24889100
H       17.78781900      41.49834600       3.04881600
O        9.36455800      31.88359900      39.77210900
H        9.95677800      31.22734800      40.14672100
H        9.45485000      32.64452700      40.35131400
O       21.78956300      26.09077700       9.71208400
H       22.53433700      26.64571600       9.46902100
H       22.19147300      25.30390600      10.08884000
O       12.61736300      41.37647100       5.67087700
H       12.79538800      41.38547600       6.61424900
H       13.16165000      42.08527100       5.31874800
O        0.78464200      15.58268100      40.24405900
H        0.56477300      14.89548900      40.87742300
H        1.28059400      15.12631700      39.55965800
O        3.19286700       7.82729600      42.51149200
H        4.00795200       7.37019400      42.73153400
H        2.79241000       7.28472300      41.82746800
O       13.23583100      39.75598000      19.29657600
H       12.87207200      39.07571700      18.72504700
H       12.48080100      40.07601100      19.79672900
O       41.35667300      14.55858600       3.28441000
H       40.70084700      14.76836400       2.61537200
H       42.15074100      15.01205000       2.99035500
O       44.52653000      27.17712900      11.25956100
H       44.53788600      26.66259400      12.07002400
H       44.69963000      28.07740100      11.54624500
O       35.40996700      16.96488700      23.14646600
H       35.77953400      17.49395000      23.85726600
H       36.15021700      16.81113200      22.55398600
O       19.03555500      36.42516500      42.75795300
H       19.39642800      35.53761100      42.81913200
H       18.08377600      36.29578700      42.75357400
O       14.15232400      43.59356100      18.12681000
H       13.22715700      43.68488600      18.36650100
H       14.27218300      44.20965700      17.39969100
O       10.14726100      41.91456500      17.76534400
H        9.41206500      41.34515400      18.00405600
H       10.04212200      42.05650900      16.82118300
O       37.35515100      13.46903300      35.15455200
H       36.81593300      14.13726700      35.58400900
H       38.10485600      13.35281400      35.74368500
O        3.30763300      44.23798500      30.87558100
H        3.01712300      43.69268400      31.61041200
H        2.52973600      44.74728200      30.63447100
O       15.94266300       6.76663600      35.23052600
H       15.83490600       6.06392300      35.87574400
H       15.21232400       7.36538400      35.40587500
O       17.65276200       0.46642300      35.37021400
H       18.49537600       0.02533700      35.50124800
H       17.59668600       1.09372000      36.09547000
O        8.89874800       8.84404200      14.32226900
H        8.63549400       8.41430700      13.50510900
H        9.55790700       9.48806100      14.05136100
O       22.26112400       2.65584000      15.01449000
H       22.33575400       3.61295600      15.02372000
H       23.07160400       2.35753300      14.59404100
O        4.44474600      41.65492800      14.05894300
H        4.53035600      41.43408900      13.12855300
H        3.49702000      41.66726300      14.21484500
O       15.11649600      42.99542700       6.32991400
H       14.72835400      43.58607300       5.68013900
H       14.41413200      42.84887700       6.96854600
O       19.06605100       1.20344500      43.62557200
H       19.28311200       2.12811500      43.48559300
H       19.17926000       0.79857000      42.76191600
O       28.70583300       8.80113700       3.10659700
H       28.26908900       9.48576100       3.61872000
H       28.79097700       9.17870100       2.22748600
O       11.02870900      30.18131100       3.00176300
H       10.80373500      29.24831600       3.02687700
H       11.25802100      30.39580100       3.90953600
O       15.77724200      18.17472600      41.86286400
H       16.60047200      17.73565400      41.63651900
H       15.63297300      17.94994300      42.78552400
O        7.03476400      35.12928900       4.91160900
H        7.04103200      34.18279400       4.75087900
H        6.17803700      35.42023200       4.58909900
O       17.68253300      17.02621100      11.25561200
H       16.89123600      17.54335700      11.42334100
H       17.76889200      16.46454100      12.03002200
O       42.66662500      21.08060800       3.69488300
H       42.16847700      20.30657500       3.96773100
H       43.32684400      20.73733900       3.08749500
O        9.16787500      22.10264300      43.63315100
H        9.83858200      22.05303700      42.94801200
H        9.45621100      21.46941600      44.29536600
O       13.71800200      42.66295300      26.05857600
H       13.12513000      41.93118400      26.24496500
H       13.14004400      43.36550900      25.75032000
O       33.52118300      40.08523000      14.10733900
H       32.65397500      40.45242800      14.29399600
H       33.48752300      39.19711900      14.47171300
O       20.81395400       0.57084500      17.35033200
H       21.42217300      -0.00632400      16.88270900
H       19.95186500       0.17001500      17.21329100
O       44.99521400       1.40034400      19.15233900
H       44.35546800       1.65745900      18.48425000
H       44.47834200       0.92281600      19.80613800
O       40.56245700      16.43165600      11.47718200
H       40.86951500      17.32532300      11.64688600
H       41.15799400      16.09933800      10.80076300
O       31.87102900      40.33325600      19.64062500
H       31.84625500      39.48808100      19.18588200
H       32.52651900      40.21272000      20.33232300
O        9.36221100       8.38669300       1.73550400
H        8.71677700       8.45819100       1.02837700
H       10.14076700       8.83358600       1.39377500
O       17.38168800       9.65144600      18.68232300
H       18.25761300       9.94017000      18.41564100
H       17.48062600       8.71025100      18.84665900
O        7.97484400      16.01174100      18.75087000
H        8.90929700      16.20683700      18.64859000
H        7.73028500      16.44151000      19.57435700
O        9.93709000      36.21482000       1.74962100
H       10.18361300      36.01880800       0.84268600
H        9.35726900      36.97741200       1.67959600
O        5.85174600      38.99336300      18.88120200
H        6.21638400      38.16897000      18.55083800
H        5.04762900      38.73258500      19.33730800
O       15.49671700      30.06907500      43.74127200
H       15.13994000      29.17918400      43.79157100
H       14.73167300      30.62319000      43.56718400
O       38.17783100      12.00604900      12.51033800
H       38.97474100      11.58999800      12.17335000
H       37.69122800      12.26211600      11.72275400
O        8.81241700      36.65745400       5.57337000
H        9.52627700      37.04257600       6.08699500
H        9.22096000      36.42178400       4.73659400
O       13.56142400       9.54372600      31.62958100
H       13.87988500       8.67338900      31.88022400
H       13.27624800       9.43993900      30.71823800
O       37.08093200       7.24016600      23.56556500
H       37.37325300       7.89258100      22.92476200
H       36.52272500       6.64344900      23.06061400
O       20.73474900       2.45962400       6.64017700
H       19.95178000       3.00890500       6.72369400
H       20.67930200       1.85115200       7.38134500
O       18.71942000      27.97461300      39.38977400
H       18.11858200      28.40061300      40.00560100
H       19.23959300      28.69586300      39.02664900
O        0.17638200      20.59718000       0.31692200
H        0.25334300      19.67432900       0.06364700
H        0.81697700      20.70443200       1.02457900
O       17.34030500      24.11869800      32.48908500
H       16.61669200      23.73782200      32.99211800
H       18.10447500      24.02688100      33.06376400
O       14.40855400      34.73990100      21.15871000
H       14.73091700      35.42487400      20.56827000
H       13.94218200      35.21941400      21.84806200
O        8.78636200      36.44427900       9.61543200
H        9.59558500      36.90456000       9.38086200
H        8.40089400      36.98022600      10.31315600
O       34.92426500      35.36778200       6.21695100
H       34.86663500      34.41405900       6.31085000
H       35.86736400      35.54851500       6.19363700
O        3.18329500      41.82855000      19.51410000
H        3.41518100      42.72105000      19.78130200
H        3.78366500      41.63277600      18.79031000
O       36.32596700      20.08716400      33.88786800
H       35.79853400      19.31242700      33.67972700
H       35.69089400      20.80722600      33.91674100
O       11.37676400      12.10244600      35.45862600
H       10.96099500      12.74619000      36.03694700
H       11.50417400      11.32963000      36.01465100
O        7.78421300      22.63313600      34.86468800
H        7.34388400      21.82016700      35.12337100
H        7.11567300      23.12200000      34.37816200
O       40.10093200      13.60208000      20.45630000
H       39.21477400      13.35578900      20.73159900
H       39.96762400      14.33955200      19.85546400
O       39.73153300      32.30805000       8.42078100
H       40.63137600      32.41154300       8.73905100
H       39.20910500      32.87422100       8.99450600
O       39.14265100      34.73577700      41.95417500
H       38.79032800      35.62820700      41.98828500
H       40.07590400      34.85511200      41.76068200
O       34.23438000      20.90030700      30.77833600
H       34.27996500      20.33288300      31.55143100
H       33.43421800      21.41571400      30.90771200
O       20.12932100      15.68515400      36.67085000
H       19.56649200      15.67377000      37.44855100
H       19.54153300      15.93907600      35.95483900
O        3.10446100       8.38720500       4.25100800
H        3.56758300       9.20198700       4.04274500
H        2.56981800       8.60628700       5.01834200
O       35.44522200      39.38691000      32.36792600
H       35.00458600      40.13418900      31.95666000
H       35.84886900      39.75374000      33.15858700
O       12.87119300      18.99514400      37.93997800
H       13.40515800      19.73783400      38.23155800
H       12.08258900      19.03929900      38.48660100
O       14.49336600      18.25044000       3.13570300
H       15.25553300      17.67143800       3.06098100
H       14.73861500      18.88058100       3.81791900
O        9.12917300       3.22953100      25.13338800
H        8.43423300       3.80962000      24.81357500
H        8.82314800       2.94516600      25.99833100
O       10.26337400       8.27256400      19.83539600
H       10.70038500       7.61470000      19.28953600
H       10.55802900       8.07550800      20.72813800
O       18.12315400      18.10055200      13.58166000
H       18.29242800      18.67092100      12.82816900
H       17.17858200      18.18277500      13.73549700
O        2.48910900      40.16288800      12.44318300
H        1.81796800      40.64779400      12.92914700
H        2.65662600      40.70170700      11.66584500
O       21.79304600       0.58344100      41.55664500
H       20.91200500       0.26913200      41.34053700
H       22.08844800      -0.00002700      42.26016800
O       28.69078500      40.34602400      36.58499900
H       28.71285400      41.29453100      36.43812300
H       28.27233900      40.24743500      37.44396700
O       20.24898700      28.21288200      31.20358100
H       20.78341200      28.71536800      31.82295500
H       20.83589000      28.04812000      30.46126100
O        6.71011900      21.50819300       2.30190100
H        7.52220500      21.07665300       2.57760800
H        6.07515300      20.79201800       2.22094400
O        1.57702800       5.67632300      17.66568000
H        0.70325800       6.02290500      17.47040400
H        1.47885500       5.25021700      18.52092200
O       25.45952100      10.23944900      41.97093300
H       26.28802000      10.65282400      41.71709300
H       25.11340900      10.80576400      42.66529400
O       16.48415500      42.28518600      18.58120900
H       15.72094300      41.70279300      18.57419700
H       16.27771600      42.95665400      17.92610900
O       17.16495600      12.13426700       6.08485400
H       17.18173600      12.82573400       6.75067400
H       18.08670700      11.88805000       5.97352600
O       32.68124400      27.27326700       6.68065700
H       32.13047500      26.74888100       6.09465500
H       32.91513500      26.67040200       7.39093300
O       11.32029700      34.52838400      17.97431800
H       11.68717300      33.64912400      17.85588100
H       10.44069100      34.47315600      17.59236800
O       41.23423500      11.31563100      10.75963800
H       42.14837600      11.41873200      11.03430100
H       41.10760400      10.36507000      10.70449300
O       38.62676100      16.27276000       8.15762800
H       39.01428600      16.54361400       7.32205200
H       38.52127300      15.32166600       8.07435900
O       38.23892400      10.16093300      21.22971600
H       37.88104400      10.61861100      20.46540100
H       37.86231200       9.27885300      21.17735900
O       33.70061400       3.40487300      41.21879200
H       32.99697600       3.99778100      40.94478700
H       33.29090300       2.83603300      41.87545000
O        5.47867600      25.91792100      23.26323300
H        5.96713500      26.34965400      22.55843500
H        5.10522400      26.64165500      23.77253100
O       20.87644200      38.56314700      30.47215700
H       21.52910200      38.78952200      29.80543800
H       21.36819300      38.05981300      31.12597400
O       26.79889400       0.92033900      36.42426600
H       27.04614700       1.84801600      36.42687300
H       27.11909200       0.58587700      37.26584200
O       25.17100500      13.16109800      33.94816100
H       24.46762900      13.21930700      33.29731700
H       24.86700500      13.70755100      34.67728100
O       34.68090900       4.63678400      11.03823700
H       34.65545600       5.02157700      11.91744700
H       34.87108100       5.37877500      10.45864600
O       31.21858700      20.96023000      30.13069800
H       30.94542600      21.49421400      29.38105200
H       31.86885400      20.35388100      29.76719400
O       13.16891200      22.49676000      41.95964800
H       12.79175000      23.29797400      41.58879800
H       14.10147900      22.70001200      42.06758600
O       18.08486700      33.56067400      22.08957900
H       18.25744600      32.61750000      22.04096800
H       18.72100700      33.95094000      21.48488000
O       26.25747300      37.55001900      14.07512700
H       25.39565000      37.65146000      13.66440300
H       26.12883400      36.86138600      14.73230100
O       17.39785200      28.39535400      30.98316900
H       17.43208900      28.39420700      31.94262200
H       18.13570100      27.84065400      30.71759400
O       13.22726600      32.37609200      14.19573900
H       12.34116700      32.15446000      14.49142800
H       13.09973400      33.11041300      13.58981000
O       37.16509200      19.56953900      16.07626200
H       38.01678500      19.77754400      15.68500900
H       37.38161100      19.19839500      16.93534000
O        9.65727800       1.37952600      19.62674400
H        9.83995300       1.58509100      18.70690800
H       10.41047100       0.85377800      19.90768900
O        0.88241600      28.51713600       3.34241600
H        1.52968300      28.61803700       2.64056900
H        0.04828400      28.76338300       2.93470500
O       16.72201100      33.07839100      12.61423800
H       17.62022000      33.40267900      12.71315100
H       16.60015600      32.99964300      11.66471600
O        7.28583500      32.76841200      20.93794000
H        7.21232900      31.85317700      20.65746700
H        7.67803900      33.21775800      20.18500800
O        5.97647100       3.76724100      34.52061500
H        6.88905700       3.74847700      34.22302500
H        6.03866100       3.85866400      35.47477200
O       44.14114200       6.98402100      15.90022200
H       43.26249300       6.63749200      15.72812200
H       44.69743800       6.56149000      15.24094600
O       40.73086200      30.58198600      35.28254400
H       41.66801200      30.54492200      35.07735600
H       40.69927300      30.66403200      36.23905500
O       42.86260600      35.76491900       2.50221500
H       42.05448900      36.26366700       2.36106600
H       42.56587500      34.93028900       2.87368100
O       33.47023200      13.70132000      35.23902100
H       34.38675200      13.93069600      35.06842900
H       33.00114600      14.53781600      35.18541500
O       30.19264800      14.62042300       6.64051100
H       31.00920300      14.14136900       6.80010500
H       30.06617300      15.14697600       7.43385100
O       36.38274300      42.64295400      18.08061200
H       35.50313200      42.98813800      18.25048600
H       36.86357900      43.38740100      17.71015700
O       16.23331800      25.90000300       0.00353500
H       17.02976600      25.36392500       0.00750800
H       15.51596300      25.26122400       0.00149200
O        8.49421200       4.88293700      20.40304500
H        8.30121400       5.74445300      20.78022600
H        9.13250200       5.06428500      19.70853700
O       35.18250700      35.09998000       3.23370600
H       35.63304000      35.71054300       3.82188800
H       34.50272900      34.69914100       3.78131100
O       23.92021800       6.09375300       8.88224000
H       23.13600600       5.57572500       9.07816100
H       23.63749800       6.70439300       8.19679800
O       44.13987400       1.25881400      24.34875900
H       44.99093300       1.70008900      24.40073400
H       44.13966700       0.84242200      23.48316100
O        4.76111300      21.24390500      28.41106600
H        4.67749200      22.06176800      27.91525100
H        4.05785300      20.68545800      28.07018000
O        1.76408100      37.89819300      24.26603600
H        2.16998500      37.14988900      24.70989100
H        1.85086700      37.69651300      23.33092400
O        3.60499900      24.21112000      16.93279000
H        2.97338300      24.90158600      17.14736600
H        4.45184500      24.66346500      16.90316700
O       28.30827700      41.54541200      19.83959600
H       28.07378600      41.15087800      20.68285300
H       29.16196300      41.16066200      19.62551600
O       35.76236800       7.92207000      30.86290200
H       35.92606500       8.64841400      31.46899800
H       36.55712300       7.38505700      30.91412900
O        9.96745800      17.92947500      30.36668900
H        9.27519000      17.31303800      30.11669900
H        9.86071500      18.66664600      29.76020100
O       36.73757000       7.11116100      33.21903200
H       36.50018600       8.00059000      33.49159400
H       37.62988900       7.19763300      32.87416900
O        8.84415700      42.75554100       9.27275500
H        8.32768500      42.29163800       9.93591000
H        9.35276800      43.39842700       9.77340900
O       43.72810000       8.63634200       2.32010100
H       43.12705800       8.98724300       2.98141900
H       43.15188600       8.26289300       1.64842100
O       34.89742600       6.61610700      29.31717100
H       34.07075000       6.41829800      29.76349200
H       34.74243700       6.36104000      28.40417500
O       34.04726300      25.44781300       5.83183600
H       33.29748700      24.84875100       5.80565900
H       33.93507700      26.00419700       5.05692100
O       39.72163700      24.26362400       3.78404500
H       39.43692000      24.30768300       4.69986200
H       38.96778700      24.58687100       3.28418000
O       14.41039900      22.53543900      39.89552100
H       14.22605200      23.44259800      39.64095400
H       13.94770300      22.00554100      39.24148600
O        7.51857800      39.38689400      21.42323000
H        6.86597300      38.86957400      20.94551600
H        8.35891900      38.98372800      21.19100900
O       38.15170000      39.34178100      10.88992600
H       37.28212000      38.95563000      10.76169600
H       38.55656600      38.79712400      11.56968700
O       21.91154300      14.50669100      33.93264600
H       22.77516600      14.24783800      34.26260800
H       22.10341000      15.10451900      33.20571300
O       30.47388700      33.73234500       9.27281300
H       29.69943000      34.24393600       9.02742100
H       30.43150100      33.68034800      10.23101000
O       44.50053700      17.80999300      26.52227600
H       44.99615500      18.35259500      27.14007000
H       43.99934300      17.21022300      27.08059800
O        6.92024400       1.10415100      27.94058400
H        7.56984700       0.41076500      27.80290000
H        7.26612800       1.61167800      28.67911200
O       37.41463900      40.31654000      29.09916100
H       38.24581900      40.75131700      29.30369200
H       37.50082200      40.05867000      28.17790200
O       42.56237200      12.79502000      34.38401800
H       42.20598700      13.10394300      35.22024800
H       41.94537800      12.11671100      34.09791200
O        9.48885800      31.83128500      28.51665600
H       10.23706700      31.82176700      29.11816900
H        9.02656000      31.00910000      28.69813400
O        4.45495800       6.93954900      29.77897800
H        4.86690100       6.10765700      29.53406300
H        5.00654800       7.27902500      30.48830600
O       27.96015800      24.68182600      32.08849700
H       28.52572100      25.40866300      32.35973700
H       28.29238800      24.43146800      31.22271000
O        2.07895800      26.98242600      24.58419800
H        1.36516700      27.56683600      24.85007600
H        2.11715700      26.32098400      25.27966700
O       28.60428900       6.02368200      32.51959500
H       27.77911500       5.69094200      32.88028500
H       29.07112700       6.37857100      33.28035700
O       43.25712200       9.21689600       5.41995500
H       42.83920800       8.35760000       5.32676800
H       44.19642200       9.03592200       5.33273600
O       11.25586200      13.33953800      10.81077900
H       10.31149600      13.16703400      10.82268400
H       11.45392200      13.51857000       9.88808700
O       33.12036200      32.48214900       8.87840400
H       33.82942600      31.87290700       8.65982100
H       33.49752800      33.05581800       9.55018700
O       17.06850400      28.12049900       3.56713200
H       16.17607900      27.91265900       3.85366900
H       16.94962200      28.76793700       2.86760900
O       39.76839200      37.57396400      40.85920300
H       40.38170300      36.98631400      41.30668800
H       39.45871000      37.06602300      40.10505800
O       33.05780600      15.46585700      33.12565500
H       32.52588300      14.70928700      32.86800100
H       32.78576100      16.16426400      32.52493700
O       15.65230400      16.90145600      30.62377900
H       15.55403900      17.33303200      31.47572500
H       14.97823600      16.21715000      30.62399500
O       38.67953400      41.63792300       2.72544400
H       37.98860700      42.24343000       2.44668700
H       38.51126200      40.83663900       2.22318000
O       34.09919500      12.37441300      28.41775300
H       34.95388300      12.45806300      28.84698000
H       33.46448100      12.43813600      29.13588800
O       26.72570800       3.24081300      22.37879500
H       27.15891800       3.61595600      23.14907000
H       26.86469100       3.89187000      21.68637100
O       29.02253400      44.05201300      15.55299200
H       29.47702400      43.62379500      16.28223400
H       29.02672600      44.98436300      15.78396500
O       11.19900900      35.94844400      14.92711500
H       11.42395100      36.88171100      14.93896500
H       10.49289500      35.86515900      15.57295400
O       29.31781300      14.91432800      13.02429500
H       29.53301900      15.28998800      13.88120200
H       30.13652700      14.50719100      12.73003200
O       24.43000500       9.07566200      16.48938300
H       23.79454500       9.07798900      15.76972400
H       24.01464100       8.54325700      17.17250800
O        7.23468900      33.31746800      30.01465700
H        7.20666200      34.26609200      29.86956800
H        7.78240400      32.98303200      29.29995200
O        8.15530000       2.18670900      17.42628500
H        7.77584100       2.86062800      17.99511500
H        7.45724400       1.53367900      17.33187500
O       11.61854100      43.55766200      14.13555400
H       11.14677800      42.78438400      14.45368200
H       11.04208500      43.92854100      13.46265800
O       11.01723500      13.10450000       7.66719600
H       10.17418500      13.47926600       7.93279400
H       11.32596600      13.68466200       6.96666800
O       21.05713700       6.73907100       7.53737400
H       21.02928400       5.99910000       8.14843200
H       20.98090500       7.51480700       8.09868000
O        3.17991400       0.82761600      33.16830400
H        2.85986800       0.90572100      34.07007700
H        2.39718100       0.61099100      32.65542500
O       10.20387100       4.76771000      38.49411300
H       10.88343200       5.30407000      38.90913200
H       10.57295100       4.53556000      37.63823500
O        6.57346000       9.53901200      11.60159800
H        7.44318600       9.32117700      11.25830700
H        6.37136000      10.39420400      11.21372700
O       21.21804500       9.12240300       6.21530400
H       20.91329700       9.51836700       7.03510000
H       21.73302500       9.81466300       5.79315000
O       27.25545800      35.39684900       4.52754300
H       26.88023600      34.92326400       3.78145300
H       27.07674000      36.32127700       4.33744900
O       22.40265300      15.48617000      38.74431200
H       21.95657200      15.09777500      37.98808000
H       22.83169200      16.26979500      38.39146600
O       38.70623400      41.41032000      10.38165400
H       38.92147600      41.18188200       9.47434400
H       39.47102100      41.90192100      10.69160600
O       19.48596300      41.25835700      11.73547700
H       19.57943400      40.98182500      10.82086300
H       20.28051300      41.76814100      11.91282500
O        9.24485500      15.85322100      15.55441100
H        9.53980200      16.63253000      15.07753700
H        9.24735100      16.12270900      16.47637200
O       13.42179500      43.32707900       2.16604000
H       13.61883000      42.53135900       2.66577200
H       14.08998300      43.95705700       2.44763400
O       26.14184600      20.33889300       0.70900000
H       26.49389200      19.59729000       1.20681000
H       25.56304400      19.93531500       0.05726800
O       14.91701400       6.97696600       6.51851900
H       15.51446500       7.18555500       7.24050800
H       14.04209100       7.14847000       6.87592200
O       13.56939600      30.79501600      32.07449900
H       13.73159000      30.23301500      32.83579700
H       12.82623600      30.38217200      31.62737900
O       21.81628700      27.86199200       1.36277000
H       21.51447500      28.25030000       0.53823800
H       21.70811800      26.91620800       1.23457600
O       26.16989700      28.95172500      43.52478800
H       26.87999200      28.45717700      43.94061600
H       26.34293000      28.87147600      42.58337400
O        0.78421800      40.05120500      30.25099100
H        0.01613900      39.51427100      30.45951800
H        0.50695000      40.58267700      29.50045700
O       24.39150700      32.28626900      42.70623100
H       25.07751500      31.63824400      42.52965000
H       24.74586400      32.81952200      43.42227200
O        4.15122000      19.43688100      33.12055000
H        3.59953900      19.19252500      33.86731800
H        3.84790900      20.31523200      32.87735600
O       30.41227200      32.15133200       2.00374000
H       30.77273500      32.89634800       2.49030200
H       31.07604900      31.95852100       1.33675700
O       35.27987300      25.94092500      30.77013400
H       35.87808500      25.30158900      30.37628600
H       34.45610700      25.45961300      30.88145100
O       12.79670400       0.24076000      41.03976300
H       11.86302100       0.13357900      41.23590800
H       12.90138400       1.18311100      40.88595300
O       41.93415300      27.20918300       9.09000400
H       41.89096400      27.58997400       8.20974400
H       42.68697200      27.64215900       9.50041600
O       25.71480300      26.95724800      40.94153100
H       26.66545200      26.83762000      40.88086500
H       25.53313300      26.94877600      41.88469900
O       11.25909700      37.79615800      12.68182800
H       12.16462900      37.60519700      12.42634600
H       11.34184800      38.43966600      13.39013000
O       31.33379100       6.08361200      33.91305700
H       31.00560900       6.94884600      34.16877500
H       31.94808800       6.26370200      33.19692200
O       38.68267500       6.82083400      30.82982100
H       38.31070100       6.03289100      30.42670000
H       39.36285200       6.48793100      31.42073300
O       29.51777100      33.66790700      44.30640000
H       28.56507400      33.66352400      44.18776400
H       29.67467700      33.02193400      44.99975500
O       42.96959900      24.04969700       1.98379600
H       42.98001900      24.62841000       2.74976400
H       43.72186500      24.33507000       1.45910500
O       42.45605400      38.43803900      31.74796700
H       43.22554200      39.01074000      31.78829600
H       42.75542700      37.67092000      31.25345000
O       37.45634300      13.15562300      39.84309500
H       38.35034900      13.33098400      39.54023200
H       37.41109100      13.57302700      40.70702000
O       28.15247800      19.83348500      14.33306300
H       27.57542100      19.49514300      15.02172500
H       28.01005500      19.24124800      13.59035700
O       14.90955800      43.34733800      39.46150900
H       15.70436000      43.43469900      38.93011100
H       15.03036300      43.97726400      40.17652100
O       12.33944000      18.42414900      42.39660900
H       13.14535000      18.11173200      42.81449600
H       11.93785100      18.99898300      43.05306400
O       33.90821300      37.42065800      18.81870300
H       33.71577000      38.34378900      18.99903700
H       34.38244200      37.43470600      17.98350800
O       39.18598100      10.61922100      42.70886700
H       39.50208900       9.71341700      42.74520900
H       39.86951300      11.12825100      43.15194000
O       38.44693900       2.14294400      31.90721700
H       39.37621700       2.18282100      32.14507400
H       38.35094500       1.29744300      31.46162200
O        9.62890100       1.36166100      31.34196100
H        9.01579300       0.71015700      30.99358500
H       10.05624900       0.91706000      32.07840200
O        2.24300500      25.30872700      29.34802800
H        1.57422700      25.95314300      29.59131700
H        3.07658400      25.76057100      29.50173300
O       13.75529700      23.29539100      34.57208300
H       13.46691300      22.84878500      33.77264400
H       14.35155200      23.98092000      34.26036000
O       11.39357600      20.34515200       3.45320200
H       11.98509600      19.59358500       3.53671700
H       11.52999700      20.84684700       4.26087400
O       15.14793700      28.23929300       6.04660200
H       14.89956000      27.41976900       5.61253500
H       14.73844600      28.92521600       5.51324400
O       17.72027300      18.11492200      36.95987600
H       18.35838700      17.78567200      36.32259300
H       17.35298000      18.89992100      36.54573400
O       13.11250500      20.56508300      34.30180800
H       12.16844000      20.49644400      34.14132300
H       13.51379200      20.36901900      33.45141400
O       29.66975300       3.79309500      33.16981800
H       30.19184400       4.53275400      32.85036500
H       29.07688800       4.18196700      33.81783900
O       10.99078900      19.72477900      31.59057200
H       10.55004400      20.53967000      31.33873400
H       10.53538400      19.44411200      32.38836500
O       11.73579200      13.87440800       1.86457500
H       12.14305100      13.55233000       1.05702800
H       12.02532500      14.78795600       1.92969800
O       22.63246500       5.63002700      25.61446900
H       22.24199800       4.90614100      26.10969600
H       22.25520200       6.42007400      26.00961300
O        8.64781600       8.26524900      36.37033100
H        8.99677600       7.68800100      35.68714900
H        7.85349000       7.81993900      36.67592400
O       29.40105100      13.87423200       2.85739500
H       30.29582300      14.19327800       2.99638900
H       29.50639900      13.11146200       2.28317800
O       29.87209000      40.56759600      27.22708600
H       30.07948600      39.92705200      27.91149400
H       29.97405000      41.41947200      27.65900600
O       33.49502400      26.32812600      33.29757400
H       33.56595400      26.97969400      33.99911000
H       34.38303600      26.26925000      32.93617500
O       23.83511000      23.27654600      34.70030900
H       23.20889000      22.75922100      34.18850000
H       23.58743700      23.11473600      35.61415600
O       35.77593800      24.20486000      28.23725800
H       34.83065900      24.05051500      28.17129600
H       35.95280800      24.88470500      27.58214700
O       24.59538000      26.67538700      37.34753000
H       24.63485700      25.71632900      37.36687700
H       23.91840000      26.89918600      37.99115600
O       35.09797700      42.65195000      42.25462700
H       35.53393000      43.49598500      42.39346500
H       35.76062500      42.11018300      41.81870700
O       33.66385300      17.89955100      37.10458000
H       33.17452500      17.18898300      37.52574200
H       34.58293300      17.71057100      37.31005800
O       23.00485800      41.34599000      19.21995900
H       23.61282700      42.03331500      18.93767600
H       23.53244100      40.78005500      19.78918200
O       33.12176700      42.66189900      31.88035600
H       32.71132400      43.47755000      32.17696100
H       33.85140200      42.94998800      31.32602900
O       21.38019800       9.51098600      14.69969800
H       21.71193600      10.26072200      15.19926900
H       22.10492200       9.27433700      14.11539000
O       12.36772800      10.70466700      16.08966500
H       11.61058900      10.48156500      16.63619100
H       11.99415100      10.86797700      15.21994600
O       33.54399100      42.94680800      26.33919400
H       32.84460200      42.39175000      25.98635900
H       33.76886000      42.54117400      27.18034600
O        4.30580400      13.99071600      20.06455900
H        4.60798500      14.85158600      19.76570500
H        3.36063100      13.99721400      19.89353800
O       16.86397800      23.89835000      29.51874700
H       15.94914800      23.63142600      29.63520600
H       17.23397400      23.23252900      28.93357400
O        7.87191900      12.06580700       9.13292800
H        8.70160600      12.52554700       9.28119700
H        7.62039700      11.74171100      10.00145600
O        2.73189600      32.39865100      40.00878400
H        3.19419600      31.62160500      40.33158800
H        2.02676400      32.53839300      40.64588900
O       30.99242200      30.68280900      23.09699700
H       31.79809000      30.89579700      23.57371500
H       31.15463700      29.80875700      22.73318200
O       25.78364700      38.80646500      33.90511600
H       24.96255500      38.34710600      34.09622500
H       26.41735700      38.42769100      34.51959400
O       13.82080300       1.40595100      38.38574000
H       12.91249800       1.35307900      38.69219000
H       13.91926800       2.31360100      38.08721300
O       16.51700900       9.98991800      41.99242200
H       15.94428100       9.74290900      42.72228100
H       16.40817100      10.94115400      41.91531200
O       23.76675100      37.82632300       0.78691300
H       24.58011000      37.35572900       0.98367200
H       23.37917000      37.33748600       0.05652900
O       41.15569300      38.57690100       7.82772200
H       40.61576200      39.24751400       7.40289600
H       40.85544600      37.74979400       7.44251100
O       36.20113800       4.89583200      33.22108000
H       36.98966200       4.41795900      33.48865000
H       35.47668100       4.39155000      33.59989900
O       26.87149400      10.38865300       6.94644300
H       26.47000900       9.52122600       6.85641400
H       26.35488800      10.82056200       7.63143600
O       36.85890900      34.80297800      29.76765200
H       37.81674000      34.75822500      29.71987100
H       36.68271200      35.59026500      30.28897300
O       34.91563500      25.77175700      18.81599500
H       35.64911300      26.22650800      18.39535700
H       34.76150000      26.26560300      19.62531600
O       43.58441400       2.39973700      37.99425400
H       44.00939900       2.78017100      38.76651200
H       44.14137800       2.66810700      37.25912700
O       18.29523100       4.56756700      22.96235200
H       18.12952200       5.41917700      23.37347900
H       18.72214400       4.78389700      22.12953200
O       41.84002400      26.52385000      23.13768800
H       42.44913100      27.02926600      22.59430200
H       42.02955600      26.80779900      24.03551400
O        6.17624100      27.54212100      18.59170300
H        6.17777200      26.59736200      18.42096200
H        6.75944800      27.64877900      19.34743800
O        2.95717200      16.47575700      19.88704500
H        3.32046000      16.38007700      20.77055600
H        3.39018900      17.25734800      19.53454600
O       13.09012300      44.32658200      21.02724400
H       13.70137300      44.99695200      21.34141300
H       13.63998100      43.71808900      20.52721000
O        3.96542200      10.06644900      29.41947600
H        4.41220000       9.26943100      29.12472700
H        4.64015600      10.55505300      29.89764200
O       37.02766000      37.21293800      27.55154400
H       37.53367400      37.54058600      26.80433500
H       36.13659000      37.53621900      27.39621700
O       30.61740300      12.47908300      16.91823900
H       30.65528400      11.53192300      16.76599500
H       31.31286400      12.64549400      17.55955300
O        8.66736300      37.61702100      16.29346600
H        8.53668100      36.87650100      15.69657700
H        9.36622700      37.32618900      16.88477700
O        3.37833300      36.18457700       5.02079600
H        2.94948200      37.03655300       5.13010000
H        3.42854600      36.06324700       4.06927100
O       28.64398400      15.74605800      44.05125000
H       28.15378400      16.16938700      43.34257400
H       29.06431000      16.47294800      44.51772500
O       32.34454300      10.23930100      29.45302000
H       33.25009800       9.97728400      29.63479800
H       32.26102100      10.16255700      28.49919800
O       37.63125900      16.48266300      13.85775000
H       37.48967800      17.38940800      14.13969500
H       38.03178000      16.56306600      12.98840500
O       44.22528400      30.06244100      14.59803300
H       43.93652700      29.22480800      14.22828400
H       44.86470700      30.39547300      13.96331300
O       36.94214700      34.84848600      32.39060600
H       37.62632200      34.40525100      31.88348500
H       37.42433300      35.42611700      32.98766700
O       31.13493500      15.45064800      19.09799300
H       30.80313100      14.54974800      19.09487100
H       30.42169200      15.96874900      18.71654900
O       24.14954600      13.72634500      17.88657600
H       24.46295300      14.36507100      17.24196000
H       24.95110300      13.36459200      18.27294800
O       13.05720400       3.85067700      39.40369800
H       12.77192500       4.64054600      39.86893800
H       12.24173800       3.38411400      39.20375600
O       18.66412100      22.77972900       0.77848600
H       17.98039100      22.13961100       0.98940800
H       18.18613800      23.60028100       0.63402600
O       12.45147600      29.16338900      29.69548900
H       13.18733300      29.62056800      29.28169400
H       12.01330100      28.71133800      28.97002800
O       29.99082400      35.11106100      39.41415000
H       30.87304700      34.77062300      39.58001400
H       29.61555900      35.23735500      40.28928900
O       34.96775600      27.94177800      24.91458500
H       34.01206400      27.97959100      24.99794200
H       35.12500400      27.22265200      24.29751700
O       40.57503000      42.97654100      34.61468100
H       40.79117900      43.90765000      34.70434900
H       39.71070100      42.97169300      34.19568900
O       26.81333800      36.95006400      40.85405200
H       26.73633100      37.89410600      40.69727300
H       27.04253900      36.88076500      41.78427000
O       10.45149800      15.42074200      24.89434600
H        9.66195700      15.13911100      24.42633500
H       10.54329200      14.78677400      25.61009700
O       14.51502200      40.62999400      29.35139300
H       13.57100500      40.49974400      29.23480700
H       14.74624800      40.05483000      30.08512500
O        1.80289900      37.26259400      34.49145800
H        2.42679400      36.65074000      34.09382100
H        0.95691100      37.02698200      34.10231200
O        5.57262500      29.92188200       0.00682200
H        4.72606000      30.37377700       0.03585400
H        6.18653200      30.53934400       0.41240900
O       26.06007300      19.68208900       3.82219900
H       25.93910600      18.93579100       3.23048000
H       26.58320900      20.30705300       3.31387900
O       28.69072600      36.95257100      16.46310300
H       28.27349000      36.27925900      17.00558800
H       28.06468400      37.10685300      15.75112600
O       37.47160100      28.28632400      12.58509000
H       38.13615300      28.12844200      13.25975300
H       36.72036600      27.75541000      12.86153100
O       23.06958300      25.54651400      33.69906400
H       23.89830100      25.52798900      34.18342800
H       22.46225300      25.04218900      34.24628500
O       30.17479400       5.10787200       8.37980000
H       29.86644000       4.23813100       8.64473800
H       31.06777600       4.95696800       8.05971600
O        9.67536100      26.27615700      23.09595300
H        9.25777500      25.47641900      23.42422800
H       10.14822900      26.62699500      23.85486800
O       39.24210000      25.32501800      17.35841500
H       38.36172400      25.68191800      17.49728700
H       39.09237600      24.40584200      17.12317000
O        8.74403400       1.82544300      13.73338600
H        8.77443900       2.78483200      13.71410300
H        8.00402600       1.62190500      14.31097000
O       30.65560500      19.05531600       0.38742500
H       30.18973200      18.23269900       0.22013000
H       31.52747800      18.91680000       0.00888300
O       14.80277600       7.00643400      12.92214200
H       15.19754500       6.68621500      13.73660000
H       15.47549500       7.57462500      12.53841100
O        0.93892000      36.58222600      20.08357200
H        1.69651200      36.12286100      19.71375900
H        1.30530700      37.10988500      20.79769900
O       15.12367800      34.82634200      38.72650100
H       14.58735400      35.61961400      38.65721300
H       15.43813800      34.82965600      39.63410500
O        8.58621800      23.97564800       8.14984300
H        8.41952000      23.15413800       7.68180600
H        7.74567500      24.43980300       8.12360100
O        5.36318900      31.32855400      38.03913200
H        5.79311000      30.55773100      38.41692100
H        6.06259500      31.78135600      37.56117400
O       15.75816500      41.95823500       8.46143700
H       16.67735600      42.09530000       8.70232200
H       15.79316600      41.33206800       7.73388500
O        2.61614700      31.55135400      13.15881200
H        1.71150700      31.36288400      12.89836900
H        2.79338200      30.93138600      13.87075900
O       31.45212300      10.54962800      24.45324400
H       32.01641000      10.86762100      23.74459300
H       31.20503000      11.34278200      24.93542100
O       35.63090600       1.16518800       3.43730500
H       36.47830500       0.72272500       3.52599000
H       35.23662500       0.77067700       2.65529200
O        0.00603700      26.95553300      22.06809400
H        0.15554900      27.68826800      21.46604000
H        0.45095100      27.21779100      22.87797900
O       40.36525600       2.30139000      22.46176400
H       40.55546600       2.26683700      21.52136400
H       39.40726600       2.35254300      22.50953300
O        1.76751600       8.79777400      29.49724600
H        1.60663300       7.92831000      29.87124300
H        1.38646200       9.40610400      30.13550500
O       33.54124800      10.00256800      25.73809000
H       33.82293500      10.49766700      24.96526700
H       33.06575200      10.64408000      26.27195100
O       26.11547500      30.91636900      29.75790900
H       26.80346900      31.13075400      29.12353700
H       26.59264300      30.69771100      30.56236000
O       39.32063000      25.90622300      11.91689500
H       38.73167400      26.10353100      12.64896400
H       39.01296000      26.47195600      11.20420500
O       33.57091100      36.63454200      44.60428400
H       32.63962200      36.75276600      44.80540300
H       33.77226600      37.33972800      43.98395300
O        6.48771700      20.77325000      25.87948400
H        5.58348000      20.99732800      26.11158500
H        6.73837300      21.43547600      25.23043100
O       24.70198000      43.65451100      42.32730400
H       23.96930400      43.97209400      42.86026800
H       24.97845700      44.42216900      41.82044700
O       21.71897300      41.35829400      13.74802000
H       21.34497600      42.23981000      13.81715600
H       22.22893700      41.25168800      14.55499800
O       44.94597800      43.13900600      37.39092900
H       44.00856400      43.34629200      37.39449700
H       44.99429200      42.25979200      37.00714400
O       17.16112400      30.09417000      38.25918000
H       17.86719500      30.57961900      37.82613600
H       17.28962100      30.27023200      39.19466500
O       31.28848900      19.86386900       9.52530500
H       30.64363100      20.13386500       8.86728900
H       31.03463700      18.96603800       9.75356200
O       40.52458100      14.32205200       8.52821600
H       40.87049900      15.21722400       8.50114100
H       41.29569000      13.76440900       8.39757800
O        2.20150800      27.50970400      42.99034500
H        3.00549300      27.97190200      43.23875200
H        2.49752300      26.82439400      42.38588800
O        1.36178800      36.75087500      13.63527900
H        1.03723100      36.17125800      12.94214800
H        1.94366400      37.36459700      13.17985800
O       12.63234600       1.06519900      35.90810300
H       13.52928500       1.26987700      35.63363600
H       12.43195400       1.72356100      36.57821100
O       38.37577900       3.90826300      21.22125200
H       37.75731100       4.32133800      21.82837100
H       39.22796200       4.28358500      21.45696100
O        1.97767700      28.30637000       5.23044700
H        2.84806900      28.65830300       5.02973700
H        1.60873900      28.92872100       5.86227500
O       41.66040700       5.65985100      28.57162900
H       41.45782300       6.51665600      28.95447300
H       42.61317300       5.57767800      28.66177700
O       37.74686200      25.55605400      15.09175800
H       37.35898500      25.35469400      14.23693000
H       38.54449500      26.04828000      14.88167000
O       37.16507100       3.83643800      36.00880100
H       38.09148200       3.66744800      35.82190400
H       37.12096800       3.88965700      36.96685400
O       12.73535500      25.77025500      32.09936100
H       12.52336900      25.23922600      31.32813100
H       12.93429500      25.12699700      32.78440300
O       38.24086900      30.59198000       7.74706200
H       37.81054400      31.39227500       7.43710700
H       38.23648400      30.67423900       8.70406500
O        3.17427500      23.47191600      31.04837300
H        2.62394500      24.23377400      31.24441700
H        3.80604800      23.79447500      30.40071600
O       31.81506600      13.43720800       0.60420900
H       32.46743600      13.83711300       0.02437000
H       31.77305700      14.02883300       1.35975900
O        8.31349900      12.67839900      35.46410400
H        8.95929500      11.97336600      35.55129200
H        8.81643900      13.48253700      35.61594400
O       25.19979800      21.36130100      18.94506900
H       24.98823200      20.97018600      19.79594700
H       25.41233800      20.61113700      18.38406800
O       41.78282600      29.04825500      20.35751900
H       42.23584400      28.61547500      21.08498100
H       41.74389400      28.37942300      19.66919500
O       12.09824900      10.27218600      25.29884000
H       12.25308400      10.80506900      24.51539400
H       12.05608300      10.90955500      26.01621400
O       27.06611300       4.36187800      10.27090400
H       26.76693000       5.27067000      10.35035000
H       26.79513800       3.94877600      11.09465200
O       16.35492400      34.46536400       6.08794500
H       15.68020400      34.47490300       5.40502000
H       16.69452200      35.36378800       6.10016600
O        7.70952500      27.16741600      11.17001600
H        7.62306800      27.80035900      10.45333400
H        8.20925500      27.63622600      11.84316500
O       22.56988200       2.29642400      35.20244700
H       21.68800600       2.56672900      34.93607200
H       22.42284400       1.68714600      35.93032200
O       41.49877900      21.78855200       8.11401000
H       40.87531700      21.29117700       7.57955800
H       42.23300400      21.96601300       7.52066100
O        5.37360000      37.01920200      21.30507800
H        5.62080700      36.15771200      20.96091700
H        5.94270900      37.14308200      22.06889200
O        4.31540100      32.32359000      42.20340200
H        3.81827100      33.10044300      41.93678100
H        3.77121600      31.91292000      42.88005200
O        2.26832600      30.73986900       4.02633200
H        3.13465200      30.43184100       3.75006500
H        2.43825400      31.58999800       4.43991000
O       43.47506800      34.27222600      40.70859700
H       42.76587200      33.88311800      41.22566700
H       43.55949200      33.69379900      39.94640500
O        7.97647700      10.03545200      31.86904900
H        7.03888200      10.20959900      31.75808100
H        8.04469500       9.64612700      32.74450000
