9029
Lattice="45.0 0.0 0.0 0.0 45.0 0.0 0.0 0.0 45.0" Properties=species:S:1:pos:R:3 Built=T with=T Packmol=T pbc="T T T"
N       20.10608600      26.51063600      19.95938400
C       19.89820000      27.86844000      20.48966600
O       19.34641300      25.22577300      17.65305000
C       22.26164300      23.73811200      17.87493500
C       21.10306500      25.78491100      20.78817100
C       21.08209100      28.77842800      20.20284100
N       21.40265300      28.80890500      18.76730500
C       22.75857700      29.34469300      18.47965900
C       23.88097200      28.97774900      19.44619300
C       18.83241500      25.75561900      19.90894900
N       23.95781400      27.57778500      19.84529900
C       24.08404200      26.66003800      18.71565400
C       23.73287100      25.22087700      19.08152100
N       22.30460700      24.84696500      18.86066300
C       21.59293400      24.52224100      20.11067400
C       20.42927800      29.67236200      18.04876800
C       20.39942200      29.39278900      16.54073900
O       20.51134600      28.12885800      16.27017400
C       18.75987200      24.78968100      18.72192500
C       22.73956300      24.28186200      16.52124400
O       23.48715800      23.65441900      15.80762100
C       25.03085900      27.33971700      20.82553300
C       24.57343400      26.77318600      22.16852800
O       24.99573400      25.70179100      22.58788800
H       17.14181800      21.98449200      23.14125100
H       18.01257500      26.46474800      19.76302800
H       19.71470900      27.84541400      21.57304500
H       20.86152400      29.78705100      20.58166300
H       23.01314800      29.04153500      17.46047000
H       22.71674900      30.44090400      18.46328000
H       24.81557300      29.32630900      18.97632200
H       23.77188100      29.57422900      20.35955800
H       24.34561800      24.55766700      18.46940100
H       24.00429700      25.02846900      20.12378600
H       23.43517800      26.99270500      17.90242800
H       25.09992000      26.68439500      18.28832100
H       21.22367400      23.41247200      17.76726800
H       22.87635500      22.88929700      18.18551700
H       20.75196400      23.86710900      19.87351600
H       22.23081800      23.96925300      20.80799200
Lu      20.98737100      26.53018700      17.56166600
O       18.16571100      23.73120100      18.82400500
H       21.95035300      26.45028700      20.95154700
H       18.99276100      28.26567700      20.03045800
O       20.24144300      30.29597700      15.75077300
H       14.41723500      22.35811700      17.73740400
H       19.58594000      20.68572600      20.01256900
H       21.95189900      28.39563800      20.73010100
O       22.26826100      25.47581600      16.27926200
H       18.38400500      17.08805400      20.00038400
H       20.63386000      30.73077400      18.23766800
H       19.42582300      29.45301400      18.42206700
H       25.57358800      28.26916800      21.03445700
N       23.69444000      27.54850000      22.85602600
C       23.46204700      27.50300300      24.30440400
H       23.53456400      28.45858900      22.45234000
H       27.14332400      27.61006700      23.81125400
H       24.24410100      30.26004500      25.51287600
C       24.77504900      27.62157700      25.11721500
C       25.60631800      28.80299500      24.71556200
H       24.48241400      27.69122600      26.16818900
H       25.34447200      26.69991100      24.99066900
H       27.75451200      31.85064000      23.63431500
C       26.81305500      28.61785200      24.04008400
C       25.17905400      30.10528400      24.98321100
H       28.52932300      29.54633500      23.14652600
C       25.94662000      31.19599300      24.59432200
H       25.60428600      32.20001200      24.81160100
C       27.58856100      29.70926700      23.65923200
C       27.15521800      31.00047900      23.93444800
C       22.68498800      26.32489400      24.90624200
H       22.83710500      28.36880300      24.52168600
O       21.96697400      26.54979100      25.87153900
N       22.93323700      25.08511200      24.43775800
C       22.55659700      23.92459800      25.23283000
C       21.17913000      23.34662900      24.91541800
S       20.96785800      22.89760200      23.16082900
N       24.40732200      22.66106700      26.15650600
C       23.65222500      22.88542000      25.05735300
O       23.83416300      22.33090900      23.98310200
H       13.25924700      23.55032400      21.57385800
H       20.43520100      24.10609700      25.14724600
H       20.99418100      22.47265800      25.54257100
C       25.43920700      21.63944500      26.19385500
C       24.77669500      20.35583300      26.70700900
O       29.29614000      26.64919800      25.16292500
C       26.58867300      22.06370900      27.11300300
O       24.45537700      20.23524200      27.88409900
H       27.24225400      26.68511800      26.88834300
N       24.52248000      19.43134700      25.76996500
H       28.70535600      22.21045100      25.40531800
H       28.87324300      27.45765900      25.47086200
C       27.56628400      25.70229200      26.56319800
C       28.62753500      25.57590900      25.67014900
H       26.09921500      24.68258000      27.73442900
H       25.78604100      21.51366900      25.16784300
C       27.31288300      23.29063800      26.63326000
H       26.17593400      22.21420700      28.11381900
H       27.27634200      21.21703900      27.18677000
C       28.38039700      23.19027300      25.73880300
H       29.87172200      24.22682300      24.57422900
C       26.92123900      24.56598100      27.03588900
C       29.03966700      24.31153400      25.26102400
C       23.81815900      18.21289900      26.07690500
C       24.61410700      17.25632600      27.02536700
H       24.80652900      19.55978200      24.80911900
H       26.62283800      18.61416300      28.66401200
C       23.47496700      17.55170200      24.74443400
H       28.99771200      18.26831500      27.95312900
C       26.09859000      17.33258300      26.93821100
H       22.89222800      18.47145500      26.59853200
O       24.23830000      17.59483900      23.79614900
H       24.31842200      17.52020100      28.03995400
H       24.27143900      16.23314800      26.84467900
C       26.90229000      18.01491400      27.81361800
C       28.30648500      17.07622500      26.34111300
C       26.97893200      16.71926200      25.98606800
N       28.22351900      17.87037000      27.45569700
H       30.41900900      16.93317300      25.89929300
C       29.17771900      15.83608700      24.51867000
H       30.01425100      15.48844200      23.92650800
H       25.77621500      15.63084500      24.56783000
H       27.73082400      14.83897100      23.28144500
C       29.41307800      16.64634500      25.61675600
C       26.77703400      15.90055500      24.87247800
C       27.87428900      15.46704200      24.15153000
N       22.29145400      16.88341700      24.74911800
O       21.49524800      18.77986100      22.97993300
H       21.66826400      17.11938500      25.50334800
C       21.65206000      16.42017100      23.52865900
C       22.45388000      15.31209000      22.83725100
C       22.40856100      14.00687000      23.62678200
C       21.28085000      17.63176700      22.63830700
N       20.63124400      17.29422600      21.50654700
C       23.32220400      12.91295400      23.08004000
H       22.67563100      14.20965400      24.66925600
H       21.37609900      13.64528000      23.64437300
C       24.78704100      13.13810000      23.42652200
H       23.02642300      11.93702200      23.47208100
H       23.21624200      12.85262500      21.98972900
N       25.61476600      12.08703700      22.83933000
H       25.08599900      14.15375900      23.12146500
H       24.90996200      13.08841000      24.51305900
H       25.60271700      12.16872900      21.82938900
H       26.58165800      12.20017300      23.11770900
C       20.06996000      18.26288500      20.59957700
H       20.52224100      16.32834600      21.24969600
C       19.11384800      19.21089400      21.34356800
H       18.14118700      19.11221500      18.65424000
C       19.28093100      17.50226600      19.52130300
O       18.43831000      18.83336500      22.28129500
C       16.62576600      20.80980300      20.81602000
N       19.05778700      20.46988100      20.84060500
N       15.56978100      21.57672000      21.19418400
S       19.00355500      23.39687100      22.89378000
H       18.12604400      22.27086100      20.58888400
C       18.00652900      21.38357300      21.22017000
H       18.64965800      25.21239600      20.83844800
O       16.50306200      19.80203200      20.14909900
C       18.12162100      21.81430600      22.69312100
H       23.47592000      15.66310800      22.69615500
C       14.21533900      21.30796400      20.76001800
H       14.15938800      20.25524200      20.47759900
C       18.87490900      18.36915400      18.34839900
O       20.13687500      16.42689500      19.10298600
H       20.87066800      18.84082400      20.12277200
H       19.72568700      16.00372200      18.34365300
H       19.74805400      18.84995800      17.90277200
H       18.40189800      17.75326200      17.58031800
H       15.69784700      22.43941900      21.69900300
C       13.22505000      21.64889700      21.88153400
H       25.76369800      26.63006800      20.43898700
H       12.63955700      21.01668800      23.83849900
C       13.94856200      22.17999100      19.53927000
O       13.45251700      22.97888400      22.33079400
O       13.32379600      23.21690700      19.56495400
C       13.35898800      20.72825900      23.07344100
O       14.53341400      21.70127500      18.43956400
H       20.67415300      25.53542500      21.76563800
H       12.21630600      21.56809500      21.45894900
H       13.17103500      19.69244000      22.79144700
H       14.35999600      20.79318600      23.49943200
H       23.62154300      24.97413200      23.69615400
H       22.50338800      24.26292800      26.27107000
H       24.10104800      23.02834200      27.04347000
H       20.69288000      15.99315600      23.84195300
H       22.04800700      15.14004700      21.83734600
H       18.61459000      21.03999900      23.27584100
O       35.45586300      40.35277200      21.03136900
H       34.80584900      39.74066000      21.38425200
H       35.11484600      40.58950300      20.16516600
O       16.85611500      39.90862100      20.63727800
H       16.21151300      39.22361600      20.44497000
H       16.40311900      40.72863400      20.42510900
O       34.76052900      42.76924000      29.27538700
H       35.43732600      42.71126900      28.59692500
H       34.27587300      43.57032100      29.06086500
O       34.03420300      27.12208300      15.81082300
H       33.86654500      27.04233300      14.86888100
H       33.23852500      27.53075000      16.16086600
O       37.56975600      12.46088500      43.60426900
H       36.65584300      12.28689900      43.84137000
H       38.08132500      12.02181000      44.28848600
O       32.98405200      40.00100100      35.82023100
H       33.81862500      40.34696600      35.49539000
H       33.23388900      39.39972700      36.52641300
O       38.94085200      13.25348600      29.20208000
H       38.20989600      13.83274100      29.42988100
H       39.70487900      13.83479200      29.17063800
O       37.81653500      37.50929100      37.06552200
H       37.96240500      37.96076100      36.23088300
H       36.86937700      37.57638600      37.21054100
O       41.88044300      33.09515100      34.29020600
H       41.17447600      32.46586300      34.12488100
H       41.86311400      33.22848300      35.24129200
O       13.95279900      12.63406300      30.61597200
H       14.67053800      12.04155900      30.38035400
H       14.29130200      13.13314200      31.36362000
O       18.27203900       0.99401500      32.42433600
H       19.22540000       0.96922400      32.31382900
H       18.14486500       1.25290800      33.34054700
O       28.10108200      37.65135900      33.34032800
H       28.94423300      37.31870600      33.02384400
H       27.57296300      36.86235700      33.48595800
O       38.98116000      23.53760300      22.12442400
H       38.04271700      23.39990900      21.97579500
H       39.23358700      24.19008800      21.46625500
O        9.47285600       6.15144900       5.80556600
H        9.38518600       7.07314700       6.05955700
H       10.11863900       6.16044900       5.09456300
O       27.56701100       2.04498400       0.68182100
H       28.45352200       2.35633200       0.48462600
H       27.08200000       2.83992600       0.91734900
O       12.98191000       6.20486100      17.35089500
H       13.12509800       6.92767800      17.96632800
H       12.28887600       6.52283100      16.76673800
O        8.21064800      33.33597100      11.66114700
H        8.50776200      34.12583700      12.11892600
H        7.30532300      33.53339100      11.40805700
O       25.14818600       1.59548600      38.18257200
H       25.60332200       2.38518400      38.48415500
H       24.21606700       1.80419800      38.28374300
O       20.98877900      19.16761200      31.31684300
H       21.26142500      20.05214500      31.57177600
H       20.05955700      19.26009700      31.09181900
O       21.40367600      32.07755200      11.28674100
H       22.10334400      31.42064500      11.26098800
H       21.34971700      32.40389900      10.38495000
O        5.79312700      21.23453000      16.62181100
H        5.51612200      20.98603000      15.73680200
H        5.77420700      22.19487200      16.61673200
O       34.66965000      28.99498500      37.35889900
H       35.31304600      29.42255900      37.92894100
H       33.82598100      29.15560000      37.78909400
O       39.81038400      36.45241900      31.43927900
H       39.25317300      36.56720700      32.21262500
H       40.35405200      37.24399600      31.41751100
O       23.42866100      19.00315900       4.29445400
H       23.99447300      18.24389300       4.13603000
H       23.92860100      19.54958100       4.90611100
O       19.98208700      36.50742100      34.08721800
H       20.43181800      37.25783000      34.48263400
H       19.89302000      36.74404900      33.16054900
O       37.42951300      36.53388100      39.27285000
H       37.20598400      37.45780500      39.40747700
H       37.42367000      36.15603400      40.15593600
O       34.10425200       8.29653800      27.56352100
H       34.59516800       8.34330600      26.73978600
H       33.20053200       8.50640200      27.31474300
O       36.72042700      10.66608500       4.67341700
H       36.50800600       9.92682500       4.09887600
H       36.78999000      10.27577900       5.54832500
O       26.19308700      39.24045300      31.63910900
H       25.70304400      40.01929900      31.36528000
H       25.52515000      38.55501700      31.72083100
O       33.22350800      44.82829100      39.06435000
H       32.36425700      44.43611800      39.23643200
H       33.85054200      44.19672400      39.42572600
O       25.71674000      35.34956600      19.72112500
H       25.13389500      34.61519500      19.92780500
H       25.38568600      35.68890700      18.88572500
O       28.41484000      13.51652700       7.46143100
H       29.01307500      12.90302700       7.89439400
H       27.90824500      12.96874300       6.85650400
O       23.39883400      17.10174900      34.16567600
H       24.15494400      16.67959600      33.75117700
H       22.75563900      17.18738100      33.45743100
O       12.61443400      24.26291000       7.37057100
H       12.13640300      24.46650600       8.17788700
H       11.94335300      23.91651300       6.77702200
O       20.33864400      23.85852400      33.68661300
H       21.09555600      23.30411000      33.89016900
H       20.32549300      24.51191400      34.39056600
O        4.05030600      13.57280100      12.60792300
H        3.59259700      14.37482300      12.87058000
H        4.66318600      13.86031800      11.92648800
O        9.62057000      41.48393800      33.02221200
H        9.85776600      41.66819200      32.11033800
H        8.67140000      41.33873500      32.99700600
O       27.20835400      42.91486800      36.36482500
H       26.50899500      43.36320100      35.88355700
H       27.27088700      43.39336800      37.19534800
O       15.68705100      27.15172300      29.82623600
H       16.12545700      27.30883300      28.98668800
H       14.78708300      27.45674400      29.68601700
O       10.50486300      22.27837500      38.90518200
H       10.55642400      21.44473700      39.37858800
H        9.95255700      22.08608800      38.14319400
O        8.54762800      12.24946400      40.77841800
H        8.22870200      12.14995300      39.87835800
H        8.47052900      13.19028600      40.95604600
O       36.40919000      32.91180800      20.29529500
H       36.36371100      33.46780100      21.07665800
H       37.34917500      32.82959900      20.11554200
O       26.44981000      35.58889200      12.11970100
H       25.64786300      35.58950100      12.64753200
H       26.46701000      36.45804800      11.71115100
O       28.53425000       8.45848100      20.40594800
H       28.21908800       7.55618100      20.31510900
H       28.76567200       8.72138700      19.51153900
O        9.76828200      14.66885800      44.73447500
H       10.36864100      13.92324400      44.80764600
H        9.13526600      14.40035000      44.06377600
O        8.92704700      37.82793500      42.01045800
H        8.59895000      38.24242900      41.20904000
H        8.42854600      38.24664500      42.71673000
O       34.95871400       1.23947300      18.01251800
H       34.94934000       0.28090700      18.06533400
H       34.55836200       1.43530900      17.16163100
O       40.92987200       7.13539700      33.29365800
H       40.18300800       7.37241800      33.84840100
H       40.83873500       7.69580200      32.51887900
O       37.45046600      29.21272900      15.51352500
H       38.17048900      29.53097500      14.96396900
H       37.40727700      28.27121500      15.32824500
O       15.34339800      12.54109500      28.31555200
H       14.50649200      12.12629600      28.09361300
H       15.15227000      13.48240300      28.30839600
O       28.91815300      30.49089500       3.22246900
H       28.02066900      30.35360400       2.91038100
H       29.00965300      29.88276700       3.96033700
O       15.20336200      29.81782600      30.68845000
H       15.89349800      29.70269900      30.03104400
H       15.67790600      29.91318000      31.51812300
O       38.56155900      27.57937700      19.40259100
H       39.47026900      27.82737300      19.58824800
H       38.48144900      27.66368200      18.44911500
O        0.82190100      38.11539000      32.03913800
H        0.00706200      37.61691700      32.13551600
H        0.78590100      38.76931400      32.74179700
O        4.93124200      23.53145700      15.07827800
H        3.99110200      23.43985900      14.90660300
H        5.26737700      24.00939500      14.31589300
O       30.00859300      17.43103300      14.02538800
H       29.28155600      17.33601200      14.64515700
H       30.62234900      18.02352300      14.46686500
O        7.06220300      28.00737900       7.83759800
H        6.17254200      27.77286600       7.56331100
H        7.63275900      27.48536200       7.26785500
O       11.93309200      10.15910400       8.37594700
H       11.92462900       9.64408000       7.56576000
H       11.68684500      11.04494600       8.09794100
O        6.67530600      42.67715600       3.96746000
H        6.41380800      43.30465700       3.28953100
H        6.33971600      43.05500900       4.78431300
O       16.61766200       5.69170000       5.97413300
H       17.10953800       5.93233700       5.18554100
H       16.98212200       4.84129200       6.23223600
O       34.85239000      14.97761700       6.72501800
H       35.15367600      14.44825200       7.46712700
H       33.89426800      14.92440500       6.76758800
O       44.98933700      10.34666600      10.72122600
H       44.87274400       9.39423000      10.75279700
H       44.16822300      10.67509700      10.34633100
O       23.92499700      40.88028900       8.72418000
H       23.46181500      41.16377700       9.51590100
H       23.39717400      40.15202400       8.38702400
O       41.41392200       0.00475100      23.70002800
H       41.91723500       0.73181500      24.07389700
H       41.31641000       0.23438900      22.77245100
O       15.85064600      22.16607800      27.16646900
H       16.13915600      21.61761900      27.89973600
H       15.48469500      22.94969600      27.58439800
O       36.53962000      44.12422400       1.90668000
H       37.15967500      44.79106900       1.60242100
H       36.17370400      43.75306000       1.09984300
O        8.41385000       7.75431500      18.24254300
H        8.51334700       8.69207800      18.42261500
H        9.17769800       7.53257900      17.70401600
O       36.05521700      41.57401400       5.36392900
H       36.48144300      40.73688600       5.16575100
H       36.64989300      42.00342400       5.98409800
O       44.24431400       8.25194000      35.27196100
H       44.75628100       8.65921200      34.56929200
H       44.55800900       8.67837300      36.07345500
O       39.03930500      37.97682400      20.43865000
H       39.23298600      37.05530100      20.25154800
H       38.49701200      37.95037000      21.23102600
O        8.05370100       5.50604300       8.59241600
H        7.49652500       5.84710700       9.29594700
H        8.04672200       6.19788300       7.92612000
O        5.04838400       6.32592900      35.17615300
H        5.28588200       7.24125100      35.01030500
H        4.88416100       5.96029000      34.30323800
O       39.66264800      19.82946200       9.78097800
H       40.03809700      19.07830300       9.31565700
H       40.23767900      20.56382200       9.55142000
O       17.71611600      13.84137200       4.65329100
H       16.88810200      13.97573100       4.18631700
H       17.87330500      14.67463600       5.10451700
O       39.49047000      33.61405100       6.45101600
H       38.99145600      34.13072400       5.81402300
H       39.17493900      32.71513100       6.32843200
O       41.74854600      23.90768200      13.01654100
H       42.69431400      24.03786600      12.91505300
H       41.56896200      23.08866400      12.54792600
O       32.35604900       3.30687600      32.68589900
H       32.31123700       4.08679600      33.24396800
H       33.08703200       2.79801200      33.04556800
O       43.45884300      44.79651700      14.52953500
H       43.34989600      43.85147300      14.65894400
H       44.29604100      45.00035000      14.95402700
O       19.79455100      43.85509600      14.47053400
H       18.93995600      44.28746400      14.53724500
H       20.00093500      43.59454700      15.37173400
O       42.26233000      23.89859600       4.72094800
H       41.63171200      24.61453600       4.82807000
H       42.01629200      23.26113700       5.39604300
O       26.62247400      26.58677800       9.08390700
H       26.37554100      27.42369400       9.48430700
H       26.78068900      26.80142800       8.16112000
O       26.57235300       8.03702600      36.51776600
H       27.42687800       8.42816000      36.71404700
H       26.30245600       7.62708900      37.34344700
O        7.91133300       4.13416400      45.00021700
H        8.79287600       3.78020400      44.86122800
H        7.33300400       3.37123100      44.92204300
O       37.15549800      40.70979100      17.36622800
H       37.97166100      40.31866900      17.68658200
H       36.47183400      40.31886400      17.91615600
O        6.68104200      35.85615800      18.04706500
H        6.92159500      36.47067100      17.34976100
H        5.75610400      36.04591200      18.22348600
O       36.64482600      22.96369600      37.84229500
H       35.88891600      22.52395800      37.44611900
H       36.95594500      22.34759000      38.51032300
O       15.01334700      37.56962700      39.58533100
H       15.93032600      37.52434300      39.30457500
H       15.01226000      38.21998300      40.29221100
O       31.84776700      43.34577300      28.41579800
H       32.12918100      44.00626300      29.05320100
H       31.03042000      42.99626000      28.77970200
O       34.16933100      17.64729500      20.51535800
H       34.68407500      16.99559900      20.03363600
H       34.72593000      17.88740900      21.26046500
O       16.27702200      15.37158900      32.18539600
H       16.72014400      14.54617100      31.97550700
H       15.95803400      15.24938500      33.08314600
O        0.61327800      39.97223900      10.01036300
H        1.37046000      40.27388300       9.50300500
H        0.25525900      39.24507500       9.49490600
O       35.09218400       2.07504700       9.32468300
H       34.83729700       1.95911200      10.24300600
H       35.49369300       2.94720800       9.29696400
O       26.54817900      29.52328900      33.48647300
H       25.71122200      29.75415000      33.89626600
H       26.52850000      29.96969700      32.63619400
O       16.55209000      11.27789700      36.04590700
H       15.66962800      11.29354500      35.66809600
H       16.70635900      10.35275000      36.25314200
O        6.11374200      22.25620200      18.93617500
H        6.28540500      21.32774000      18.76234900
H        5.17274800      22.29334800      19.12536200
O       15.52555700      22.07803200      35.10003900
H       15.16891900      21.67190600      35.89351000
H       15.89551500      22.91071700      35.40402900
O       17.61449000      37.93835100      40.81869700
H       18.51616300      38.17023000      40.58429700
H       17.27468700      38.72009500      41.26147500
O       38.94796000       4.52167000      40.35221800
H       39.80274600       4.86920300      40.61733300
H       39.15059800       3.90413600      39.64494700
O       44.80923500      23.42701400      25.31918600
H       44.59190300      22.52704100      25.06514000
H       44.00128200      23.76515500      25.71354000
O        7.33866400      44.96143900      22.39299500
H        6.92690300      44.24124400      21.90977800
H        6.85501800      44.99956700      23.22201500
O       35.83526900      36.46635000      20.50405300
H       36.12103000      35.64085800      20.90233500
H       35.57164800      36.22255100      19.61315000
O        6.36250800      34.16970300      16.06527200
H        6.07175600      33.32707200      15.70867500
H        5.54798800      34.63438100      16.27329400
O        8.63225000       2.80583000      36.31348700
H        8.24671100       2.16326200      36.91364700
H        8.80558900       2.30805900      35.51048100
O       40.44383000       8.85057600      24.48966300
H       39.89731600       8.55131600      25.22006800
H       41.34098500       8.64181300      24.76201100
O       17.47616900      35.98476000      12.84985700
H       17.96399800      35.43616700      13.46855900
H       17.98778300      35.94142800      12.03805900
O       29.21297200      41.97621200       1.97817200
H       29.25146700      42.22253700       2.90530100
H       30.13304000      41.91894300       1.70828500
O       38.98313500      10.78796900       6.68291600
H       38.87618000      10.92486800       5.73870000
H       39.10892400       9.84003200       6.77366200
O        9.20766100      22.88996400      10.95715100
H        8.42030500      23.06820700      10.43751100
H        8.96837200      23.15141300      11.84991500
O       26.52125700      10.36048300      44.62303200
H       26.91014800      11.01187200      44.03466100
H       26.78492000       9.51525100      44.25059700
O       38.66226400       0.57824800      23.47376200
H       39.13051500       0.05877400      22.81602900
H       37.96459200      -0.00402200      23.78498000
O       31.50268800      28.67061000      35.32627800
H       32.44200400      28.86862800      35.31216100
H       31.40439400      27.93721000      34.71382000
O       21.94076500      33.38268900      26.04908700
H       21.73746000      33.17657800      25.13371300
H       21.71389200      32.58257900      26.52970500
O        2.08554800      22.84764400      28.31135000
H        1.87894600      22.45662700      29.16349300
H        2.92909300      23.28613800      28.44844900
O       28.20030700      19.94715200      17.90094800
H       27.89632200      19.08030700      18.18005000
H       27.61330400      20.18450700      17.17863800
O       41.23963900      13.50774900      11.98330900
H       40.70084500      14.30215800      12.00178600
H       40.80316700      12.90934500      12.59490300
O        8.25673300      30.06087000       5.60120200
H        8.90016300      29.52072100       6.06592000
H        8.37210600      30.93997100       5.97067700
O       19.48231700      39.25860100      34.87310200
H       19.77555100      39.16954200      35.78294100
H       18.96640900      40.06881400      34.86709000
O       29.57868900      12.68206100       5.17285500
H       29.35225300      11.86897500       5.63039500
H       28.74396800      12.99453900       4.81474700
O       36.42234000      44.74304300      14.94952300
H       35.52939100      44.59895600      14.62764400
H       36.52600400      44.10404200      15.65915100
O        7.77836300       4.86748800      42.29874800
H        7.76229600       3.94221700      42.04313400
H        8.42415700       4.90754900      43.00866800
O       32.16020300      36.77137500      35.51275600
H       31.84695200      35.87749200      35.35599800
H       32.17492300      36.85450400      36.46958100
O       27.28858100      40.12405800      23.78793700
H       26.91516600      39.65453500      24.53749400
H       27.03715700      41.04000000      23.93103800
O        5.40769700      10.10704300      19.57060600
H        4.74995800       9.62212200      20.07454700
H        4.92384200      10.45032200      18.81516800
O       35.50974900      21.36449700       4.09222600
H       35.64978700      22.24500800       3.73611600
H       35.65514400      21.46331700       5.03654500
O       23.96138800      15.98422800       9.76828200
H       24.53669800      16.74632200       9.66849900
H       23.48238800      16.15223200      10.58374300
O       30.24306400       4.75904300      16.44310000
H       30.81269000       5.49345200      16.20248600
H       29.89625900       4.99908300      17.30608800
O       37.00634200      36.08853400      35.61847200
H       36.50406200      36.24574600      34.81552500
H       36.37374600      35.68946600      36.22114100
O       28.84920700      18.05163000      42.44009300
H       29.11367100      18.96634100      42.31726600
H       27.92622000      18.03261200      42.17481000
O       18.01509400       7.07545400      28.21958300
H       18.43463800       7.16045200      27.36023300
H       18.14775700       6.15491100      28.45967500
O        5.63945900       9.30825800      22.66718000
H        4.83699100       9.59962400      23.10635500
H        5.79113300       9.96779800      21.98553100
O        0.00935300      25.33758300      42.88110200
H        0.41760800      26.19337000      42.73049700
H        0.50267300      24.96405300      43.61578100
O       36.73617600      41.25937500      25.98033100
H       37.43888300      41.60331600      25.42388400
H       36.34427400      42.04024400      26.37945100
O       33.54383200      17.24496500       8.24911900
H       34.27493400      16.64464100       8.08533200
H       33.35955000      17.63588800       7.39129500
O       27.55360400      23.82153200      41.25037000
H       26.89773800      23.13554100      41.10552400
H       27.04594500      24.63675900      41.26850800
O       41.51373200       1.31870000      27.77497500
H       41.00758800       2.12972800      27.68678600
H       40.90298400       0.69966000      28.18292100
O       30.75217800      29.39144800       1.88948900
H       30.09014700      29.92562900       1.44441400
H       31.57888800      29.85319400       1.72829300
O       41.55920500      18.98105700      20.31939000
H       41.46473500      19.50285900      19.51906300
H       42.50498900      18.97033900      20.48678100
O        4.52007100      42.52748100       9.50243000
H        4.15228500      41.77624300       9.97370600
H        3.81700400      42.80437200       8.90941100
O        3.38787100       5.68282500      19.53651900
H        3.58631100       6.49937100      19.07219300
H        4.09675200       5.08618500      19.28323700
O       38.04164200      24.28806300      27.93138300
H       38.43854400      25.14170900      28.11974800
H       38.59012000      23.91861600      27.23473200
O        4.40919900       3.14079500       4.78470800
H        4.15833500       2.36337100       5.28909300
H        3.61534900       3.37523900       4.29739000
O        7.81058500       0.45553400       3.24609300
H        7.92778900       1.38717000       3.44619900
H        8.15145900       0.00063500       4.02037500
O       44.56554400      39.03419600      19.39467000
H       43.65687800      38.85336000      19.14298000
H       44.70938500      38.49201500      20.17440800
O       17.89290600      37.43142300      34.20215900
H       17.72965700      36.49776400      34.04933400
H       18.21863800      37.47188300      35.10487900
O        9.87098800       7.20450000      38.45948600
H        9.05062400       6.77652100      38.20343400
H       10.26942200       7.47320700      37.62780800
O       36.07059600       1.22853900       7.49927300
H       36.32438300       2.14380800       7.35927100
H       36.32079000       0.78452400       6.68508900
O       29.66387800      26.75368800      10.49749200
H       28.83383500      27.23526200      10.46853700
H       30.32869500      27.41097300      10.27695500
O        5.22782000      14.25046200       1.17928900
H        5.81672800      13.68173100       0.67783400
H        4.42698900      13.73067600       1.28480600
O       17.72330900      12.75357900      14.57117900
H       17.10004000      13.48219000      14.52231900
H       18.56297500      13.14016900      14.31012400
O       35.78855700       4.85221300       6.94716800
H       34.97498500       4.42296800       6.67226200
H       36.08826000       4.33564000       7.69948000
O       29.30859400      22.06371500      33.70936500
H       28.74082300      22.30581700      32.97401000
H       28.71542500      21.65281500      34.34336300
O       25.53671600      33.73937100       2.51073600
H       25.28477100      33.24420100       1.72775700
H       25.90695400      33.07882100       3.10170200
O        9.01098900      29.41529600      37.74313300
H        8.23063200      29.76188200      38.18204900
H        9.04324000      28.49245700      38.00765200
O       41.13739500      29.53842800       1.79322200
H       40.79154700      30.29254600       1.31008700
H       40.93604300      29.73141200       2.71238300
O        2.00476800       4.96084100      30.87611400
H        2.89911000       4.61528200      30.82643900
H        1.74743900       4.82567300      31.79162100
O        2.89535700       5.38092900       3.75095500
H        3.66970200       5.27915700       3.19260200
H        3.06195700       6.18770400       4.24492000
O       39.56167300      17.38427800       2.30599500
H       38.74732100      17.83674900       2.07399300
H       40.16268600      17.59074800       1.58572100
O        9.99492600       9.17299100       5.83149900
H       10.87947400       8.79977700       5.82815500
H       10.13111300      10.10754000       6.00675200
O       24.50260600       2.46348100      17.82818700
H       24.24629400       3.32243100      17.48433400
H       23.81335800       2.24435400      18.46029600
O       30.34022000      10.33013500      34.65787400
H       29.81403500       9.72383500      35.18442500
H       31.20465000      10.32111800      35.07658700
O       31.42207000       9.59968000      10.24678200
H       31.26942300       8.68525300      10.49627600
H       30.65337000       9.83488100       9.72102200
O       22.47311600      40.46879400      11.35101600
H       22.60575800      39.58120200      11.00997100
H       22.98072700      40.48932100      12.16621600
O        9.21165300      15.10890500      32.83454800
H        8.33195200      15.31321500      33.16029200
H        9.19076400      15.37136200      31.91079400
O        4.35463800       5.89563600      37.43034300
H        3.43009100       5.93171400      37.68654100
H        4.42110500       5.10566600      36.88796600
O       39.91165100      11.34827700      20.14157500
H       40.36339600      10.60504900      19.73504900
H       40.27373400      11.39025800      21.03026800
O       13.61040000      18.63605800      32.10233900
H       13.26120400      18.67656200      31.20894900
H       13.42921100      17.73725400      32.38863500
O        6.49142200      14.44525000      10.84714100
H        5.86481200      15.03879000      10.42667000
H        7.04570400      15.02169200      11.37923900
O       12.99330100      35.07822600      10.90062000
H       13.90917600      35.16879900      11.17392100
H       12.90344600      35.68642600      10.16260800
O       28.38062000      40.22483100      15.78493200
H       28.78226700      39.37191000      15.96640100
H       27.74796400      40.04628100      15.08456800
O       40.09508400      36.80796100       9.89230200
H       39.50358100      37.35842000       9.37380000
H       40.93929900      37.26468300       9.85558000
O       34.66796600      16.12459400      16.66738800
H       35.29568400      15.43467900      16.89479000
H       34.23415100      16.33547200      17.49803700
O        6.50717600      30.23350500       8.78496000
H        6.96498700      29.60386100       9.34681600
H        6.98949600      30.20689400       7.95471800
O       26.23559500      26.67401100      34.81708500
H       26.58146100      27.56408100      34.91646700
H       25.40234500      26.68728300      35.29474600
O       13.79871400      25.57622100      38.75488500
H       14.33422800      26.09983600      39.35553200
H       13.06039400      25.27794500      39.29206100
O       18.47355500      11.75436900      41.00982400
H       19.29440700      11.32486100      41.26171600
H       18.13102000      11.21296800      40.29414500
O       20.37831700      38.85076400       3.49035800
H       21.11426400      38.51981500       4.01053100
H       19.73720700      39.14294300       4.14323600
O       25.43617900      44.16575500       6.98642700
H       25.45179000      43.47078400       6.32423600
H       26.02660500      43.85150500       7.67583600
O       10.98859100       3.18454200       4.01703200
H       11.31981100       2.71314800       4.78502000
H       10.69775600       4.03156900       4.36431000
O        3.70808700      26.03416200      11.17235300
H        4.61434600      26.16187300      10.88233700
H        3.20189500      25.98354000      10.35758300
O       35.49708100       2.92801100      13.60972900
H       36.07061400       2.68680300      14.34089600
H       35.99414100       3.59250600      13.12597200
O       28.09844000      34.66889800       1.10087500
H       28.74010600      35.28472600       0.73928600
H       27.58398600      35.19549700       1.71786200
O       17.61131700       2.70444900      16.01219500
H       18.11308200       3.48673100      16.25301100
H       18.13877600       2.28403400      15.32832400
O       17.97403800      22.23341100      10.18759700
H       18.87197300      22.00798700      10.44180500
H       17.63100700      22.72720800      10.93668800
O       36.09331600      31.07140300      13.41848800
H       35.77218500      30.58586300      12.65504200
H       36.27722900      30.39256000      14.07269800
O       20.99994800      44.55881200      11.87405800
H       20.93525800      44.63926000      10.91955900
H       20.21175300      44.99739600      12.20426300
O       33.51258000      37.60181500      33.98027900
H       33.08690600      38.42598600      34.22780400
H       34.26027200      37.87212600      33.44127000
O       10.47936700      38.66157500       0.80812300
H       10.34800600      39.41594000       1.38726200
H       10.83722200      39.04003800       0.00106200
O       10.89673100      28.92288800      24.44715300
H       11.55762100      28.22872100      24.39163900
H       11.20866400      29.49306800      25.15442600
O        6.68614500       2.74948900       1.99156100
H        7.45388000       3.23560000       2.30140600
H        5.93846900       3.21548900       2.37427000
O       17.94107600      21.09000600      30.56842500
H       17.64394100      20.92830300      29.66993300
H       17.88173600      22.04318100      30.67127500
O       20.42726700      27.83591100       3.07027900
H       20.15856500      26.95571800       2.79681100
H       21.18014300      27.68670500       3.64782200
O       14.41006300       6.30348900       9.50875500
H       13.70420700       5.74531500       9.17418800
H       14.27714000       7.14622000       9.06741700
O       14.54187900      33.99680800      27.60800900
H       14.64694800      34.48876100      26.79028800
H       13.67018000      33.59964400      27.53700000
O       19.87029000       8.74943500       9.91700500
H       18.95368100       8.56719800      10.13687200
H       19.83239100       9.54062200       9.37365600
O       19.28100500      40.83671300      31.66010200
H       19.01319200      39.91751000      31.58890900
H       19.71546500      40.89295400      32.51492600
O       22.21071900       5.22287700      32.10908100
H       21.81037500       5.29730300      32.97851300
H       21.47603300       5.32483900      31.49876900
O       14.52475900       4.04448500      41.11315100
H       15.29593400       4.31337600      41.61784100
H       13.88523900       3.77832000      41.77859300
O       32.94302800      23.49595300      30.08602600
H       32.47869700      23.21120000      29.29543300
H       32.55071300      24.34628900      30.29970900
O       38.06389600      13.60381600      17.12995300
H       38.15721200      14.01079700      17.99446600
H       38.61283100      14.14094200      16.55305800
O       34.53289600      17.25506600      31.45725500
H       35.27491000      17.85483100      31.56412700
H       34.93902800      16.39651500      31.31376300
O       19.21953300      39.80072000       7.48175700
H       18.57723700      39.09855300       7.60880700
H       20.06770700      39.34992500       7.47652500
O       42.58190200      42.97800800       8.39238200
H       43.20386300      43.65512900       8.11598400
H       42.22973300      42.62781300       7.57020000
O       35.93936700      40.17012300      24.24160800
H       35.22269400      39.53382300      24.29841300
H       35.72942600      40.69713300      23.46647700
O       33.00186500      25.21710900      16.36346900
H       33.04515700      24.27307700      16.19419200
H       33.61422900      25.35737900      17.09008900
O       23.61754400      39.19114200      26.14390700
H       22.68745200      39.39963000      26.25873500
H       23.64011500      38.23357200      26.07185200
O       13.79724600      15.63745400      24.10796400
H       13.99822100      15.02674100      23.39496800
H       14.56592400      15.59462500      24.68237100
O       22.53499700      30.13063300       1.44821800
H       23.45152300      30.29853100       1.67955100
H       22.51078900      30.21706000       0.49187800
O        0.95375900      42.54426700      40.96883600
H        1.13916600      43.42989400      41.28979200
H        1.81732200      42.18315800      40.75319600
O        1.59927200      16.31826400      12.29550600
H        0.84330100      16.52599100      12.84965700
H        2.09674100      17.13887300      12.25346300
O       31.56126000       0.44821000      14.11049500
H       30.77924500       0.00605500      14.44913400
H       32.29365200       0.00152200      14.54259900
O       20.21098300      10.11074200       3.32317200
H       20.18494400      10.19899900       4.27881700
H       19.98480200       9.19115700       3.16240200
O       22.33680900      32.30392900       1.16030600
H       21.69740200      32.97974200       1.39728800
H       23.18966100      32.71784300       1.31509400
O       37.35784000      11.57612500      25.42101300
H       38.09301400      12.11503900      25.11965600
H       37.05369800      11.12394900      24.63001600
O       22.34858000      44.44806300      14.94780600
H       22.52709600      43.52768600      15.15459800
H       21.88692600      44.41809700      14.10601000
O       35.92489800      33.32822000      15.63392900
H       35.54735100      34.19909100      15.48982200
H       36.83659200      33.41255700      15.34350900
O       23.49754900      40.88313800       0.33078900
H       23.21824400      40.03709800       0.68846300
H       22.91995900      41.52333600       0.75408300
O       37.37758300      10.85550600      30.16916300
H       36.78605200      10.11657200      30.00856800
H       38.22853100      10.55573200      29.83951800
O       30.13496600      36.74181400      41.81471200
H       29.23056700      36.98546300      41.60394600
H       30.04937700      35.95327200      42.35648600
O       14.77272600      15.55918400      16.64993400
H       15.10911100      16.43617200      16.84858700
H       13.85740900      15.58350700      16.94018400
O       43.71716900      34.27733000      34.46857000
H       44.28186200      34.96343200      34.10509900
H       44.14692900      33.45623000      34.21609600
O       11.71571100      32.41318500      40.71989400
H       11.61885900      33.36502900      40.64028300
H       11.94068600      32.12139400      39.83282800
O        7.21590700      33.08651400      24.61434500
H        7.83344000      32.42944500      24.28474300
H        7.71225700      33.56636900      25.28219100
O        7.99262000      20.93280100      23.16442200
H        8.58191900      20.53267400      22.52072100
H        7.11618000      20.81965400      22.78800100
O       40.66074300       1.14735900      37.83923300
H       41.60442300       1.31983600      37.80122400
H       40.25792100       2.01904800      37.81610600
O       26.70588100      34.15513300      32.07141600
H       26.89653300      34.08435200      33.00969500
H       25.79205600      34.44883400      32.03528800
O       32.35235700       5.64919300      13.52060000
H       33.30735300       5.74632900      13.50409200
H       32.12224100       5.40218100      12.62133800
O        6.25748700       6.74098100       3.08761300
H        7.00239800       6.96072600       3.65201100
H        6.65334800       6.30208100       2.33044500
O       14.18189900      10.71093300      37.59108900
H       14.89041300      11.34168700      37.73901300
H       14.51639600       9.88707600      37.95442700
O       39.65745000      30.39855500      43.45840800
H       39.11432300      31.13911900      43.73823800
H       39.99428900      30.02694700      44.27760800
O        7.03855000      10.96348900      14.03482800
H        7.27548300      10.14263000      13.59690200
H        7.76077000      11.12399500      14.64742700
O       11.55235100      38.30727900      32.95088200
H       12.02730000      39.11794100      33.14830100
H       10.92422400      38.21730000      33.67199400
O       18.53938100      27.87580900      35.89198100
H       18.86091900      27.10150600      36.35973300
H       18.44222700      28.54387300      36.57527700
O       29.66144900       2.03066700       9.82479300
H       29.15737800       1.42985000      10.37855800
H       29.09507200       2.18634500       9.06477800
O        3.08335900      39.71653200      28.86821500
H        2.54410100      40.18250100      28.22494300
H        3.55935300      39.06197200      28.35089200
O       17.65498300      39.17971100      26.17194200
H       16.82950700      38.68958600      26.18151600
H       17.47298400      39.94244200      25.61718100
O       21.97266700       7.18974200       4.61271200
H       21.31338700       7.83073500       4.33666600
H       21.60097700       6.79090700       5.40354600
O       42.06777300      17.22766700       9.11407200
H       42.95280000      17.45785500       8.82173000
H       41.84300600      17.90880200       9.75295900
O       26.67274400      43.92827400      30.35866100
H       26.80510500      43.39829900      31.14817400
H       25.71827800      43.98919300      30.26963200
O       11.89413300      43.21213400      35.85368800
H       11.38364800      43.99312700      35.62746100
H       12.71342300      43.31223600      35.36237700
O       30.55090900      36.38087800      15.42022000
H       30.77007700      37.23425900      15.80157500
H       31.15710700      36.28728300      14.68102700
O       14.93756700      29.74546800      14.71455100
H       15.82910500      29.63526500      15.05328300
H       14.96140200      29.33998500      13.84411600
O       26.65062500      42.80849600       1.53779900
H       26.52567200      43.55874000       0.95192700
H       25.77252000      42.43076000       1.63208000
O       42.70986200      31.52597800      28.82056900
H       41.83226800      31.63951900      29.19294300
H       43.20995800      31.09237700      29.51665600
O       25.95431100      30.23059900      13.61720900
H       25.17060000      30.14101200      13.06994700
H       26.43126700      30.96975600      13.23146100
O       25.89180800      37.19992400      43.63169900
H       24.94701200      37.12684200      43.47760800
H       26.03669300      36.72517800      44.45405400
O        9.42286700      27.40664000       8.56801700
H        9.79727000      27.89166200       7.82889500
H        9.48920000      28.01354100       9.30957900
O       32.24896800       2.96971200       7.02101900
H       32.80554900       2.37737900       7.53198300
H       31.39214200       2.92343900       7.45270200
O       35.81698500      13.38206600      11.46017400
H       35.07023700      12.77983200      11.42268200
H       36.05111800      13.52911600      10.54028200
O        7.06774000       6.56801100      14.21048800
H        6.19561100       6.19397100      14.06484900
H        7.19507400       6.51302000      15.16096400
O        2.22213500       5.33296700      12.43287000
H        1.72896300       4.50994200      12.46657100
H        3.12868200       5.06115800      12.26875600
O       26.11231400      14.24975800      44.01744800
H       25.39578800      14.85389700      44.22561100
H       26.55774700      14.65668600      43.27002600
O        4.86815800       8.16071700      14.20508300
H        5.60716600       8.63864100      14.58872500
H        4.63014000       7.51324700      14.87349400
O       42.94522400      20.69416800      13.59824200
H       42.07669900      20.32085600      13.76565600
H       43.53235500      20.20070400      14.17652600
O       26.46565600       5.33109200       8.15558200
H       27.14560200       4.71057300       7.88290100
H       25.71126200       5.11713100       7.60082800
O        2.60720400      10.59339800       2.18639900
H        1.80007000      10.36055700       1.72159200
H        2.52358400      11.53586200       2.35196600
O       35.62550200      16.87484600      27.72170700
H       36.12039400      16.13097600      27.37033100
H       36.01440000      17.64270600      27.29533600
O        8.27068000      27.13950600      28.64121000
H        8.74391400      27.87614000      28.24732700
H        8.23198600      27.35384500      29.57673400
O       44.52079400      36.82669200      24.29006000
H       44.58134700      37.73782700      23.99359400
H       44.46277700      36.89059200      25.24671700
O       31.85276300      44.36637800      26.32906000
H       32.34461200      44.62386800      25.54579100
H       32.11801100      45.00338200      26.99727500
O       36.43443300       6.05658900      17.22567000
H       37.34999700       6.24984000      17.44042900
H       36.48658200       5.37571700      16.55014300
O       21.86355300      16.93277800      35.75105900
H       21.51171800      16.35343400      35.07113400
H       22.50354000      16.39029700      36.21879100
O        1.39022400      26.49542900      15.09626900
H        0.55666100      26.86345200      15.39868900
H        1.13601200      25.80606800      14.47756100
O       31.86254900      26.19804600      41.71958800
H       31.46695800      26.61921300      40.95287400
H       32.68312200      26.67770800      41.85825200
O       17.50254200      21.92529200      36.88043700
H       18.37693500      21.83035000      37.26533700
H       17.35260200      21.09490300      36.42151000
O       32.94772500      33.27499700      34.84735200
H       33.09051700      32.62455100      35.53891300
H       32.04227100      33.56757000      34.97848300
O       19.17211600       4.84386100      13.15349100
H       18.26556200       4.94483800      13.45297100
H       19.70317900       5.14330900      13.89574700
O       44.99944600      14.59705700      11.69648200
H       44.27172000      15.02163500      12.15677800
H       44.95384300      14.94789000      10.80346600
O       10.35606700      17.46895900      42.98767800
H        9.53457800      17.06190500      43.27261300
H       10.98308000      16.74209000      42.95363300
O       10.17700700      14.21111900      28.39602500
H       11.05474500      14.44079900      28.08210300
H       10.33306600      13.56203700      29.08666300
O       27.51409300      14.45384500      39.84154000
H       27.20999400      13.75717400      39.25511300
H       28.24017900      14.86557700      39.36623000
O       21.14547200      41.55936900      28.31464400
H       21.64024200      42.35805700      28.11709800
H       21.79898600      40.85683700      28.26981500
O       24.13799000       1.07228100      33.44790100
H       24.45191000       1.70175300      34.10131000
H       24.87537900       0.97116500      32.84071500
O       11.08260000      43.08110400       7.09595000
H       10.75317100      42.71013400       7.91788900
H       10.46450200      42.77049000       6.42953000
O       37.96475600      11.47327900      17.75423200
H       37.54997500      10.67986300      18.10089100
H       38.75666500      11.58063700      18.28714400
O       34.23872900      42.87077600       9.97480100
H       33.81665500      43.02241900       9.12592900
H       33.70331900      43.36676000      10.59928200
O       32.19516600       3.75319900      23.63247300
H       32.06470900       2.81907900      23.81170900
H       32.93781200       4.00129500      24.18886000
O       28.07762400      42.80462500      12.60791100
H       27.33982400      43.36147500      12.34849900
H       27.72462000      42.25327300      13.31079100
O       29.56137800      17.62329700      38.75391700
H       30.02467800      16.88090900      39.14880700
H       28.89848000      17.86468900      39.40579000
O       16.41606100      14.56091400      22.15214400
H       17.00793100      14.31501100      22.86694900
H       15.97039800      15.34934300      22.47215100
O       36.89098600      22.72015100      24.06144000
H       37.83437900      22.81374000      24.21302100
H       36.48429600      23.13347400      24.82721400
O       43.23866600      13.58597300      10.85060700
H       42.53133400      13.53515600      10.20344200
H       43.89585600      12.96049100      10.53514500
O        4.17595100      23.03112100      43.22941600
H        3.57940400      23.72578300      43.51803400
H        4.53161500      22.66833100      44.04460200
O       12.29053600      41.07763100      15.23890700
H       13.16523300      40.69820300      15.12637000
H       11.88140600      40.53615100      15.91865300
O       17.92480000      38.77884500       0.50353100
H       18.18069500      38.10550100       1.13823600
H       17.07606800      38.47967700       0.16768000
O       28.86471100      44.31432600       8.07580200
H       29.03690800      45.02460000       8.69836500
H       29.44231000      43.60187700       8.36117600
O       35.14752200      41.07873900       7.30527400
H       34.68290500      41.90730000       7.44435400
H       34.47778200      40.48560500       6.95558600
O       40.88018100      24.90135600      40.27502600
H       40.53659800      24.54001100      41.09545500
H       40.70467000      24.21912500      39.62203500
O       13.41165200      32.54036100      17.06281200
H       13.94460200      33.17624500      16.57975800
H       13.94905500      32.30855800      17.82446000
O        1.56191300      35.07623300       6.60383000
H        1.86186100      35.20488100       7.50671800
H        0.71889700      34.62488600       6.69466900
O        7.34125900      42.04580500      11.92447600
H        6.90652900      41.90003400      12.76797300
H        8.23010900      42.32409900      12.15929400
O       13.47937600       7.54637900      27.53485500
H       13.79908500       6.77075800      27.06803200
H       13.78805800       7.42610000      28.43645900
O       34.19901800      23.94268100      20.12936900
H       34.34054000      23.07015300      20.50405700
H       34.06593300      23.78089200      19.19194900
O       13.94645700      41.57935100      17.26450500
H       13.60434700      40.68246700      17.28139500
H       14.62473100      41.56305100      16.58456400
O       13.77750800      44.04345800      37.70750200
H       12.98213900      44.48257700      37.39720000
H       14.49592900      44.57963400      37.36249800
O       25.13997000       3.61975100      35.78738400
H       25.68596800       3.23143100      35.09976500
H       25.68508200       3.57725900      36.57712400
O       21.26346600      39.65380000      20.56214700
H       20.65300700      39.85175200      21.27620600
H       20.93127300      38.83549800      20.18442700
O       21.38007600      41.16726400      34.73864200
H       20.94522600      41.90988800      35.16424800
H       21.47942600      40.51637900      35.43801300
O       42.00206300      38.79774700      39.93726500
H       41.88669200      37.84489400      39.95933200
H       41.23459800      39.14165500      40.40134000
O       20.13070500      38.70520000      10.37914800
H       20.58071300      38.70748800       9.53108400
H       19.86350300      37.79116900      10.50481700
O        7.16293400      35.45455500       7.77649300
H        7.25666400      36.36870600       8.05446100
H        7.74253500      35.37641500       7.01452200
O       25.58093100      31.41866800      -0.00124600
H       26.31547100      31.96974300       0.27892000
H       25.43339400      30.82388900       0.73842400
O       30.30906600      10.50720700       3.10209300
H       29.68563500      11.16238600       3.42427100
H       30.60644700      10.05154800       3.89366200
O       22.99346500      39.70710400      24.09211000
H       23.61895800      38.99195800      23.95409100
H       23.53194300      40.50223800      24.07100300
O       17.67638800      17.07036700      32.33101400
H       18.45251600      17.63511400      32.31073300
H       17.47932000      16.96943300      33.26569000
O        4.58944800       6.27370000       1.45814600
H        4.79288600       7.21118000       1.49649600
H        4.69352000       6.04486400       0.53108400
O       22.53309600      23.71764800      39.67334500
H       23.08600500      22.95916200      39.47156500
H       21.66906700      23.48196600      39.32614200
O       39.84399000      28.09933300       9.89193400
H       38.92353300      28.36589400       9.95050600
H       40.33354000      28.92535500       9.91781500
O       38.39836300      41.27160600      12.65302700
H       37.57492000      40.87470000      12.35954500
H       38.82611400      40.58144700      13.16620500
O        6.03726400      39.55073300      26.84100600
H        5.89262200      39.72532100      27.77391700
H        5.61581500      40.28808500      26.39230200
O        9.72783500      11.71322700      42.67704200
H        9.81765200      12.63299900      42.93719100
H        8.80225500      11.51024600      42.83433500
O       11.63744200      31.09138300      23.60094500
H       12.45286000      31.12032300      24.10689000
H       11.92564300      31.07866900      22.68474700
O       33.58862400      29.43375400      29.48289500
H       33.68780800      28.55074700      29.11932100
H       34.32215300      29.52268500      30.09662800
O       21.58906400      15.46832400      41.62127400
H       20.83504000      14.87417000      41.63366900
H       21.27958500      16.25582900      42.07591800
O       12.29807600       5.72711400       7.48319600
H       11.70984400       4.98862000       7.65736300
H       12.10186100       5.97977100       6.57748900
O       28.74053100       8.50502000      44.21552000
H       28.98042900       9.41883200      44.38617200
H       29.09366800       8.32521700      43.34053000
O       34.48581600       4.65278400      21.34855600
H       35.02816100       5.41656800      21.13827000
H       34.13401100       4.84331400      22.22181100
O        2.64504200      43.66830600       5.87805900
H        2.05329200      43.65675100       5.12213400
H        3.52471800      43.66120800       5.49236300
O       43.01329500      40.52550300      17.86374600
H       43.62983100      41.21530200      17.60725900
H       43.03751800      39.90083800      17.13446700
O       32.59461600      15.50337000      21.25776100
H       32.92236800      15.70380700      20.37791600
H       32.55769900      14.54394100      21.28561200
O       20.26411400      39.99144600      18.42998400
H       19.70513400      40.61896800      18.89418500
H       21.00630000      40.51677800      18.12042200
O       17.38291700      28.72437200      44.73215500
H       17.41201000      27.76585500      44.68606700
H       17.42212200      29.00845600      43.81542100
O       26.20558100      23.85741400      36.29567600
H       25.82573700      24.59095200      35.80642600
H       27.15060100      24.02919800      36.28741700
O       43.68213100      27.37966000      41.11635000
H       43.30184000      26.75989200      41.74324100
H       42.98909800      27.51575000      40.46533000
O       37.81367800       5.26672900      26.96695200
H       38.02054300       4.41217200      27.35252100
H       36.89046700       5.19582100      26.71142200
O       31.66832400      27.07137900      31.91523900
H       32.51874200      27.44729400      31.67607000
H       31.29956200      27.69679800      32.54413300
O       21.56968300       8.85183200      20.96749600
H       21.00946400       8.23199800      21.44045000
H       22.24360700       8.30151000      20.56053900
O       20.51821700      30.02633900      10.61416000
H       19.60464800      30.25762300      10.43079000
H       20.74861100      29.39938200       9.92388000
O       25.11495300       7.22331300      15.42867800
H       25.06443300       6.93757400      14.51351400
H       25.02745600       6.41281700      15.93669600
O        0.77361300      40.59825900      43.21346100
H        0.99535500      40.77771800      42.29675500
H        0.97651000      39.66663500      43.32986900
O       24.57204400       4.57988900      13.76852400
H       24.43437200       4.06083100      14.56435700
H       23.71662500       4.57789300      13.33160800
O       24.68551900       3.33027300      40.28480400
H       24.33923800       2.48396000      40.57732600
H       24.10857600       3.58659400      39.56087100
O       41.34168500      21.69633100      19.42015600
H       41.54649700      22.61422300      19.22715100
H       40.57459900      21.73933200      19.99667300
O       39.72579400      23.72258300      36.40973500
H       39.20551500      23.49623800      37.18420400
H       39.48682900      24.63333300      36.21980600
O        4.16302300      16.97424900      24.93906300
H        3.47652800      16.30310800      24.93462000
H        4.78041000      16.67934800      25.61323600
O       33.19083200      44.09509800      20.51099300
H       32.35569700      43.68428000      20.27540100
H       33.11607200      44.99385700      20.18040900
O       23.19390100      35.50800700       1.26487400
H       23.84897300      34.81064200       1.18557800
H       22.37354200      35.09814400       0.97910200
O       43.21683100      12.22487000      41.47353200
H       42.76643700      12.60429300      40.71530500
H       43.85184600      11.61332500      41.09220500
O       29.73948500      25.37734200      19.58043200
H       29.65521300      24.58906900      20.12195500
H       29.14345100      25.22472400      18.84280400
O        3.71580200      35.56589200       9.49738000
H        2.92300700      35.83063200       9.96972900
H        3.59872500      34.62499300       9.34361000
O       21.89048700      15.05046900      14.33875800
H       21.95470800      15.84594200      13.80506800
H       22.42399800      15.24018900      15.11465400
O       30.89860300      16.40508200       9.06699600
H       31.40066600      16.67065900       8.29296400
H       31.40717200      16.74292500       9.80852300
O       25.56011200      19.93319100      41.48454900
H       26.42821800      19.52324000      41.49209600
H       24.95330300      19.20985500      41.66121100
O        4.55556900      35.13825200      26.28548000
H        5.18449200      34.43148800      26.12218700
H        4.20946700      35.35502200      25.41607500
O       36.93849400      23.96492000      17.02644000
H       37.09980400      23.87212500      17.96829600
H       36.32781500      24.70343100      16.96075100
O       22.78363600      34.26489700      29.10904900
H       21.95577300      34.50706800      28.68747900
H       22.74347100      34.68469300      29.97206700
O        0.00241000       1.01627100      27.47492100
H        0.42482600       1.12095700      26.61915800
H        0.18021600       0.10432900      27.71862100
O       44.39907600      43.59710700      23.08654600
H       43.57121100      43.72048900      23.55680300
H       44.16006000      43.67232600      22.15926200
O       43.44604700       1.94852900       4.31553900
H       43.20839600       1.01884500       4.34611200
H       44.38140800       1.94846400       4.09704200
O       39.75197500      11.39632100      28.30358700
H       40.33772100      11.75005900      27.63016500
H       38.93009200      11.22305800      27.83761500
O       12.18492400      15.47043500      18.46417900
H       12.40412200      16.40109700      18.37730900
H       12.02570000      15.34967000      19.40370300
O       13.71264200       6.92166000      23.18914200
H       14.57022400       6.49105700      23.21846300
H       13.53004000       7.15186400      24.10363900
O       35.09137400      34.08982200      44.94494000
H       36.02354100      33.91621500      44.79444200
H       34.92022400      34.90463100      44.46594500
O        7.28112100      40.68550400       8.85398100
H        7.16863000      40.48686300       7.92145100
H        6.53677900      41.25356300       9.06823700
O       14.04489600      29.21949400      23.72006400
H       13.72149000      28.62536600      24.40134600
H       14.48940600      28.64359700      23.09285200
O       41.35971000      43.70010400      43.56492600
H       41.30065600      43.77287800      42.60944700
H       41.87810500      42.90492600      43.71189700
O       24.85544100      37.27354700      39.00688100
H       24.57837800      36.46904200      39.45155300
H       24.77419100      37.06924100      38.07184100
O       44.00432600      37.73927200      36.16477700
H       44.91472300      37.68735300      36.46512200
H       43.52530800      37.14975800      36.75270200
O        7.01602200      19.03327700      30.09364900
H        7.21309600      18.09386500      30.07383200
H        7.79724700      19.44872400      29.71984100
O       37.56702400      14.81323600      43.43294900
H       38.36800900      15.23788100      43.11699800
H       36.85612500      15.36410500      43.09559300
O       44.99896000      16.99807800       8.26142200
H       44.94142600      17.82989800       7.78551200
H       44.88216300      16.32721600       7.58396700
O       41.47753400      40.10395200      33.49856400
H       41.90396900      40.89932200      33.82607800
H       41.45050600      40.22296400      32.54580600
O       34.11695400      29.69849700      23.62850400
H       33.68826400      30.11176100      24.38160600
H       34.89092400      30.24365200      23.46596500
O       40.37421300      37.79421700      34.41753100
H       40.63194000      38.06869800      33.53437600
H       39.61144500      37.22734600      34.27794900
O        6.50090600      42.92451300      37.72924300
H        6.98385000      42.36895300      37.11293000
H        6.87810400      42.71297100      38.58692200
O        4.20168100      33.62603600       5.58859800
H        4.06363100      34.06217100       4.74452800
H        5.14138600      33.72861700       5.75910700
O        9.90719000       7.34303200       8.17940700
H       10.71196100       6.93046800       8.50167900
H       10.19694800       8.18886900       7.82834800
O        7.52482200      29.13768200      17.11263600
H        7.89801700      29.95160200      16.76624800
H        7.28888700      29.35040400      18.01912700
O       24.29308400      22.05964500       3.37050400
H       24.59778800      21.18938400       3.10305900
H       23.70532300      22.33454300       2.66226000
O       30.87274000      25.31661600       7.78683200
H       30.31538100      25.57994400       8.52285800
H       31.69179100      25.02988700       8.19863700
O       34.29151300      21.94188700      22.93653200
H       33.49235100      22.44454000      22.76216100
H       34.98741900      22.60329400      22.96650000
O       27.07746200      43.01508100      28.04908400
H       27.98190200      42.77616500      28.26503200
H       26.54275100      42.35734500      28.50086800
O        8.55109600      38.41505300      34.24915100
H        8.97856900      38.92208200      34.94335100
H        7.73514400      38.89078500      34.07438700
O        3.35889200      39.61639700      21.68323200
H        3.84738600      40.28772400      21.20113300
H        2.81768700      40.11346200      22.30183200
O       25.07880600      20.56345400      12.51388800
H       24.25996100      20.54661900      13.01482100
H       25.76108700      20.38574100      13.16623300
O       12.03375600      34.69380100      26.52992300
H       12.66706800      35.41507000      26.55019800
H       11.21626900      35.10253200      26.23446300
O        0.18389100      30.99734200       5.12057400
H        0.00197100      30.75134000       6.03058100
H        0.23523900      30.15990800       4.65290900
O       12.52124500      17.04313200      39.29286700
H       12.00727100      16.24339200      39.42692400
H       13.29900600      16.74891800      38.81206800
O       17.02211900      23.40608100       2.57406500
H       17.05196400      24.34420700       2.37218700
H       16.28016000      23.07536900       2.06145500
O       12.02071000      10.68561200      28.23196200
H       11.27066200      10.40308600      28.76048100
H       12.77083500      10.62002700      28.82832700
O       35.99708900      11.30583000      19.53296200
H       35.44813800      11.33835900      20.31993000
H       36.34644000      12.19663900      19.44895700
O        1.70066700      14.52260800       0.21594300
H        0.89133900      14.34053700       0.69922700
H        2.00696500      15.36089600       0.57104300
O        9.10027700      11.01311300      12.49015900
H        9.72838200      11.73130800      12.38336800
H        8.30392100      11.32592900      12.05357500
O       29.69081700      32.19174300      29.35909800
H       29.33623700      33.08292000      29.31664500
H       28.93864400      31.62641100      29.16602400
O       36.28383000      40.53931600      14.10847100
H       35.69162200      39.82671500      13.85704700
H       36.80693300      40.17271700      14.82583500
O       29.34929100      16.00320900       3.81419700
H       29.98534100      16.45515400       4.37358200
H       28.86514600      16.71189600       3.38291000
O       25.17180700       0.69305500       5.42896900
H       26.13022700       0.67623900       5.48258600
H       24.95510000       1.62304000       5.32500800
O       37.16149000      32.76234000      37.74835500
H       37.57584100      31.92287000      37.96125900
H       36.51915500      32.54540600      37.06792300
O       12.84322700      21.40968000       0.00196400
H       13.55980400      22.04755300       0.03886300
H       12.44521800      21.44741200       0.87535200
O       17.94426900      13.54568300       1.65149400
H       17.29210700      13.10841100       2.20394600
H       17.42504200      13.99475000       0.97964300
O        7.33986800      32.99397500       9.21127600
H        6.92971200      33.85994800       9.27117800
H        6.64881900      32.42661000       8.86029200
O       38.84682000       8.85427400      17.82191000
H       39.26331500       8.59485300      18.64711200
H       38.64276900       8.02293900      17.38615100
O       42.60548600      19.60469200      10.92233000
H       41.67446200      19.66601100      11.14851400
H       42.72398800      20.25196400      10.22258800
O       28.53305600       1.24427900      19.92927000
H       27.83086700       1.51053500      20.52740300
H       28.65724700       2.00365900      19.35432700
O       42.76044000      34.50658000      18.52396200
H       42.25756400      34.73243600      19.30998400
H       42.59437400      33.56921900      18.39583400
O       37.65571200      30.09191700      24.35124500
H       37.94256300      29.47902700      23.67021200
H       37.03711500      30.67410700      23.90287600
O       13.48210900      28.66732200      38.83800600
H       14.15196900      29.00544300      38.23910100
H       13.03025100      29.45223800      39.15796400
O       15.69311300      32.63678300      41.13425300
H       15.40888400      31.95459300      41.74707900
H       14.88432100      33.09910900      40.90025900
O       21.21236900      31.81119400       6.89046700
H       21.76491700      31.96490000       6.12053900
H       21.67767100      32.24728700       7.60877000
O        5.07601300       6.17009400      40.98856500
H        4.29305100       5.70406400      41.29107300
H        4.73698400       6.84748900      40.39793900
O       28.44170100       3.95169400      43.96667100
H       29.12092200       4.55922100      43.66452400
H       28.01802900       4.41129500      44.69599400
O        7.93793500       8.93037800      22.88735400
H        7.47578000       8.10094500      22.74530700
H        7.87672400       9.07826600      23.83446800
O       31.16150400      42.30613100      14.72577600
H       31.36350300      42.44365600      13.79733200
H       30.20479000      42.22460600      14.75210200
O       30.79258900      29.79956800      30.31226700
H       29.86057700      29.81897600      30.08269900
H       30.89999000      28.98158400      30.80421100
O        5.77645200      23.52557300       7.76635500
H        4.87419700      23.29181900       7.53609400
H        6.26513800      22.70309700       7.68056900
O       17.68552800      14.02132800      40.91416700
H       18.25425400      13.84266100      41.66673200
H       16.92237700      13.45458600      41.05216900
O       27.21288000      21.95026200      13.90426900
H       27.63203900      21.59261200      13.11806500
H       26.88236000      22.80897800      13.62857700
O       29.51209300      37.94532100      24.41269900
H       30.05238100      38.71580500      24.60287500
H       29.87420700      37.59628600      23.59435300
O        4.78714800      33.09948600      19.06966300
H        5.52802900      32.81607600      19.61049500
H        4.38643300      32.28089600      18.76638400
O       13.16555500      33.78393500      35.26710300
H       12.85608800      32.87886800      35.18458700
H       14.09037300      33.69829800      35.51209300
O       29.29653000      10.90097300      30.49264700
H       28.46714800      10.69962900      30.05297600
H       29.23074600      11.83429100      30.70997300
O       22.20434800      33.30719600      44.16883400
H       23.00811200      33.81575500      44.29943600
H       22.50611200      32.47710800      43.79129800
O        0.53851300      39.23152500      40.71188300
H        0.00834700      39.00828600      41.48052700
H        0.01279700      39.88281500      40.24062200
O       27.79112500      23.84868700      34.19766300
H       28.71840600      24.09701500      34.21210200
H       27.32009100      24.68580600      34.19713400
O        4.97465500      37.62102700      12.90164600
H        5.88155300      37.31696000      12.81916500
H        4.60675400      37.08480300      13.60858000
O       30.53149700      40.94646000      33.50594100
H       31.22783600      41.21622700      34.10931800
H       30.52276400      39.98779000      33.56525800
O       21.44154300      38.92826000      12.89485700
H       21.07171200      38.74166300      13.76095900
H       20.71606300      39.32531200      12.40631800
O       32.07272500      15.21966400      13.49042700
H       33.02711900      15.27771600      13.57695100
H       31.80107100      14.65616400      14.21934000
O        9.04106500       3.19630700      22.23907500
H        9.49249100       2.71662200      22.93753100
H        9.72277100       3.75129000      21.85188900
O        3.72705900       0.70149400      29.06591400
H        3.89568300       1.64616600      29.09566300
H        2.86505000       0.62617900      28.64889000
O       10.48964600       9.06469900      32.44134200
H       11.35403900       8.71401300      32.66843000
H       10.20143900       8.52674000      31.69960200
O       16.11525300       4.51341200      23.34726300
H       15.76257700       4.68976900      24.22261600
H       16.36829700       3.58719400      23.37431400
O        2.83373000       7.42760600      12.01709300
H        1.91699800       7.52062900      11.74751100
H        3.26673200       7.03101500      11.25691700
O       13.13256900       5.88804600       1.35366600
H       13.24134600       6.81466900       1.12725500
H       13.47091100       5.41457000       0.58947600
O        3.87633700      15.19251300       7.56694100
H        4.83164300      15.13451200       7.64277400
H        3.68585200      14.85345500       6.68864900
O       40.90325600      41.10073200      23.79737100
H       41.07700900      41.98188200      23.45809300
H       41.26410700      41.11251900      24.68747800
O       31.60170200      43.49659900       9.97017300
H       30.69655200      43.77235300      10.13262100
H       31.92922200      44.12407900       9.32083400
O       39.01663700      34.67707800      14.29229600
H       39.86984600      35.11049900      14.36913500
H       38.37825900      35.37939400      14.44017100
O       42.59456400       6.23608600      26.47136300
H       41.98725100       6.97926800      26.44738200
H       43.44677300       6.63097200      26.67247900
O        7.85915700      16.58803300      40.85143600
H        7.90577600      17.54688500      40.83896600
H        7.30937900      16.38593100      41.61271200
O       25.99873600      23.83335200       1.47317800
H       26.83159000      23.43516300       1.73685300
H       26.01868000      23.81414800       0.51303400
O       30.83063700      23.96243600      31.68243900
H       30.65512700      23.04465700      31.90290000
H       30.43372000      24.07953500      30.81561400
O       29.45251800      29.15144500       9.05327200
H       29.44786200      28.71506900       8.19812300
H       28.53978100      29.10609000       9.34906900
O       26.15700400       7.42749900       2.93018100
H       26.60028100       8.27754900       2.87874200
H       26.86745700       6.78399700       2.86850000
O       17.08382500      12.99798600      44.05259000
H       16.62404300      12.81425400      43.23005300
H       17.75177700      13.64531800      43.81291800
O       25.33721700      42.89734400      34.01677200
H       24.99816200      42.13175600      33.54704700
H       25.40856200      43.57816600      33.34295200
O       10.99250500      13.86139200      21.10242300
H       11.81701400      13.38490200      20.98049200
H       10.59997600      13.88681600      20.22611400
O       36.19909300      32.15457600       9.84723000
H       36.34171200      33.08366500       9.65183500
H       36.29254200      31.71528400       8.99815300
O       38.15718600       1.41564600      40.07319900
H       38.49827900       1.67138800      40.93341800
H       38.81480600       1.73653000      39.45093600
O        5.02902900      13.08028800      37.93609700
H        4.52859200      13.82670700      38.27395000
H        5.93254400      13.25468300      38.21157600
O       37.26433200       3.29889300      16.78405400
H       37.28641200       2.35353800      16.61809800
H       38.01082700       3.45600300      17.36775100
O       22.79260400      43.15387900      10.61585100
H       22.06380300      42.75979600      11.10090000
H       22.50792200      43.13238700       9.69871600
O        5.78229900      25.61693500      36.43734100
H        6.59315100      25.97922100      36.80202100
H        5.39119800      26.34825400      35.95272200
O       23.20901200       2.78434800       7.60586200
H       22.39737000       3.23683900       7.84713900
H       22.93069000       2.11561200       6.97501200
O       40.17328800      35.80987100       4.59599100
H       40.36275300      35.24577800       3.84258100
H       41.00303500      36.26118200       4.77057800
O       34.48146700      24.56340200      14.52561600
H       35.10860800      25.13222300      14.97823300
H       34.11291900      25.11809500      13.83342400
O       15.42354700      41.40197100      43.91545300
H       16.33902500      41.42152700      44.20397200
H       15.40879800      40.74671200      43.21327100
O       24.29849500       5.52298700      29.95941100
H       24.03149200       6.44508400      29.94631100
H       24.00382100       5.20157100      30.81527300
O        0.75769800      43.62026200      14.08261200
H        0.64577100      43.27214900      14.97031400
H        1.58600600      43.23958700      13.77990100
O       34.13242900      30.42463100      41.46831000
H       34.24451300      31.36703900      41.61332700
H       34.45089200      30.28155500      40.57346200
O       23.42546200      21.56224400       0.63627800
H       23.77339600      20.80590400       1.11441600
H       22.85131300      21.17865800      -0.03144700
O       32.27234600       5.41801900       3.91698200
H       31.42599600       5.84485200       4.06939700
H       32.78589900       5.61921300       4.70338300
O       28.35628000      21.20669200      37.68586100
H       28.17186900      20.86216100      36.80892500
H       28.88678500      20.52360200      38.10370600
O       37.47109100       2.63724100      11.62088100
H       38.15124700       3.07616600      11.10468500
H       36.65322100       2.84167600      11.16051500
O       11.53841300      16.01087300      37.26679800
H       10.76072000      15.45636800      37.36396800
H       11.43446400      16.41812500      36.40309500
O       32.07860800      34.34577500      44.35998100
H       32.94123400      34.02052500      44.09200200
H       31.76762300      33.69886400      44.99828800
O        6.03868400      10.66915700      33.93808900
H        6.78821400      10.75774600      34.53145300
H        6.04759700       9.74421900      33.67914200
O        6.79339100      40.48927200       1.76028400
H        7.50454000      40.87405800       1.24266300
H        6.82052200      40.96566100       2.59392600
O        5.43218600      21.53421200      37.84918100
H        4.85741200      20.77786500      37.98810100
H        5.00260600      22.03511100      37.15118200
O        1.61507100      15.24508900      42.85387900
H        0.82125900      14.80290300      43.16381200
H        1.38599300      16.17789900      42.85943300
O        0.93408800      36.73135500      40.28352300
H        0.00180900      36.74353200      40.51250100
H        1.02259500      37.40862600      39.60816100
O       20.41070500       6.89551000      10.96602500
H       20.63381200       7.49758000      11.67979000
H       20.25188500       6.05533500      11.40366000
O       42.00063500      37.06668900      18.20973900
H       42.27577500      37.86266900      17.74882800
H       42.79638200      36.75998700      18.65173700
O       29.95513400      39.36065400       7.05943200
H       30.18951900      38.56525400       7.54330000
H       29.64316700      39.03953900       6.20960600
O       43.75072300       6.67191300       3.71607600
H       42.81804700       6.60491000       3.49847300
H       43.86400000       6.08066600       4.46456600
O       15.68245900      34.45926900      23.83410800
H       16.10421100      34.83510400      24.61037900
H       16.19712600      34.79629900      23.09642900
O       21.26934900      20.57716400       9.33326000
H       20.84349900      20.22821800       8.54674000
H       20.55462100      20.67637100       9.96726600
O       33.52882300      12.75333600      23.98314200
H       33.38290900      12.93406200      24.91468500
H       32.71887300      13.04145500      23.55464600
O       25.45420200      29.83996600       3.64817800
H       26.18206500      30.25405600       4.11772100
H       25.79548100      29.69134900       2.76269300
O       18.86382400       9.31303600       6.15683700
H       18.45929900       9.28263100       5.28668800
H       19.14042700       8.40830000       6.32292800
O       43.21660900       0.26722300      35.65826800
H       42.68852000       0.00128200      36.41465600
H       43.87078400       0.86820800      36.02366300
O       44.28663400      26.15868800      25.50306400
H       43.42447600      26.20515100      25.92288400
H       44.12376300      26.42299200      24.59407700
O       33.40383300      12.12952700       3.64869500
H       34.18401500      11.60090100       3.46540700
H       33.69578800      12.76520300       4.30696600
O       11.12412000       8.93221900      35.65217300
H       11.91074200       8.54579600      36.04412700
H       10.96975800       8.40867000      34.86178600
O       10.14169000       2.11823500      11.45392800
H        9.54898800       1.57914300      10.92495800
H       10.08653000       2.99175300      11.05824500
O       30.82420900       0.01492100       7.43917300
H       30.95574600       0.82133700       7.94327300
H       31.50571900       0.04267700       6.76284800
O       30.91210100      39.82566300      21.77641000
H       30.54125500      39.41717800      22.56211800
H       30.17092300      40.28581700      21.37447200
O       15.19539200      27.37664800       1.25560100
H       15.76562800      28.13791800       1.12512300
H       14.55719800      27.43131600       0.53980700
O       33.96988600      12.21530200      42.35370500
H       33.03064600      12.03039900      42.42694400
H       34.38108400      11.61166600      42.97755000
O       23.02185100      12.56348700      39.56408200
H       23.49131500      11.81385100      39.93741000
H       23.10280600      13.25111200      40.22986000
O       44.18363800       6.68366000       7.30507300
H       44.29422400       7.17304300       6.48653700
H       43.30821900       6.93037700       7.61396500
O        0.00011800       2.77034300      21.46328300
H        0.40710200       3.61285700      21.67836300
H        0.71699500       2.24557400      21.09811700
O        1.36999000       2.52619000      33.67782700
H        1.95033100       3.26574800      33.48293400
H        1.40004300       2.44518600      34.63447600
O        7.83391400      21.86927700      39.96021300
H        7.58066200      22.55812200      39.34127800
H        8.34962600      21.25337700      39.43357300
O       12.21194500      27.20719500      17.05449600
H       12.93524100      26.59275800      16.90946500
H       12.52158700      27.77699500      17.76308000
O        0.77566000       4.40279100       3.71413100
H        1.05724800       3.53566600       4.01500800
H        0.20792200       4.22106900       2.96094300
O       31.52279200       2.24944100      43.93458400
H       30.62959400       2.19225800      44.28193300
H       32.00915500       1.57481000      44.41517300
O       15.32818800      28.48439500      40.01816300
H       14.76106600      28.02602100      40.64265500
H       16.00403300      28.89274100      40.56509100
O       39.66344400      42.66825900       6.17675800
H       38.83386000      42.18503900       6.17318900
H       40.20776000      42.20277600       6.81682600
O       16.02758200      30.24726800      25.93107600
H       15.29497500      30.83570600      25.73422200
H       16.21490900      29.81197300      25.09557100
O       29.08866500      39.14362700      39.43583200
H       28.42472100      39.18706500      40.12794200
H       29.51049800      40.00635900      39.45561100
O       15.90277700      39.49650500       5.22284500
H       15.14914300      40.06940900       5.06303000
H       15.51585500      38.63094600       5.37693000
O       40.80355400      21.43717900       5.27211200
H       40.35438000      20.63506400       5.54884100
H       40.25914000      21.78162300       4.55964100
O       36.33194200      15.38324300       9.35127200
H       37.04200400      15.67788500       9.92635700
H       36.44996500      15.89350500       8.54607400
O       22.66411200      40.38607600      30.93846000
H       22.04777200      40.09626300      31.61511300
H       23.52646900      40.31614000      31.35570200
O       10.00478400      35.61505500      11.38323700
H        9.77280000      36.37604800      11.92063700
H       10.89184000      35.80684800      11.06861300
O       40.96579000       0.72615200      32.64394200
H       41.83861300       0.53253000      32.29406100
H       41.13651400       1.19945100      33.46216200
O        3.80002600      30.72971700       9.41749000
H        4.27762300      29.92819100       9.19125500
H        4.28597800      31.09495400      10.16119300
O        1.14262000      20.39848200      27.06901800
H        1.79780300      21.04861400      26.80484200
H        0.56614300      20.87291200      27.67336200
O       32.83805600       8.19632300      37.19095800
H       33.03312500       8.89530400      37.81952700
H       32.30571100       7.57023400      37.68821300
O        5.81024600      19.43038300      36.38236100
H        6.26776300      20.26587700      36.26255700
H        5.99343900      18.94055500      35.57666100
O       16.28104700      24.17965000      41.84091400
H       15.60577000      24.23607200      41.16081000
H       16.00414100      24.81579200      42.50520900
O       31.87015700      23.15324300      17.72629400
H       32.67018300      22.62349000      17.69396100
H       31.96928400      23.68667000      18.51893000
O        6.71012200      38.59646600       9.24005000
H        7.56711200      38.40673000       8.85108500
H        6.45413400      37.77427000       9.66561500
O       24.84634000      28.31455600       7.20287800
H       24.26715600      27.69684300       7.65531900
H       24.93379700      29.05060000       7.81380500
O       35.10190400       0.04403000      12.09727700
H       35.85668500       0.42087000      12.55556100
H       34.41426000       0.00003200      12.76649400
O       37.53910800      25.35592400      38.30508000
H       37.74033100      25.32413000      37.36687800
H       37.99865800      24.59708500      38.67334500
O       23.75137600      31.75742100       7.06017900
H       24.36713400      32.04592900       7.73791800
H       23.84533400      30.80162200       7.04393700
O        5.20686700      40.34390700       3.94941400
H        4.54062400      39.80588000       3.51539500
H        5.81007600      39.70688600       4.34054800
O        2.06661700      31.40381300      32.74016800
H        2.93620900      31.80957900      32.76999000
H        2.12388300      30.76981200      32.02085900
O       32.94092300      37.85550000      22.46176000
H       33.13403600      38.40925400      23.22188500
H       31.98782700      37.73896900      22.48764500
O       20.38122800      35.15874800      39.50265300
H       19.55049200      35.31445500      39.04728600
H       21.03958800      35.58943400      38.95155100
O       41.74080600      32.97974500       4.86895000
H       40.97817000      32.43860500       5.08638500
H       41.52212500      33.36927200       4.01860400
O       44.18725900       4.22104400      43.72392300
H       45.00141300       3.71505000      43.77730200
H       44.30204700       4.77634400      42.94861200
O        6.70391600      31.72936900      40.04216800
H        7.18948400      32.45026500      39.63442200
H        7.38404900      31.17383500      40.43132600
O       34.75945900      27.81849100      21.18801900
H       34.04753300      27.52505400      21.76141300
H       35.55443400      27.69559900      21.71295300
O       17.82138200      41.83736600      30.02546600
H       16.98320000      42.30428700      29.99141400
H       17.58392100      40.93843100      30.26665100
O       41.14842500      28.82446300      23.54658700
H       41.88220600      29.36390900      23.24279800
H       40.65172500      29.40410300      24.12963700
O       39.94826800       4.03619600      19.38605000
H       39.03547500       4.22352900      19.15488100
H       40.31813100       3.63867900      18.59369600
O       38.13601100      27.00950800      34.07009600
H       37.24817000      27.32961800      33.89404700
H       38.02237100      26.07014700      34.23541200
O       17.42485600       2.83571200      31.16910800
H       18.22841900       3.26131500      31.47712400
H       16.89675800       2.72031200      31.96310800
O       39.81237200      25.14819300       0.79579000
H       39.15169900      24.51461000       0.50629300
H       39.35506400      25.99277100       0.78173200
O       43.38146800      21.89041700      40.52969900
H       42.83566500      22.47526200      39.99886900
H       44.27865300      22.19754500      40.37681400
O       18.66405700      44.57960000      30.70459400
H       17.83020400      44.13373400      30.87078100
H       19.28384900      43.86762700      30.52685000
O       15.13400500       9.14439900       8.71813400
H       14.25626000       9.23145200       8.33904100
H       15.03234700       9.44209400       9.62570500
O        6.38615100      25.29723700      27.67708500
H        6.18264200      26.18138800      27.99107000
H        6.42169900      24.76325200      28.47473100
O       39.05499700      33.02187200       3.37652900
H       38.69109200      33.90886100       3.32604800
H       38.52982600      32.58683400       4.05297600
O       35.30584100      35.57963300      40.27416600
H       34.47872400      35.63596100      39.78998700
H       35.27906700      34.71520100      40.69211600
O       22.26453300       4.67233200      35.75702700
H       22.64384000       5.50241500      36.05504500
H       22.62897600       4.54585600      34.87735200
O       44.99974500      42.67950100      44.17104100
H       44.51778400      42.72817300      44.99993800
H       44.56894300      43.32622300      43.60641500
O       43.58582100      14.02532100      36.69220300
H       44.11084400      14.76869600      36.38647600
H       43.00636700      14.40117700      37.35974100
O        4.02909300      30.90787600      21.32651800
H        3.21086800      30.99801600      20.83244600
H        3.90132700      30.11751600      21.85722500
O       16.02105900      31.99944700       5.15578400
H       16.84647100      32.46493100       5.30987600
H       15.59741700      32.49290000       4.44890800
O       19.63466400       9.22814900      25.72671800
H       19.64415800       8.99996700      24.79421200
H       20.06394000       8.48515700      26.15837500
O        8.74526500      36.83541400      21.54485600
H        7.88924300      36.53546800      21.23023700
H        9.01275000      36.16758800      22.18133200
O        8.46223000      32.92809800      35.38497100
H        8.55584900      31.97291600      35.40920500
H        9.10952000      33.24727200      36.01883700
O       23.30942400      30.38063000      42.81326100
H       23.88293400      29.61352100      42.87924600
H       22.85667500      30.26832200      41.97359000
O       28.90852200      32.44860800      12.75199400
H       27.99906600      32.68541500      12.94830300
H       29.15943800      33.03856500      12.03670800
O       25.08805500      36.28079700      35.67724500
H       24.91324200      35.35533400      35.86347800
H       25.36244800      36.29108600      34.75678600
O        7.77023000      13.50905100      18.52796900
H        7.02647000      14.02790100      18.84315300
H        8.12851600      14.02352800      17.80024300
O        1.59741100       6.30487900      34.75100200
H        2.37293700       5.98531100      34.28392600
H        0.88498100       5.73698600      34.44672900
O        6.55414300      44.60046500      16.02798100
H        5.61992800      44.70233600      16.22442700
H        6.66035600      44.99968500      15.16081100
O        4.11779300      20.62413100      35.46779300
H        3.81348400      21.45222200      35.08912900
H        3.50448100      20.45095300      36.18647200
O        8.01831700      35.69935100       3.00983700
H        7.74164100      35.55669000       2.10163900
H        8.48243800      34.89257800       3.24722200
O       14.44151900      16.32556300       4.60154000
H       14.71981200      16.52932000       5.49750900
H       13.55457000      16.68893500       4.53890700
O       16.27872600      31.53309100      16.11038900
H       15.33833900      31.59746800      15.92803400
H       16.69938100      31.76924600      15.27977400
O       21.49096000      11.00706800      29.82809900
H       21.58697500      10.10980200      30.15585000
H       22.17373700      11.50288700      30.28703400
O       42.26584800      20.41669900      25.37830900
H       42.64278500      19.59614500      25.05221800
H       42.04219500      20.22925000      26.29345000
O       13.69984500      38.33779300       2.96064900
H       14.32870600      38.67130500       2.31642200
H       13.87249300      38.85429100       3.75189100
O       27.27970900      37.62785300       1.02909700
H       28.12002900      37.30281800       1.36066900
H       26.76452700      37.80680600       1.81979600
O       14.52282300      15.66946100      40.44136400
H       14.99658600      16.40627000      40.83428600
H       15.19486700      15.18689600      39.95337800
O       16.94429300      37.74420600      18.95290600
H       16.99674500      36.96923700      19.51717200
H       16.91804000      37.38844400      18.06106200
O       17.43365700      36.70790500       3.80817500
H       16.93216200      35.90380000       3.96193800
H       16.90102500      37.20507700       3.18226300
O       20.73227900      27.26266100      40.01296400
H       20.72125200      27.03050400      40.94447200
H       20.34413200      26.50208300      39.57307200
O        1.19348600       2.13923000      28.93679800
H        1.95652900       2.67758000      29.15966300
H        1.10069700       1.53786100      29.68002600
O       13.33399000       9.71555400      34.71475400
H       14.16094000       9.57424300      34.24794700
H       13.09292600      10.62114200      34.50394100
O       23.40617400      42.65425800      30.33480700
H       24.26779500      42.24496500      30.22612600
H       23.50495500      43.52558100      29.94278700
O        1.53059600      28.35910700      12.87616600
H        1.20099200      29.23631800      12.66739200
H        0.97366600      28.06112300      13.59982000
O       29.10457000      28.15111800      33.41689200
H       29.51701800      28.99577100      33.22151300
H       28.46152100      28.35245500      34.10143100
O        5.15206400      41.12395700       6.62356700
H        4.20678900      40.96513400       6.56921000
H        5.54829900      40.26631400       6.45011000
O       44.98457400      27.70846000      18.78550200
H       44.92877400      28.64080000      18.56334500
H       44.29522900      27.57800900      19.44157200
O       39.80542700      35.25673700      36.50070800
H       40.18361300      35.17987100      35.62162200
H       40.18063600      36.06838400      36.85154900
O       44.66513500      18.81146500      17.52203900
H       43.70963000      18.71879700      17.53422100
H       44.94348300      18.31029300      16.75133100
O        0.73207900      37.68379500       5.87319900
H        1.26134200      38.40606100       5.52687800
H        1.28613800      37.28481800       6.54883000
O       26.08316800      11.90170500      35.52300900
H       26.23524100      10.97250500      35.33543100
H       26.28729200      11.99288300      36.45717200
O       33.92054900      14.53104900      43.25535900
H       33.82095100      15.30203600      42.69198900
H       34.24753500      14.88389800      44.08675500
O       40.25718100      28.89242900      27.41100100
H       39.36209300      28.65393500      27.66331800
H       40.14303100      29.55919100      26.72906300
O       23.86618700       3.98969900       2.83746600
H       23.29122700       4.12126800       3.59498600
H       24.48910700       3.31737400       3.12485500
O        6.11971800       0.01718100      39.96666500
H        6.97168400       0.01103500      39.52412500
H        5.47919200       0.01046400      39.25089700
O        7.04094900       8.66820800      16.78134600
H        7.38345900       8.58355300      15.88846000
H        6.14144500       8.33614900      16.72415000
O       42.93058900       2.96785300      42.25543600
H       42.56099900       2.86939700      43.13602400
H       42.24228600       2.64179500      41.67014400
O       17.43504500      15.94634600       3.35489200
H       17.25775800      16.60528100       4.03024300
H       16.79065500      16.13075800       2.66685500
O       36.40389600      17.46530900      42.41202000
H       36.91526800      18.25303300      42.21273700
H       35.49755000      17.77793700      42.47069600
O       19.25103800      38.03024600      21.51187000
H       18.35205000      37.93250900      21.18939100
H       19.63328400      37.15365300      21.42178500
O       22.34806500      35.92401900      42.74605900
H       22.74440400      36.78198600      42.57714000
H       22.12925000      35.94240400      43.68116500
O       27.36721700       0.75739800      28.81083900
H       27.58756500       0.85149900      29.74052600
H       28.18929500       0.94496900      28.35078800
O       37.39500000      40.92742400      44.99977500
H       36.55076600      40.47065800      44.98083000
H       38.03211100      40.26232400      44.72705900
O       26.43508500      27.63942900      13.24666900
H       25.89695600      26.87321400      13.45893500
H       25.91526300      28.12429900      12.60066000
O       44.05329100       2.51075100      15.41348600
H       43.62694900       2.84723300      14.62181900
H       44.97408800       2.40441400      15.16155500
O       35.20157300      14.68325200      33.17661100
H       34.80852900      14.40397300      32.34640400
H       36.11897400      14.86441500      32.95707000
O       43.34361900      17.31074700       6.37619400
H       43.09056100      18.01849900       5.77888800
H       42.50901800      16.95771700       6.69471200
O       39.81470400       1.12131000       2.71586600
H       40.02720900       0.81592700       3.60091200
H       39.46531100       0.34392300       2.27288100
O       36.66212700      40.03492200       8.93457700
H       36.95866500      40.85650600       8.53609300
H       35.77232500      40.22636100       9.24157200
O        1.31594600      23.16932900      41.44497000
H        1.56917300      23.96158600      41.92448000
H        1.55735800      23.35464600      40.53391600
O       29.66886600       7.93419400       5.16740100
H       29.53007600       8.85976500       5.38136700
H       30.31036800       7.94830900       4.45261600
O       27.33936200       6.00971700      42.46847000
H       27.49229600       5.08067000      42.28082900
H       27.28724200       6.05401900      43.42657400
O        9.04555500      23.04902400      28.20253300
H        8.21243100      23.52499600      28.16966200
H        8.89878300      22.35598900      28.85122500
O       13.43894000      28.50289500      21.06058700
H       12.72481100      28.23993300      20.47527000
H       13.94967200      29.13265500      20.54561300
O       36.25369300      44.19397700      29.99285000
H       35.95905200      43.84543700      30.83749900
H       35.73752300      44.99503100      29.87233300
O       34.84029200       8.96543600      21.59907200
H       34.80445500       9.27801500      20.69202500
H       35.77896700       8.90882700      21.79484500
O       19.15241900       1.06496500       9.72481500
H       19.45389600       1.97547000       9.76743800
H       19.28613000       0.81221000       8.80782100
O       41.87969700      35.65941600      31.39728200
H       41.80948300      34.84526300      30.89334700
H       42.46829900      35.44002600      32.12395800
O        4.93107900       4.70565700      25.58989400
H        5.78310300       4.74549700      25.14922000
H        4.46550200       5.48649100      25.27976700
O       15.52956200      16.38131100      37.19764200
H       14.75081900      16.93514000      37.10513800
H       15.26280600      15.69613800      37.81572100
O       19.55254300      18.57249400       0.84397200
H       19.81579800      19.26972200       1.44919400
H       18.86014200      18.09919600       1.31217300
O       32.96671100      36.86807300       4.58798500
H       32.39816500      36.10513200       4.45992000
H       33.68712700      36.73555100       3.96663100
O       21.04140200      21.55184800       1.12666300
H       21.14405300      22.37583400       0.64475500
H       20.31159200      21.71717500       1.72889700
O       31.08454400      42.44649300      41.48294300
H       31.25732000      41.50459300      41.55148900
H       31.27388000      42.78811600      42.36048900
O       32.10446700       7.01979600      26.00113600
H       32.38999700       6.53384200      26.77834000
H       31.31834000       6.55438900      25.70441500
O        6.20908100       3.53922400      16.04556200
H        5.80396200       2.85444600      16.58285500
H        6.78430500       3.06064700      15.44329600
O       35.84468800      13.83516800      24.23237700
H       35.47514700      14.19999700      25.03988200
H       36.37503000      14.54891400      23.86913300
O       11.49128400      35.19845500      35.07865900
H       10.73973100      34.76251100      35.48712500
H       11.13106100      35.59979600      34.28379600
O       34.04055400       0.63591300       8.05543800
H       33.44957100       0.04726000       7.58009500
H       34.51996900       0.05898900       8.65540600
O       32.60171500       6.45556300       1.66269400
H       31.92372100       6.66999000       1.01765900
H       33.39297100       6.31072700       1.13773800
O       39.71973000      39.29558600      30.95908400
H       38.79564900      39.06993200      30.82916000
H       39.98289800      39.70819200      30.13256100
O       36.71939400      27.41215400       1.53590600
H       35.89482700      27.77285600       1.87013400
H       36.94905400      27.98473700       0.79966800
O       18.78820300      42.13070200      28.01862500
H       19.37042600      42.85766200      28.25158200
H       19.21768700      41.71231900      27.26819800
O        8.66102200      15.31227600       9.79258300
H        9.11556500      15.10407200       8.97296900
H        9.29295500      15.83887900      10.28855800
O       39.61354400      20.38246500      38.85418100
H       40.26081300      19.78080600      38.47898200
H       39.85730100      20.44717800      39.78102300
O        2.94604500      21.54945900      24.90502700
H        3.55478800      20.81596800      25.01969200
H        3.51299700      22.30446900      24.72848300
O       37.86966200      34.18010900      34.92467800
H       37.77661900      34.03443200      35.86905400
H       37.04918300      33.84936300      34.55042900
O       20.97100700      43.79256000       1.54289100
H       21.57947800      43.59942800       2.25996000
H       21.20378800      43.16233800       0.85639500
O       35.88629400      24.87913300      22.70571300
H       36.07700900      25.81953400      22.73730100
H       35.16326900      24.76147800      23.32703100
O       43.85414400      12.02795600      12.94155800
H       43.17174400      12.70124900      12.99383000
H       43.92670600      11.69188300      13.83845900
O       31.19834700      26.39634300      16.79622900
H       30.80596100      25.93122200      17.53880500
H       30.44684800      26.73354000      16.30207200
O       14.70261700      28.57092300       8.58178000
H       14.35094300      27.71517100       8.83817600
H       14.11465000      28.87097800       7.88399500
O       18.38327400       9.58573000      15.73340100
H       18.38984600       8.67085200      16.02439900
H       17.74004700       9.60449000      15.02027500
O       27.49920900      42.95251700       4.88628600
H       27.20080600      43.86441900       4.85288100
H       27.45586300      42.72142600       5.81760800
O       15.43355400      37.35404800      11.95887100
H       14.50342200      37.12243700      12.01305300
H       15.43482000      38.30396200      11.81638000
O       11.80467800      27.46200000      26.98045600
H       11.84540500      26.95806400      26.16429700
H       12.67408500      27.35032100      27.37326700
O       19.95805800      16.21493900      12.96076600
H       20.15824800      17.14443200      12.82775700
H       19.26649000      16.21300400      13.62737800
O       39.17917600       1.33941200      26.42896900
H       38.90575200       2.16077600      26.84408800
H       39.91405700       1.59094800      25.86388400
O       36.10922300       8.89102100      16.07327000
H       35.95581900       7.95328900      16.21056600
H       35.78395600       9.05830000      15.18509100
O       14.73605100      27.38095200      12.87005100
H       14.69129700      26.42209000      12.88754300
H       13.82191000      27.66064200      12.77645100
O       27.58908300      39.57637900      17.80322300
H       27.91664600      39.07726300      18.55509500
H       27.88327900      40.47584600      17.96769400
O       12.32739000      10.58769900      11.83354000
H       12.32458000      11.54763700      11.81813600
H       12.07177900      10.36290100      12.73174400
O       13.02801300      37.85662100      16.09294300
H       13.59789400      38.42781800      15.57265900
H       12.32343900      38.43486800      16.39600500
O       10.06155400      17.06044500       8.62032300
H       10.63306300      17.54235800       8.01794300
H        9.75792100      17.72497900       9.24389600
O       20.97796900       6.00195700      20.56881500
H       20.62136200       5.85624100      21.44820300
H       20.22203200       6.28686900      20.04917500
O       18.46391200      33.50402100      43.48251500
H       17.55668700      33.71162100      43.71824600
H       18.96993500      33.71807800      44.27040000
O       16.18614800       6.52731600      41.29331800
H       15.59809500       7.28015100      41.19762000
H       16.29262100       6.42709900      42.24266700
O        1.36811600      20.29219200      14.90271600
H        0.60050500      19.72289300      14.99435100
H        1.03337700      21.07365900      14.45561300
O        8.95998100      24.30307500      34.03785300
H        9.69842800      24.52932100      34.60814600
H        9.31392700      24.37879000      33.14811700
O       13.16409100      32.93039100      32.96692500
H       14.10919700      32.92643100      32.79815300
H       12.94594300      33.85899300      33.07984900
O       18.52739400      37.08584100       8.86834600
H       17.85054000      37.46207300       9.43583400
H       18.05030500      36.80083300       8.08489300
O       35.23187200      18.73630500      16.73564000
H       34.31177100      18.84027900      16.48200700
H       35.19539100      18.31137700      17.59630600
O        4.73733700      31.61877200       2.66681400
H        4.01252300      32.22050200       2.85199200
H        4.92433100      31.75068600       1.73392900
O       31.46134400      10.63410600      14.58615700
H       32.18473000      11.25902500      14.67511300
H       31.04479100      10.86859100      13.75300500
O       14.45038700      24.76940000      36.44574200
H       14.77043500      25.67403200      36.41514500
H       14.86586600      24.39579300      37.22704700
O       31.21386600      32.37658100      15.49446000
H       31.02509400      31.43704600      15.43646000
H       30.56695700      32.78601100      14.91435800
O        4.63869100      11.67802500      11.64584300
H        4.29312300      10.83310300      11.94318900
H        4.22895000      11.81459300      10.78787900
O       12.33383400      23.85320000       4.15272100
H       12.36604500      22.92765700       4.40581800
H       11.58888300      23.90949600       3.54896500
O       40.40531100       0.92350700      17.29685800
H       40.85458200       1.42394600      16.61170000
H       39.99793000       1.59270400      17.85260800
O       37.50392500      26.46952900       4.17898000
H       38.31021700      26.28327300       4.66573100
H       37.79910700      26.62033100       3.27744300
O       38.30743800      43.38107400      27.88304500
H       38.38725500      43.68496000      26.97584700
H       37.43021000      43.66428100      28.15305700
O        2.72911200      41.03131400       4.74208500
H        2.15628500      40.26635900       4.65023400
H        2.36935300      41.50976100       5.49328700
O       30.63637200      30.54980000      41.64782400
H       29.87330800      30.07069800      41.97936500
H       30.31394400      31.44356100      41.50684700
O        3.85051200      41.64586500      31.82775200
H        3.90997000      40.75702800      31.46976000
H        4.75853700      41.95885000      31.84089700
O       16.01469100      11.82199500       8.91786300
H       16.01143500      11.11230700       8.27128900
H       16.85742300      11.72932500       9.36936800
O       12.65228300      26.68745400      34.62706700
H       13.35596400      26.04488300      34.74394000
H       12.87822500      27.14289700      33.81210500
O        9.26543400      20.92817300      34.52573500
H        9.96645200      20.30221500      34.32958300
H        9.62913000      21.48366500      35.21985000
O       15.86010100      21.28853600       8.97321100
H       16.70899100      21.36764700       8.53179000
H       15.71950100      22.14929400       9.37566300
O        7.89408200      25.59461400      31.00683000
H        7.33280000      25.02440200      31.53743900
H        8.52128800      25.96263700      31.63437600
O       31.15439800       5.63667400      22.47485300
H       30.94979900       4.76454500      22.12951700
H       30.78487800       6.24225700      21.82726800
O        2.60221800      26.76839900      21.20907400
H        2.30198600      27.65637300      21.00149600
H        3.40653400      26.66234000      20.69480900
O        5.53476900       1.97701500       8.92744700
H        5.67201100       2.82537100       9.35544500
H        6.36312600       1.80208900       8.47372000
O        3.85141700      39.09275200      24.41991300
H        4.41294000      39.73680000      23.98217000
H        3.16051400      39.61877700      24.83051400
O       33.06058500       6.33280300      20.76238400
H       33.26492200       6.50837200      19.84089200
H       32.55523600       5.51616700      20.74314500
O       44.99975800      15.86879400      34.10561300
H       44.10090900      15.65251400      34.36449000
H       44.89884800      16.56952400      33.45643100
O       31.04124600      24.44770900       3.22807600
H       31.64718300      24.69149000       3.93173600
H       31.60748400      24.29979700       2.46640800
O       33.60728600       2.41266800      25.54335900
H       33.80676100       1.47375500      25.52393200
H       32.70917600       2.45868000      25.88088500
O       38.63102100      32.15540500      32.28481400
H       39.42173200      32.12097000      32.82824300
H       38.95808400      32.33039400      31.39878300
O       24.57565600      42.10168400      13.63434800
H       25.52227400      42.24515100      13.56324300
H       24.34006700      42.48188800      14.48439800
O        2.23347800      31.19083200      38.20504600
H        1.67974200      31.94087500      37.97583600
H        1.75603600      30.74916200      38.91188300
O       26.17123500      15.37271400      35.31349300
H       25.52086600      16.04032300      35.54380300
H       26.69584800      15.78024300      34.61970300
O       29.53137400      31.00551500      36.35914400
H       29.50672100      31.91877300      36.06405400
H       30.41212600      30.89746800      36.72690000
O       33.49317800       2.31723400      21.27214900
H       32.94427200       3.08310600      21.45617700
H       34.10049100       2.61725400      20.59111900
O       30.35700100       4.67008200       5.73637200
H       31.28989300       4.60282700       5.95296800
H       29.91338300       4.19257200       6.44194200
O        8.76146500      37.56965400      32.01300300
H        9.64691800      37.23552600      32.17442700
H        8.85247200      38.52409500      32.07132300
O       34.16663400      30.89913800      18.76667000
H       34.79223400      31.57119600      19.04718500
H       34.53552200      30.55660100      17.94860400
O       10.59707100      32.99770800       2.24000400
H       10.88107200      32.47705800       2.99498200
H        9.63972400      33.02271600       2.31417700
O        6.09929100      20.19182400       9.72058000
H        6.39451500      20.71193300       8.96954400
H        6.86752200      20.14556500      10.29531700
O       28.11550000      17.94427300      33.19288700
H       28.00600100      16.99107500      33.22680000
H       27.67304900      18.20638400      32.38160600
O       22.25151300      35.30490400       6.49993400
H       23.08949500      35.72774800       6.70171200
H       21.96550700      35.72042000       5.68250500
O       36.14209900      19.40318800      39.93363200
H       36.17816600      19.89841000      39.11193900
H       36.13543700      20.07708700      40.61807100
O       14.16185200      20.84918100      10.73210200
H       13.96681500      19.93184300      10.93746900
H       13.85952000      20.96041100       9.82719000
O        5.92535200      12.95315500       8.62572200
H        5.00095900      13.20535400       8.68588400
H        6.40420100      13.78225100       8.70282000
O       35.76647100      13.30388200      21.25393700
H       35.53481200      13.15478300      22.17362700
H       36.24019000      14.13946400      21.25982600
O        4.83716700      33.46092000      12.86227200
H        5.77931000      33.30492400      12.96105100
H        4.45019100      33.09829200      13.66314100
O       30.25675600       9.53305600      32.57240000
H       30.28831500       8.75084800      33.12816900
H       29.97841600       9.20443200      31.71381100
O       19.13355900      43.11193500       7.13140300
H       20.01553600      42.79683900       7.34248800
H       19.02078300      42.89973100       6.20140700
O       41.64297800       6.06700700      20.81690800
H       42.34543900       6.66144900      20.54320700
H       41.24984600       6.49788500      21.58008100
O       19.50697800      31.78916500      39.99994800
H       19.22100900      32.39644400      40.68635800
H       20.24112100      32.23911000      39.57424200
O       11.17736900      39.70035400      26.78612700
H       11.10901300      40.12237700      25.92650500
H       10.41028800      39.12392900      26.83042400
O       43.62012000      30.83092200      19.06232500
H       43.21313500      29.99266600      18.83120900
H       44.48712600      30.79665700      18.65029400
O       39.16304900      21.46086900      32.07250800
H       39.81806300      20.83473900      32.38975000
H       39.19954000      21.38003800      31.11606900
O        9.90462900      11.00669100       3.09438000
H       10.55993800      10.97110700       3.79511400
H       10.10493200      11.81848800       2.62161600
O        7.86039800      15.75792600      28.46029100
H        7.13501100      16.38677300      28.46982200
H        8.63689200      16.29240900      28.27582400
O       19.28331500      12.20717900       2.80586200
H       18.60444500      11.61488000       3.13759000
H       19.60129500      11.78113700       2.00585000
O        2.00178500      10.48623400       6.92514600
H        1.86330800       9.55161500       7.09554300
H        2.13225600      10.53858800       5.97494700
O       39.44161400      21.14047100      12.28025600
H       39.11845600      22.02310100      12.47585300
H       40.15217500      21.28108100      11.64940400
O        2.51521100      27.56165000      28.25733800
H        2.36080400      28.36795200      27.75958200
H        2.21140800      26.86037300      27.67548200
O       34.14041000      15.53790800      29.42032900
H       33.66006700      14.70674800      29.43329400
H       33.78515400      16.00678200      28.66099300
O        3.14557100      25.10156000       0.73012200
H        3.82646400      24.44071800       0.58384200
H        3.27361000      25.73681700       0.02111100
O       14.86479300      31.66359000      12.01230000
H       14.47960700      30.79008000      11.91062900
H       14.15171100      32.26633800      11.78679800
O       44.99914700      18.05395500      10.20209800
H       44.58945200      17.41332800      10.78816200
H       44.67339800      18.90286700      10.51173900
O        6.37391000       5.91922600      27.22087600
H        5.74263900       5.34883600      27.66570800
H        6.60158400       6.58137500      27.87842200
O       20.99468400      41.02681700       5.48961200
H       20.12346900      40.66969000       5.67714800
H       20.83562100      41.95406200       5.29581400
O       43.08954300      19.69476800       7.87066700
H       42.20119600      19.35813900       8.00940000
H       43.12855300      19.88405900       6.92976900
O       39.48801300      33.35783100      27.53615400
H       40.27488200      32.84269200      27.72901200
H       39.26711100      33.77749000      28.37145700
O       29.53218400      27.63226100      44.58102400
H       28.78106000      28.06280900      44.99595400
H       29.71569200      28.16826900      43.80535500
O       16.16662900      16.53423500      35.06274800
H       16.41657400      15.61795800      35.20306500
H       15.24457200      16.49183300      34.79693700
O        5.91762600      18.51505500      24.31059200
H        6.22946600      18.86325800      23.47200000
H        5.40141900      19.23128200      24.68899800
O        3.79102700      18.73179700      44.10162400
H        3.27771600      18.20584600      43.48387600
H        4.45726700      18.12539900      44.43486100
O       25.87972900       9.40160200      10.70310100
H       25.95165700       9.73745100       9.80657600
H       26.67704500       9.71290400      11.13901500
O        7.45082800      29.95707300       3.11799800
H        6.97533000      30.46740400       2.45830900
H        7.58587900      29.10044600       2.70496900
O        8.62576700      35.21299600      31.25423700
H        9.31754700      34.88121700      30.67709900
H        8.37647200      34.45441500      31.78813600
O        7.85077800      24.53368100       5.92756800
H        8.74259800      24.82801700       6.12693900
H        7.96402900      23.88901600       5.22455700
O       38.98683100      35.42339800       7.59102500
H       38.65143400      36.32295900       7.58602500
H       38.59262500      35.02629300       8.37176300
O        7.36528200      13.83289300      24.30082300
H        6.73362000      13.12613500      24.14843800
H        8.15113600      13.55767800      23.82193700
O       35.57959200      32.18634100      34.44957800
H       35.23458300      32.08721700      35.34001000
H       35.05931000      32.89912800      34.07026000
O       40.97066200      27.56846100      13.63894200
H       41.38919700      28.36384400      13.97646100
H       40.75933400      27.05833800      14.42491800
O       41.13854100      10.67837100      16.36723600
H       40.49770700      11.07362400      15.77155800
H       41.14541200       9.74837100      16.12704000
O       32.36407600      16.53377900       2.82589400
H       32.50501700      17.05802300       2.03404300
H       32.64787200      15.64963700       2.58014200
O       22.92654400      41.61202000      25.87931300
H       23.28619100      41.78166900      26.75315400
H       21.98165300      41.51839500      26.02442200
O       37.83106300      15.62869000      20.96742400
H       38.73805500      15.50529600      21.25701700
H       37.78967900      15.18391200      20.11707000
O       39.19444500      36.94856300      29.17708300
H       38.41026800      36.87393500      29.72592000
H       38.97125000      37.62544100      28.53314000
O       11.31903700      28.30552100      42.11854300
H       11.47872400      29.18575100      41.77008900
H       10.55307800      28.41010400      42.68864000
O       30.37297400      19.95070500       2.57496900
H       30.14662500      19.01891400       2.52746200
H       31.33295500      19.96159400       2.60595300
O        0.40673300       3.51898000      30.45986900
H        0.00052200       4.36159600      30.24373200
H        0.02745500       3.28256200      31.31010200
O       40.64583200      14.67062700      15.90332200
H       41.31324900      14.50801500      15.23262400
H       41.14159000      14.99545800      16.65919900
O       42.42950700       4.07105100       2.40031700
H       42.03365700       4.57092000       3.11806300
H       43.19787200       4.58792800       2.14518100
O       34.19767400      40.67207800      39.77872700
H       35.15208200      40.61376800      39.86492800
H       33.91637000      41.15152100      40.56208200
O       15.18183800      32.53838400       9.70302300
H       15.28989400      33.45791000       9.95703200
H       15.81507300      32.41143900       8.99200900
O        8.07931700      13.82355300      15.60836600
H        8.12692300      12.90625400      15.88768800
H        7.40838300      13.82897600      14.92100900
O       22.23054400       0.55601000      31.94243800
H       21.39738600       0.95992200      31.68861100
H       22.67589100       0.38410600      31.10891700
O       26.04092300      40.73194500       3.89765700
H       26.08046600      41.66621200       3.68015600
H       25.32571500      40.66567400       4.53541000
O       14.37272700      25.49632000      15.65715100
H       13.75681200      24.76912100      15.54072300
H       14.11319200      26.13760700      14.99079200
O       26.68916700       2.56042600       8.29409500
H       26.38570600       2.38413100       7.40047500
H       27.00679500       1.71075100       8.61001800
O       38.17578300      15.35619100      37.84540800
H       37.89367300      14.46623500      37.62154000
H       38.82830200      15.23202000      38.53926900
O       34.17307800       1.95317300      35.21477800
H       33.46339500       1.48501400      34.76879300
H       34.60678500       1.27970300      35.74485200
O       22.44090100      24.09966600       2.97536500
H       21.85460400      24.84913700       2.84779400
H       22.13467200      23.69336000       3.79009300
O       38.91981000      15.79064100       3.66381800
H       38.56544300      16.59583100       4.04829000
H       38.65995200      15.09893500       4.27754400
O       21.30321900       7.48947100      29.24514000
H       22.15314000       7.27082400      28.85584200
H       21.26945800       6.96901000      30.05175200
O        3.44528300      25.53504000      14.25787500
H        3.56502000      26.15039800      14.98500800
H        4.13601600      25.76783900      13.63230800
O        8.24928400      22.35886700      17.80136900
H        8.14387500      21.98543600      16.92321000
H        8.73995100      23.17197900      17.65737200
O       21.92968700      17.89164700      43.77957000
H       21.31691700      18.62909900      43.73055900
H       22.45380000      17.96345800      42.97782800
O       36.96664200       9.70734300       7.93938100
H       36.27312700       9.53918800       8.58163300
H       37.52017900       8.92316000       7.97536800
O       26.06708200       1.22290900      41.18418700
H       26.93346700       0.93642100      40.88581200
H       26.23479500       1.65050500      42.02779600
O       18.37800800      40.55377100      39.07801900
H       18.84560600      40.90763400      39.83818900
H       17.63900900      40.07066900      39.45635100
O       20.68358600      23.81751100      43.78033900
H       20.22476600      23.11024600      43.32100600
H       20.00043100      24.24476500      44.30321100
O       44.31438400      32.87520600       9.85378100
H       44.96400300      33.32408300      10.39988500
H       44.29256500      31.97856200      10.19757600
O       14.13065400       9.56468500      25.76076200
H       13.76946800       8.67961900      25.67171900
H       14.15632200       9.71747400      26.70872700
O       32.35850500      43.04828600       5.74709200
H       32.35464400      42.19401200       5.30899900
H       33.14502100      43.03007600       6.29818400
O        5.49037100      12.75464000      33.47746200
H        6.01580400      12.99743900      34.24342200
H        5.55544100      13.51426200      32.89318300
O       27.91173500      27.53736500      17.07453000
H       28.15811100      27.83728800      16.19642500
H       28.60839800      27.87191300      17.64495100
O       33.74091900       1.71169800      14.12641800
H       32.90883900       2.17427500      14.25047400
H       34.06289300       1.55688500      15.01805000
O       30.96865800      20.01905700      35.93596800
H       31.48454400      20.56652800      35.33942600
H       31.49290800      19.22103500      36.04068600
O       40.31830300      12.85695400      23.50475500
H       40.88526600      12.64595100      22.75926400
H       40.11859300      13.79016600      23.39579400
O       10.07951400      39.06240400      10.40128400
H       10.82807000      38.46472100      10.33675000
H        9.58762400      38.74702400      11.16366300
O       21.44469700       7.30452800      18.17094400
H       22.38926900       7.45839300      18.24731700
H       21.36903500       6.36029300      18.01176800
O        1.68419400      34.00207700      37.12937500
H        2.49540700      34.42445200      37.42136500
H        1.08958100      34.08369100      37.87931900
O       28.17760700       6.43902500       4.59764700
H       28.99200400       5.93062300       4.59471300
H       27.48650100       5.78156000       4.71058400
O        7.01072600       2.82296100      11.55829800
H        6.88591100       1.87583900      11.46287200
H        7.96157200       2.93099800      11.64114100
O       13.69786400      38.69829000      25.24169400
H       12.94011500      38.81985700      25.81854900
H       13.33046600      38.73331000      24.35488200
O        8.89871400       6.26013200       2.35725200
H        9.56344700       6.06303300       1.69316900
H        9.13054400       5.69802000       3.10084300
O        4.18712200      23.03105800      10.41381100
H        4.84014500      23.21271300       9.73389400
H        4.10744700      23.85853300      10.89503800
O       44.19702800       1.76252400       1.22572700
H       44.17648500       2.43951200       1.90616100
H       44.99753900       1.26434200       1.40913800
O       32.85187800      11.13348400       9.58858500
H       32.49045700      11.68300600       8.88921000
H       33.32158700      10.43565600       9.12484800
O       34.53108000      20.75130800      20.16191500
H       33.75722000      20.95397500      20.69275500
H       34.57799800      19.79191800      20.16537300
O       21.99473300       1.53086300       9.26445500
H       22.60772000       0.81878400       9.46172700
H       21.61522400       1.76158200      10.11615000
O       10.88513500       2.99026200      41.38317600
H       10.91198400       2.11782400      40.98335600
H       11.78296200       3.13957400      41.69018500
O       22.33955200      44.56490200      26.70592000
H       23.28342000      44.56811100      26.88149800
H       22.16252600      43.68261800      26.36994500
O        4.01187800       2.10327600      26.49265000
H        4.21859400       2.71616800      27.20212700
H        4.65127600       1.39401900      26.59641000
O       28.60097800      12.26834500      38.21472000
H       28.13673000      11.42811000      38.22898000
H       28.15701500      12.77445200      37.52959600
O       22.13096200      24.78501600      42.25667600
H       22.39340100      23.89665800      42.00434400
H       22.75051300      25.02908800      42.94893800
O       40.88313400      16.11171300       4.64045900
H       40.30116800      16.17235600       5.40161800
H       40.72811100      16.92667700       4.15626500
O       25.68088300      37.83737800       8.74465500
H       25.53643600      37.47926900       9.62364200
H       24.79691200      37.97064400       8.39326000
O       26.04845500      42.56651600       9.64520000
H       26.05960800      42.00829900       8.86417800
H       25.23242700      42.33191300      10.09431200
O       34.90106200      38.43240300      35.46853700
H       35.82933800      38.56632600      35.26337100
H       34.90681400      37.98702200      36.31956200
O        9.45928500       1.93949700      38.83582900
H       10.23013900       2.08142100      38.28142400
H        9.45613400       2.68923500      39.43626700
O       24.64458000      17.81096400       1.55945700
H       24.29664200      18.68612200       1.37301000
H       24.92782000      17.47965300       0.70350700
O       33.37131600       7.93028200      33.31437900
H       34.13904900       8.42641000      33.60792500
H       33.67919100       7.44952900      32.54189500
O        0.82442000      41.26108600      17.42236400
H        0.68993800      40.40987900      17.84555100
H        1.71426300      41.51666300      17.67829600
O        0.66084400      38.94334500      14.96649100
H        1.01528700      39.82102900      14.80597200
H        0.00007100      39.07460200      15.65117500
O       38.61462800       7.97243400      28.72105900
H       38.00629900       8.42594100      29.30927000
H       38.04880600       7.56793800      28.05858600
O       16.53791700      14.69562800      10.70610100
H       16.01925800      15.37431600      11.14439400
H       17.16511500      15.18518600      10.16795700
O       27.54709700      29.08611800      40.68691800
H       27.72949200      29.98828800      40.95994800
H       26.71245200      29.14393700      40.21504300
O       33.28606900       9.34509400       0.63048400
H       33.35097700       8.47503600       0.22984500
H       34.00609500       9.36936300       1.26579200
O       21.11774900      31.39462100       3.25070300
H       21.77088600      30.71385800       3.42874100
H       21.18954300      31.99495500       3.99708600
O       15.27239900      28.42951500      34.32628900
H       15.68317600      28.25988200      35.17729600
H       15.02679500      27.55922700      34.00237800
O       42.87824600      20.94699900      23.30716200
H       42.56664800      20.85195800      22.40405700
H       42.98522400      21.89438600      23.42401800
O        3.91955600       3.16027100      13.89861000
H        4.36685300       3.99563500      13.74428600
H        3.89523300       2.73979000      13.03533300
O       14.38913700      12.34659000      10.75419100
H       15.02456600      12.14101400      11.44389700
H       14.79521700      13.06471800      10.26222200
O       40.27801500      22.51507600      24.92376600
H       40.99980500      23.11981700      24.73659900
H       39.83483400      22.90071400      25.68371000
O       23.94368200      11.43392900      11.23215700
H       24.45571100      12.05955200      11.74998600
H       24.48784000      11.26224500      10.45946100
O       25.43704700      43.99315100      39.29066100
H       25.85011600      43.50632300      40.00766700
H       25.83354900      44.86685300      39.33619900
O        5.93796800      21.67303200      32.50166100
H        6.71784400      21.44451900      33.01283500
H        6.28576600      21.98130200      31.66103700
O       31.57126200      11.77115700       4.96649100
H       31.78262900      12.57448500       5.44785800
H       32.12265300      11.09768800       5.37275400
O       14.43307400      26.82278600      18.86388700
H       14.42153100      27.78276000      18.87045800
H       13.68276700      26.57158300      19.40847700
O       19.68708000      17.63125600       9.79094200
H       20.15734000      18.25725800       9.23533100
H       18.78698400      17.64432500       9.45583500
O        2.69045000      26.30466700       4.42762800
H        2.47025000      25.50543600       3.94341000
H        3.31952500      26.01461400       5.09304200
O       20.24667500      35.09924300      15.16935100
H       19.68956700      34.32824700      15.03926600
H       20.69545900      35.21383900      14.32786200
O        3.21796200      37.77888000      16.29170800
H        2.36303900      37.88210700      15.86723600
H        3.57514900      36.97068500      15.91503800
O       43.49908800      39.80601100      25.94127900
H       43.59127000      40.63144400      26.42282700
H       42.61307300      39.50288100      26.15512700
O       43.44627200      22.86865000      35.93868700
H       43.72282700      23.74988400      35.67663900
H       42.84218400      23.01616800      36.67077900
O        7.12600200      27.60306700      24.06772900
H        6.93318600      28.13433000      24.84381300
H        8.03022700      27.83339100      23.83976100
O        7.45200900      32.30826600      33.53294900
H        7.13602900      32.48936700      32.64464500
H        6.69254900      31.93065500      33.98380600
O       25.07663800      23.85858500      38.78211800
H       25.46769800      24.66402100      39.12863000
H       25.25970400      23.19660600      39.45361900
O       25.12058200       6.54907900      34.26968800
H       24.79157800       7.34201900      34.69948800
H       25.59746900       6.87439300      33.50196900
O       16.49850000      15.89683400      43.13359200
H       16.22276000      15.21951600      43.75563100
H       16.91599300      15.40884400      42.41930400
O        8.29092400      41.04484400      43.00769700
H        7.58830900      40.63087300      43.51433800
H        8.48248700      40.41577800      42.30753900
O       15.50821100       4.53338500      32.84913500
H       16.09343700       4.26873400      33.56271500
H       14.64456400       4.60538300      33.26334800
O       22.76932400      37.92343000      19.28281400
H       22.47666800      38.49115300      18.56603700
H       22.12394600      37.21227200      19.30240400
O       13.87222400       1.73995700      18.70294800
H       13.43745500       2.48776400      18.28643400
H       13.24975900       1.44477500      19.37231100
O       15.84168700       8.36658800      23.36995700
H       16.76621000       8.42065200      23.11685900
H       15.75178400       9.00466600      24.08228800
O       31.81882600      39.36355800       5.89009800
H       32.49668600      39.63745100       6.51236300
H       31.79192800      40.07050400       5.24036900
O       25.87172700       2.20933700      29.92677700
H       25.32982900       2.79600100      30.45959700
H       26.49352400       2.79387000      29.48594700
O        9.01745400      38.40586400      25.27729800
H        9.22812900      39.29570200      24.98484400
H        8.34679800      38.52970500      25.95370400
O        9.80769200       8.90000700      40.38603600
H       10.41067000       9.08873200      39.66317800
H       10.33194300       8.38675600      41.00601700
O       22.56173600       4.73889400      28.44480900
H       23.18001700       4.06544400      28.73792800
H       23.11952000       5.44116700      28.10081600
O       23.73482400      16.87138200      30.74535500
H       24.31777600      17.63097200      30.67524300
H       23.98528000      16.45425400      31.57355700
O       23.81431600       3.62153900      33.27122000
H       24.53080200       4.21256000      33.51425600
H       24.14288500       3.15319500      32.49963800
O       29.33150700      10.24189500       7.15591600
H       29.35281700       9.36265300       7.54089100
H       30.09438800      10.68636500       7.53420300
O       24.92486900       9.83135900      12.71912600
H       24.25294800      10.36967300      13.14393800
H       25.29081100       9.30083500      13.43135700
O       43.13591300       5.93649600      12.53434000
H       43.96491700       5.76751400      12.08055400
H       42.51842400       6.15144300      11.83067300
O       17.21183000      26.18332000      33.36273900
H       16.29838700      25.89627200      33.29238100
H       17.15526400      27.07330000      33.71964000
O       36.72184200      19.52302800       4.19148700
H       36.79284100      18.58798700       4.39735600
H       36.89444200      19.57319800       3.24791200
O        3.20720000      30.24913500       7.21412200
H        3.52694500      30.37982900       6.31835000
H        2.60736000      30.98447000       7.36283900
O       15.46639600      44.45216300      29.67492100
H       15.20747100      43.59953300      30.03228100
H       14.83155000      44.61956100      28.97378500
O       33.59413300      19.45642800      38.65786200
H       33.96234800      19.34047400      39.53689400
H       34.16790100      20.10533300      38.24270600
O       14.71608000      12.16094300      44.90673400
H       15.36009800      11.49419600      44.65690700
H       14.05748700      12.12985500      44.20821300
O       17.61117700      34.69956000      16.92093100
H       16.82294800      35.19086200      16.67794900
H       17.50251300      33.84708500      16.49183900
O        5.19099200       3.94081400      29.75751200
H        5.31133000       3.03159100      30.04133800
H        4.54083100       3.88646300      29.05254600
O       15.68205100       1.68886300      28.90508500
H       14.81821000       1.76562900      28.49324700
H       16.25909700       2.21874300      28.34930900
O       29.79628500      39.43297300      44.30458600
H       29.77286200      40.35467200      44.57225800
H       29.71079000      39.46017800      43.34824300
O       22.12736400      18.87642400       1.73506600
H       21.94379900      19.30623200       0.89644000
H       22.41571700      19.58952200       2.31038000
O       36.91887700       5.40323700      41.27514100
H       37.17388100       4.55766500      41.65158000
H       36.76577000       5.21410500      40.34593200
O        8.16068200      18.67176500      16.03441600
H        7.26878000      18.96459400      15.83319900
H        8.04214400      17.97863000      16.68875100
O       23.36081300      42.31553700      39.73752900
H       24.14262100      41.76901300      39.84622100
H       23.28253600      42.78800100      40.57017100
O       26.52280800       3.39900300      32.59936200
H       26.53393400       2.59398600      33.12238000
H       27.02258600       3.17718200      31.80964000
O       20.26048000       9.64845500      28.09916700
H       19.71745300      10.43945400      28.13334800
H       19.84095700       9.04436000      28.71699500
O       10.60985200      43.16460900      25.82357800
H       10.97637300      42.64785700      25.10222200
H        9.66653000      43.18897300      25.64415300
O       19.55814200      26.63976100      34.22977700
H       20.51006800      26.70486500      34.33618000
H       19.44141800      26.25896700      33.35569800
O        5.07592500      15.23814400      28.00555400
H        4.95518600      16.10771900      28.39412400
H        5.59101400      15.40129700      27.21138400
O        8.46909900      36.81216700      28.48842200
H        8.56723300      35.94603600      28.89080300
H        7.61726800      36.77447600      28.04615000
O       14.80937700      19.93745700      43.19900800
H       13.87533300      20.10495100      43.34472300
H       15.25281100      20.67985100      43.61717200
O       22.66976700       6.37200400       1.61856800
H       21.74670500       6.40480300       1.35664000
H       22.64364400       6.19668000       2.56261300
O        4.52838700      18.54911700      17.33094100
H        4.64325400      17.70968100      17.78246800
H        3.57731700      18.68263600      17.31414800
O       12.51326500      14.56437300       4.26030900
H       12.82001100      14.09983400       5.04250800
H       13.29999100      14.66397100       3.71829000
O       16.77541800      41.48204300      10.87014200
H       17.60803400      41.95884400      10.83644100
H       16.99985200      40.63834200      11.27069200
O       14.32089800       6.77144400      33.47192200
H       15.09742500       7.27202900      33.21087500
H       13.66784600       7.44110900      33.69035600
O       36.98055500      30.52185600      32.08965000
H       37.61773400      30.18312600      32.72288900
H       37.43659600      30.47729200      31.24544500
O       36.91039700      41.83239000      35.91398200
H       37.06695100      40.89578400      35.77261400
H       35.95723500      41.92810500      35.84353000
O       27.57174600      37.99061000      23.26056700
H       27.74484600      37.06302600      23.43762400
H       27.02128700      37.98441600      22.47342100
O       14.77681800      21.83345000      31.25945500
H       14.67015600      21.83787400      32.21356600
H       15.70979600      22.01667400      31.12298600
O       12.74564400      29.84240700      12.95674000
H       12.46940500      30.74889600      12.80280900
H       12.17369000      29.53584700      13.66492900
O       27.26619900       1.93927200      13.55265300
H       28.21891800       1.82544500      13.58575800
H       26.94667800       1.14780900      13.11204700
O       39.41378000      26.68684400      21.47549100
H       40.21685400      27.18412200      21.64728200
H       38.71856300      27.20760300      21.88552100
O       19.42365200      21.00344700      41.87477600
H       19.80561200      20.15742400      42.11988100
H       18.97437300      20.83037900      41.04361000
O        4.46082100      42.41901600      22.46210900
H        5.08389600      43.01858400      22.87926700
H        4.70893700      42.42499900      21.53418400
O       16.25141000       0.38852800      31.80556300
H       15.59166600       1.01319400      31.49531100
H       15.86190100       0.00233600      32.59409400
O       26.06757900       7.93245100      17.68859800
H       26.62015300       7.52488100      17.01757300
H       26.41413500       7.59659700      18.51910500
O       30.39711000       8.79850300      37.64726200
H       29.49473300       8.96177000      37.36303700
H       30.93657200       9.28776600      37.02096700
O       12.59131100      21.60621400      31.55673700
H       12.66729200      22.42077200      31.05429600
H       12.71083500      20.91154600      30.90420900
O       19.10898600       4.23034500      41.08541000
H       19.40083600       3.68907500      41.82268600
H       19.42388500       3.76327700      40.30738200
O       38.27020300      15.40697600      34.01978700
H       38.35516700      14.57599400      33.54652800
H       39.07227800      15.46529800      34.54506500
O       41.36287400      27.66467100      43.10606400
H       41.75679100      26.81400600      43.31324400
H       40.43521700      27.55917800      43.33182000
O        2.35232000       3.67528300      36.18921100
H        2.77110700       3.55948400      37.04532600
H        2.48635400       4.60354300      35.98182100
O       12.67683100      22.28467300      36.93421900
H       13.55538100      22.61204200      37.14087000
H       12.81443000      21.67835200      36.20204100
O        8.69303900      19.57371600      36.38215400
H        9.40326000      18.94484300      36.52990300
H        8.26605200      19.26665700      35.57838900
O       13.27059600      13.47149800      13.42877400
H       12.81953000      13.54900800      12.58482100
H       14.01497900      12.89168400      13.24890700
O       32.11180200      40.98758300       1.54391100
H       31.74439100      40.54914200       2.31495100
H       31.63821700      40.60237000       0.80231200
O        9.11415200      44.58994200      16.74290000
H       10.01460200      44.25691400      16.74569200
H        8.71208200      44.18370000      15.97092300
O        8.62838700      18.81997400      19.58324800
H        9.32380100      18.15820700      19.56949300
H        8.00213900      18.52160100      18.91884600
O       40.73215600       3.43253000      15.73640900
H       41.61971600       3.37468100      15.37500000
H       40.19160200       2.92840900      15.12297200
O       30.80299300      31.44445100       8.85342600
H       29.89650800      31.69772000       8.66404300
H       31.24686300      31.49339800       8.00299900
O       40.40405300      34.19015300      32.99717000
H       39.69507900      34.53465900      33.54525600
H       40.03322700      34.17194800      32.11128100
O       29.05043100       1.92256700      25.02108300
H       28.49051600       2.40133400      24.40545100
H       28.98011600       2.41715800      25.84149600
O       31.88857700      17.49378300       4.74566500
H       31.73026000      18.29771500       4.24531100
H       31.54044100      17.68483100       5.62027600
O       43.26187600      15.10128500       8.84425800
H       44.01719600      14.50960300       8.87787200
H       43.04341000      15.15623100       7.91050400
O       17.49998200      25.09202800      36.12055000
H       16.78990200      25.38758000      35.54595400
H       17.14211700      24.31831700      36.56320900
O        6.92319700      41.72373400      31.73739400
H        6.61433000      40.84228000      31.95957400
H        7.53998700      41.58501900      31.01422700
O       18.68998900      23.52298300      40.68402800
H       18.47126100      22.76873700      40.13176400
H       19.49903000      23.26369800      41.13220900
O       26.04186500      40.53146100       6.89650300
H       25.44753100      41.24555200       6.65449800
H       25.53535800      39.99893800       7.51497800
O       34.43415100      38.66638500      11.16774900
H       35.21694300      39.09078700      11.52669700
H       34.58279900      38.65540400      10.21884100
O       15.98310300      37.62722400      35.27872100
H       15.80236100      38.35861100      34.68363300
H       15.14022800      37.45288300      35.70511300
O       20.36946900      35.89435800       8.72202200
H       21.09067400      36.17385700       8.15327900
H       20.51775300      34.95406000       8.85044600
O        7.76686200      10.50894400      28.52654800
H        7.67042700       9.75585000      27.93894700
H        7.03141700      11.08380200      28.30005000
O       20.80871900      11.92652200      11.87360900
H       20.25346100      12.35063600      11.21517100
H       21.21257000      11.19063100      11.40669300
O        1.33101200      12.10261200      39.61950300
H        1.47076500      12.67297000      40.37903400
H        0.86648200      11.34097300      39.97553600
O       24.88809800       2.17961600      21.22779300
H       25.72667700       1.72046200      21.14011500
H       24.59643600       1.97514000      22.11984900
O       15.74809300      19.89056100      39.46663500
H       16.19192600      20.07884800      38.63640300
H       16.17339500      20.47237100      40.10166100
O       25.58762400      20.15482600       9.69346400
H       25.66464000      20.37829900       8.76295100
H       24.97432100      19.41578200       9.71121600
O       29.92693400      29.20860700      20.11457900
H       29.87835900      28.32092900      20.47706000
H       29.67781200      29.77889300      20.84625800
O       32.14531100      32.42220900      17.73836800
H       31.20446600      32.23742600      17.68948300
H       32.25605900      33.23102800      17.23221800
O       37.77797600      15.85113200      25.66087800
H       37.33306600      15.03417400      25.89828300
H       37.20976100      16.24741700      24.99549700
O        5.78885700      33.06386000      27.95043300
H        6.55564800      33.47025800      27.53982700
H        5.38693400      32.54806100      27.24683500
O       34.47351800       7.98265100      10.43150300
H       34.75644400       7.48425300       9.66125800
H       33.73989200       8.51548100      10.11444300
O       21.37669500      22.29305300      37.43415600
H       20.48173500      22.25543800      37.77963700
H       21.28924700      22.75227000      36.59504100
O       41.84224000      23.09355700      44.18616400
H       41.82295700      22.17473900      43.90844700
H       40.92570600      23.30216800      44.38387200
O       43.44933800      11.15549000      21.62643500
H       44.05149400      11.90282400      21.65144100
H       43.57203400      10.77962000      20.75104400
O       34.67564300      23.49832100      39.68441600
H       35.60639300      23.40999500      39.90265700
H       34.67201200      23.79199700      38.76987600
O       11.72706600      43.35290500      11.43684300
H       12.20126200      42.66850900      11.91482200
H       11.26705200      42.88072800      10.73821700
O       11.36479500      31.69707100      36.56045100
H       11.48086000      30.92747200      37.12256500
H       10.61457000      31.47451900      36.00342800
O        5.92823000      19.21721300      13.33235900
H        5.07736000      19.37644800      12.91716100
H        6.28098800      20.09523900      13.49751000
O        5.44843000      35.44617100      41.99343600
H        5.31681600      34.65235300      41.46974100
H        6.23772100      35.26328400      42.50939600
O       19.16253900      27.36478600       9.10457100
H       20.00503200      27.67964100       8.76872000
H       19.08860000      26.47038800       8.76218700
O        1.56871000      18.77788200       5.28816300
H        0.66818100      18.89340400       5.60029500
H        1.76586000      17.85462700       5.46528700
O       13.25144700      44.06301100       9.68222400
H       13.81676400      43.85219300       8.93543300
H       12.37098300      44.12820000       9.30383900
O        0.88598300      33.87134800      17.66347000
H        0.00915900      34.22774800      17.50258600
H        0.75873100      32.91930000      17.67077900
O        0.57287800      42.45970500       6.33569900
H        0.00101400      42.49228700       5.56522200
H        0.00002500      42.15794200       7.04522100
O       37.52004800       1.71565300       9.39695100
H       37.61747100       0.84120300       9.01280100
H       38.28870300       2.20002400       9.08518700
O        1.72582300      40.64938000      32.14367500
H        2.27851800      40.57645600      32.92529800
H        1.08810200      41.33257200      32.36549300
O       40.22811800      32.20000200      39.05491000
H       39.35275600      32.59254100      39.09206500
H       40.78885300      32.82286800      39.52422400
O       26.04540900      15.74366200       3.85985300
H       26.14868100      16.65151100       3.56511600
H       26.40610500      15.21737600       3.14182500
O       42.78806700      29.93551800      43.44875700
H       42.51628300      29.56423100      42.60614000
H       43.65810000      30.30462000      43.27715400
O       19.96978200      30.93367800      44.98228700
H       19.57343200      30.32400200      44.35544800
H       19.36834200      31.68242100      44.99951600
O       21.12708600      41.37562400      40.44088400
H       21.89747700      40.80969300      40.35175300
H       20.99446500      41.73810100      39.56130200
O        1.70075000      23.07446300      44.45544600
H        0.94267700      23.32294200      44.98958900
H        2.02968200      22.27144500      44.86728100
O       25.69770800       7.82672400       8.43778100
H       25.67195900       7.30784200       7.63042500
H       26.62409600       8.05757400       8.54339900
O       13.53108700      18.78611200       1.21854000
H       12.84041500      19.38601500       1.50976600
H       13.59813100      18.94078500       0.27290600
O        2.33499300       8.18450300       1.07156300
H        3.11148600       8.65333000       0.75694400
H        2.48291600       8.08461800       2.01537600
O       35.47013700      30.49515100      21.28481200
H       36.08246600      29.85171700      21.64919000
H       34.99931100      30.01459600      20.59922300
O       13.08172100      30.38473900      16.49760100
H       12.14671600      30.31866400      16.28993800
H       13.14453900      30.09188800      17.41025300
O       12.22424900       1.30821500      11.07681700
H       12.17778700       0.72121400      11.83510300
H       13.11611200       1.19197900      10.73960600
O       34.93315800      10.86255000      22.70769000
H       35.18621400      11.38550300      23.47202500
H       33.97340800      10.84137100      22.74044700
O       36.31155400      15.47214600      40.96241000
H       35.66709300      14.84222700      41.29346700
H       35.82622900      15.99330200      40.31782000
O        4.10854300       7.68053200      26.91654700
H        3.47655200       7.34100400      26.27855500
H        3.60018200       7.78132300      27.72528300
O        3.49452300       8.79943200      36.62608600
H        3.48480300       7.83992200      36.59492900
H        2.59836600       9.03898400      36.87540300
O       38.26396500      30.77203700      12.24407600
H       38.84231700      30.05071900      12.50279200
H       38.02265300      30.57037100      11.33647400
O       43.22702300      19.59151900      38.66228300
H       42.52573600      18.93672300      38.62816300
H       43.74008700      19.35119500      39.43794500
O        6.99106900      37.41881500      30.71315600
H        6.98144800      38.35483500      30.92646000
H        6.52018500      37.35972800      29.87804100
O        9.88534800      13.36669000      14.42503200
H       10.58658900      12.79479900      14.10421000
H       10.32975400      13.98113600      15.01460800
O       12.94591000      18.32001100       9.41828400
H       13.61461300      17.72967500       9.77334200
H       12.73534000      17.95109200       8.55677400
O       42.50951300      11.31638400      23.60323200
H       42.48061100      10.37195800      23.77337500
H       43.34154300      11.60269900      23.98845000
O       37.72992800      29.83948100       3.21302200
H       37.35036100      28.95780200       3.23021900
H       37.54429400      30.16175200       2.32740100
O       26.05283900       7.07954500      12.55489100
H       26.93285000       6.74405900      12.74131500
H       25.87374500       6.79253100      11.65589600
O       19.86708800      11.44553700      15.02012700
H       19.33546600      11.03678500      14.33308600
H       19.24752400      11.60833200      15.73586300
O        5.46651600      18.85801300       1.24620700
H        5.93727400      19.34952800       0.56906200
H        4.64993100      19.34788200       1.37213800
O        7.86413700      24.16991800      15.24846700
H        7.26628800      23.50905200      15.60561800
H        7.30976400      24.71075700      14.68030700
O       35.05662200      19.89307500      35.86935200
H       34.25208600      19.66287600      35.39876100
H       34.99153500      20.84206800      36.00283500
O       18.47819700      11.65074900      34.86397500
H       18.44711800      10.69282700      34.92005100
H       19.03435400      11.91482900      35.60126300
O       11.34554100      21.08963600      12.08689000
H       11.17277600      21.45077900      11.21427700
H       12.24267000      20.75092600      12.03141700
O       12.42630900       6.02956000      14.02254500
H       11.54302100       6.37519900      14.17107500
H       12.63082400       5.54462800      14.82607300
O       11.37572700      34.57560000       5.24979400
H       12.20410600      34.53552400       5.73343400
H       11.44176500      33.86701800       4.60466500
O       20.75984700      35.52216700      20.45616600
H       20.53595700      34.58907300      20.42560500
H       20.40713700      35.87894800      19.63705400
O       25.97155000      13.81804600      31.79796600
H       26.37589700      12.98329000      31.55015300
H       26.64716300      14.26674800      32.31260800
O       19.57324600      36.98492000      25.42191800
H       19.79661600      36.86214400      24.49630700
H       19.30823600      37.90615300      25.48307600
O       37.55340700       1.74648200       0.67315100
H       36.63289600       1.97408200       0.82342300
H       37.93671300       2.54139000       0.29388700
O        8.93163200      29.72308800      25.47879300
H        8.25186400      29.39486800      26.07201400
H        8.47911500      29.84135400      24.63981500
O        2.26139500       7.98292000      39.17431400
H        3.21552500       7.87724300      39.18821100
H        1.95014700       7.26551700      38.61655100
O       19.05991300      42.38740200      25.16685000
H       18.71584800      43.13013000      25.66854700
H       20.00404200      42.39732300      25.34338100
O       38.98316300      23.48726000      14.13687200
H       39.67621000      22.88633900      14.42025300
H       39.42169100      24.08671600      13.52778500
O       43.39420700      20.22850500      29.16499200
H       44.26364300      20.03478400      29.52315100
H       43.40940700      19.84800300      28.28315900
O       44.23508200      22.05787400      21.45359800
H       44.60623100      21.19517900      21.65292700
H       43.61674100      21.89175100      20.73756800
O       24.90151500       8.09955800       1.26192700
H       25.31090700       8.37876400       0.43963300
H       24.14529500       8.68330100       1.36201600
O       34.60218100      35.06987400      23.34434800
H       33.67751700      35.19465600      23.57051000
H       35.00697800      34.75971500      24.15834000
O       29.42554300      34.40124600      17.09426400
H       29.43314600      33.44967100      17.22143100
H       30.30897800      34.60660000      16.77801500
O       16.80667400      19.50285000       6.03439800
H       16.55101300      20.10903100       6.73361700
H       15.98329500      19.29655400       5.58480900
O       16.57851200       5.19308700      15.25907200
H       15.84548400       5.17608900      15.87883500
H       16.36167900       4.51459500      14.61465500
O       30.86149700      36.07607300      30.44867600
H       30.95061200      35.13823900      30.63374400
H       31.76208100      36.40956000      30.46807700
O       33.99622500      35.86832200      42.05267900
H       33.15643800      35.81542800      42.51494100
H       33.98053600      36.72950700      41.62752400
O       19.86426500      14.05133800       3.88366700
H       20.00169400      14.73427000       4.54430400
H       20.75047400      13.80859400       3.60375100
O       17.60054900      34.77471400      40.73132800
H       17.95398000      34.44722600      41.56172700
H       17.96759000      35.65844200      40.64796900
O       27.52769000      37.74574200      29.66585000
H       27.59839100      38.68715000      29.49127300
H       26.66950500      37.64482900      30.08534600
O       17.64754000      24.11151800       9.03165500
H       16.68834600      24.08877700       8.99768200
H       17.90842900      24.45533600       8.17353600
O       29.58380200      13.84090500      15.53784000
H       28.70891400      13.45139900      15.60552500
H       30.00559500      13.35701900      14.82328600
O       14.56605100      43.35069300      14.89697000
H       15.27418500      43.40734700      15.54277200
H       15.01286900      43.40090600      14.04816300
O       38.35855400       4.94039100       9.04789900
H       37.80593600       5.47321700       8.47132700
H       37.88842600       4.92950800       9.88545600
O       41.66299500      34.54906500      37.57045900
H       42.36551800      34.26508800      38.15998700
H       41.09672000      33.77786200      37.48549000
O       23.54984600      44.23409500      18.65085100
H       22.81496500      44.85009700      18.60376400
H       24.06637700      44.41842700      17.86227000
O        1.10060600      30.92243300      29.51013000
H        1.56102100      31.59730000      29.00585100
H        0.51878800      30.50284300      28.87132300
O        1.56043800      31.67862200       1.47697000
H        2.24790100      31.13424100       1.86782600
H        0.74636600      31.35236300       1.86874200
O       23.97817300      24.91434900       8.86764800
H       24.48639000      25.68752200       9.12385500
H       24.49277700      24.51371300       8.16244200
O       32.10473100      36.14083000       8.66872900
H       31.37581500      35.66057500       8.26902800
H       32.74668000      36.23286000       7.96015800
O       42.73037900      20.59952600      16.52841700
H       43.67060800      20.60127400      16.33427500
H       42.63432400      21.22854300      17.24796700
O       28.27525100       4.21100800      15.62885100
H       28.55236400       4.92222400      15.04652300
H       27.40683800       4.48081400      15.93821400
O        3.47374900      10.93757600      38.64764500
H        3.61808800       9.99289900      38.73971400
H        2.94437400      11.02131800      37.85053100
O       33.73551300      26.88370800      37.56181400
H       33.51225300      25.95004100      37.57390400
H       33.17361600      27.25437000      36.87659600
O       43.57519300      42.75360500      39.47445400
H       43.75293500      43.68573200      39.62030400
H       43.87298000      42.32506300      40.28087600
O        2.66052900       8.63939000      22.33417300
H        1.80085900       8.26839700      22.12190700
H        2.48593200       9.57063800      22.49208000
O       38.23715400      36.38894200      44.41222600
H       38.07117100      37.31199900      44.61750600
H       37.42888800      35.93834300      44.66973100
O       30.33326700       4.94121500      41.43013500
H       29.76727900       5.67757700      41.67334900
H       30.85550600       5.27424600      40.69596900
O       17.42939600      38.90719900      15.09465700
H       18.29924900      38.76194500      15.47410600
H       17.06825700      38.02437600      14.98132200
O        3.30701100      15.47291200      40.60574800
H        3.45099600      14.72086500      41.18490100
H        3.55876000      15.15494600      39.73502300
O        7.90026500      32.27677900      14.98174500
H        7.44061900      32.53169800      14.17833500
H        7.75612000      31.32946600      15.04855500
O        3.13516200       9.56742100      31.48452700
H        3.91906000       9.02171300      31.38741400
H        3.38993100      10.23945600      32.12178900
O       10.50917900       8.47339000      15.89399700
H       10.32734700       7.60356200      15.53059400
H       10.98881800       8.29654100      16.70720800
O        5.37447000      28.94224500       5.22741400
H        6.23562100      29.19634900       5.56737600
H        5.57181400      28.39937900       4.45995400
O       11.67615400      26.72932800      29.86312300
H       12.59939200      26.66422400      29.60794300
H       11.68813300      27.24882600      30.67097300
O       24.49736600      21.63863300       5.75097300
H       25.16525500      22.21225000       5.36807100
H       24.18508800      22.11815200       6.52245500
O       27.53539400      44.01912600      19.74457200
H       27.56379400      43.73123700      18.82912800
H       28.37517200      43.73110300      20.11125500
O       35.15431800      22.57928900       0.57966300
H       34.21537200      22.68321400       0.75085400
H       35.57700700      22.84256000       1.40104300
O       36.14233100      43.71906300      37.10457700
H       35.47150800      44.39856300      37.20458700
H       36.64920600      43.99556900      36.33694100
O       20.24429400      22.44199800       5.96891600
H       20.76629600      22.73385400       5.21787700
H       19.51855700      21.94911000       5.57775200
O       42.15199400      31.03919400      12.63145200
H       42.29955500      31.95500200      12.87893500
H       43.01953600      30.63197400      12.69614800
O       18.41555400       9.96387400      11.99225700
H       18.82703000      10.82673900      11.90350200
H       18.96819100       9.50029100      12.62654800
O       39.35492700      22.11938400      16.46549500
H       39.61970600      21.30989100      16.90859500
H       38.53740300      21.88917000      16.01683200
O       38.14974600      31.15648600      17.22431000
H       38.68557500      31.08218400      16.43115600
H       38.64903000      31.74614500      17.79497600
O        8.45610900      18.74330400      31.79046900
H        8.30358500      19.67347600      31.97279500
H        7.72006200      18.29365900      32.21319300
O       21.21935400       9.22259000      32.56752500
H       21.22864000       8.31170700      32.87072700
H       22.14746800       9.45907900      32.49459100
O        4.23323900       9.66646700      43.49541500
H        4.76069500       9.06925100      44.03099700
H        4.32777000      10.51970200      43.92634000
O       37.54748400       7.44717200      10.44662600
H       36.77729000       6.87435100      10.42652600
H       37.91105600       7.38907400       9.55945000
O       18.72224200       3.90236200      34.24889600
H       19.24608300       3.21370400      34.66490700
H       18.12271700       3.42760900      33.66767200
O       41.20222600      30.78617200       7.36847100
H       40.92021300      30.08194600       7.95690900
H       40.48627500      30.86715700       6.73325700
O       19.42026700       6.42815800       5.28740000
H       19.16794100       6.15021600       4.40376900
H       19.32541600       5.63622200       5.82264000
O       37.39939800      23.34051500      41.18232000
H       37.23943700      22.54869400      41.70112300
H       37.97121200      23.87738400      41.73679600
O       38.94907200       6.87919200      19.98470800
H       39.58162400       6.16526400      20.09383700
H       39.25579000       7.56335700      20.58511200
O       41.31802800      28.28943700      30.09175500
H       40.58831200      27.66993400      30.01789500
H       41.89937900      27.89599600      30.74740600
O       22.09381900      38.78939800      43.31211700
H       21.98073900      39.56777200      43.86263700
H       22.89641400      38.96410100      42.81415800
O       25.46961400      42.04903700      20.12102800
H       25.07166800      42.89555200      20.33730500
H       25.95390900      42.21399300      19.30807600
O       25.72452500      21.57515100      35.43227600
H       26.64469900      21.81789400      35.55907900
H       25.68200000      21.26829300      34.52306100
O        2.01713400      44.43398000      38.65384500
H        2.71687700      44.99993500      38.31950800
H        1.51555000      44.99968000      39.24633000
O       41.10846600      38.33418500      13.21106800
H       41.90290700      37.82730800      13.39454600
H       40.82076300      38.64671500      14.07257500
O        7.62925700      10.87297300      18.55331300
H        7.87173700      11.43396700      19.29372700
H        7.20426300      11.46919600      17.93158800
O       39.89860100       6.87636300      27.12323400
H       39.28010100       6.79807200      26.39313000
H       39.69883200       6.12447900      27.68662100
O        5.33255600      18.00235500      42.29145800
H        5.85659100      17.44805200      42.87443400
H        5.23337200      17.48012200      41.49141000
O       31.28814900      21.00455100       4.63974100
H       30.34746000      21.08312300       4.46465400
H       31.36059100      20.23791200       5.21390000
O       14.00448900      13.18529700       8.04136700
H       13.42807400      12.45576300       8.28063700
H       13.53006700      13.64527800       7.34424200
O       25.51554600      40.91085300      26.20625500
H       25.30752000      40.98509400      25.27194300
H       25.66410000      39.97185500      26.34357000
O       12.61934400      25.05298500       0.67619800
H       13.45646200      25.52151200       0.71415100
H       12.34469900      24.98079300       1.59380400
O       14.66525400      41.48769900       1.02542200
H       15.58936000      41.59384700       1.26309100
H       14.48110600      40.55992400       1.19264900
O       15.05019000      11.64793100      40.29251700
H       15.89458100      11.85033900      39.88293300
H       14.95435800      12.31054700      40.98128300
O       37.12227300      16.61849600      31.69664500
H       37.25771100      17.32430600      32.33320900
H       37.77341600      15.95391900      31.93537500
O       32.07339300      34.44427700      19.20229500
H       31.65129500      34.93106100      18.49053700
H       31.36727400      33.91365500      19.57975700
O       10.88755100      36.00895100      23.32127400
H       11.01409600      35.38866600      24.04304800
H       11.76783700      36.34893100      23.14196500
O       33.91544900      24.85355600      41.23803800
H       33.05659600      24.42488400      41.21971800
H       33.89601600      25.45836600      40.49206900
O       13.95394300      21.97903300      29.22854100
H       14.22139000      21.13057200      28.86755300
H       13.54714600      22.43572400      28.48787100
O       15.45151600      25.10722800      10.51206100
H       14.85750400      24.39996100      10.25005300
H       16.07671000      24.68543200      11.10692500
O       37.48563600      34.08481700      26.76901000
H       37.20305300      34.22140700      27.67632200
H       37.78754800      34.94984100      26.48052400
O       21.89209400       1.89858400      20.58788200
H       21.51651700       2.62792400      20.08915500
H       22.83378500       1.94393100      20.40402400
O       31.82848200      15.90457600      29.65865100
H       31.13366500      15.59101700      30.24228900
H       31.58818200      15.55957500      28.79501200
O       17.78463800      19.70933400      33.96481700
H       18.31098800      19.70024000      33.16194800
H       18.14448900      18.99298300      34.49395800
O       18.07495500      39.29962300      12.63705600
H       17.23831400      38.91411600      12.90750300
H       18.26983600      38.87995600      11.79530600
O        3.26326100      17.76873100       3.85679200
H        3.77662600      16.98772800       3.63721000
H        3.85596600      18.50247100       3.67522100
O       23.37646400      43.93907800      23.85142600
H       23.25981500      43.05295300      24.20199900
H       22.91502400      44.50502900      24.47545600
O        0.38190600      25.50967300       5.43811900
H        0.33495700      25.44404900       4.48145100
H        1.18684300      25.03968600       5.67013400
O       24.84966900      17.28175400      38.87329100
H       24.49363300      18.05617900      39.31513800
H       24.65098700      17.42476500      37.94446600
O        6.07382400      24.74530100      39.88897000
H        5.33216600      25.26074000      39.56340600
H        6.82860200      25.33320900      39.80343400
O       37.24361500       9.11681400      42.40324800
H       36.45155100       8.71145300      42.04263300
H       36.94147700       9.95717800      42.75700600
O        8.68859700      36.07182100      34.88344000
H        9.40991400      36.62370100      35.19465700
H        8.95538500      35.80677200      33.99957700
O       30.81601000      20.68843500      19.25797100
H       31.68403500      20.99042900      18.98038000
H       30.92363800      20.47656100      20.18865200
O       41.60559600      43.57518500       5.68381800
H       42.15308200      42.98514200       5.16052800
H       41.62550900      44.40709700       5.20405900
O       32.71028100       1.33176800      12.21006700
H       32.50805400       0.49190600      11.79118700
H       31.85217300       1.73745300      12.35741800
O       16.93278700      10.33533100       3.78189800
H       16.77750700       9.78734100       3.00903400
H       16.24330800      11.00298700       3.74321400
O       14.74789200      16.91354900      44.99746100
H       14.33079800      16.80652300      44.13938000
H       15.67293500      17.07408300      44.79456400
O       12.36208400       0.00153800      33.91238100
H       11.53307800       0.48148200      33.97662500
H       12.99095200       0.65358200      33.59299900
O       33.75797700      42.38611900      37.79035700
H       33.76627800      41.52298600      37.37005100
H       34.49901600      42.36110100      38.40099400
O       40.14388200      16.27059300      18.60561500
H       39.91221400      16.49367300      17.70102100
H       39.32556400      16.38283600      19.09591900
O       13.83256400      34.94089000      14.69908300
H       13.16763900      35.35933400      14.14726300
H       13.89865800      35.51281800      15.46796000
O       13.23537300       6.80243900      11.38115300
H       13.66864200       7.62125700      11.12907900
H       12.64033300       7.05631600      12.09116400
O       28.60208700      43.90115100      39.10309600
H       29.00131000      44.71106900      38.77694000
H       27.91549900      44.19934800      39.70502400
O       13.81117300      21.39906700       5.87111800
H       14.21317400      22.14146600       6.32824500
H       14.31703000      21.31705400       5.05870000
O        3.51775100      42.49526800      38.09068200
H        4.20581200      42.62235100      37.43330300
H        3.92636800      41.93955500      38.75915600
O       30.84709200      31.90363200      38.63123900
H       30.22072800      31.68391200      39.32486500
H       31.31271800      32.67427800      38.96581200
O       38.90137900       5.04744000      14.11935500
H       39.54624600       4.73340600      13.48119100
H       38.22640800       5.47452900      13.58582800
O       36.02675500      11.83441000      31.79092700
H       36.23241900      10.95398200      32.11384100
H       35.51358800      11.68201900      30.99338200
O        3.09276200      29.46949400      34.04686700
H        3.56603200      30.28363400      34.23372700
H        2.30765600      29.51819700      34.59811800
O        9.91663900      25.21016500      10.46533300
H       10.80510900      25.33706500      10.12438900
H        9.47688700      26.04852500      10.30281500
O       40.97462100       8.86365500      40.50770500
H       40.32158500       8.49916000      41.10971200
H       41.55122800       8.12282300      40.30439600
O       27.95742900       1.99521800       3.45027900
H       27.16758300       1.92551800       3.99158300
H       27.93636800       2.89413100       3.11241100
O       39.54414600       7.98049400      44.36751200
H       38.84617300       8.61827400      44.53423000
H       40.23169400       8.20918100      44.99808400
O       15.40203000       4.98623400      44.53405400
H       15.97367900       4.36624500      44.99291800
H       14.92525800       4.44583400      43.89899700
O       34.56305300      33.79111200      19.29038500
H       34.20092500      34.51392000      19.80820400
H       34.33306100      34.00884300      18.38355600
O       44.99393400      17.75234700      36.73808500
H       44.87670900      18.60015300      36.30310400
H       44.45425500      17.81417100      37.53027500
O       24.09343100      40.74684800      17.22449700
H       24.26297200      41.29463300      16.45448900
H       23.51596900      40.05131300      16.89982800
O       10.43920900      12.52178600      17.48531300
H       10.24193200      13.42528200      17.74319500
H       11.07662500      12.61111400      16.77231700
O       40.30288300      39.99596500      44.99263100
H       40.41186100      39.08445400      44.71156600
H       41.05834400      40.45375500      44.61534000
O       11.26481200      19.37700200      10.37456300
H       10.31535700      19.50110200      10.44428100
H       11.45986600      18.67384500      10.99919400
O       31.29763800      25.45089200      38.95928400
H       30.40430300      25.65574300      39.24514000
H       31.61254000      24.81009100      39.60182000
O       19.60894800      34.70244000      24.82942900
H       19.44914500      33.76878700      24.67296500
H       19.45691200      34.81583600      25.77106000
O       30.72052200       7.26242300       8.30949300
H       31.07452000       8.14269700       8.16277400
H       30.20460700       7.34420800       9.11558600
O        4.48212300      25.35050400       6.83688600
H        3.91433200      25.28402200       7.60819600
H        5.26036400      25.81629600       7.15314800
O       20.03612000      17.99494700      33.97444700
H       20.38064400      18.35324700      34.79581800
H       20.72837200      18.16583600      33.33084400
O        9.57921700      26.12206500       2.13408500
H        9.86793300      25.20691900       2.16366700
H        8.80927800      26.14784000       2.70782000
O        6.66554500      23.69030000       2.00577700
H        5.96707700      24.30579400       2.24037600
H        7.13740400      24.12608100       1.29157500
O        1.04478900      40.40834900      38.38357300
H        0.22733900      40.07608900      38.00528100
H        1.51035200      39.62027400      38.67482900
O       27.29958500       8.68821200      28.80214300
H       26.67151400       8.00721100      29.05411400
H       26.81073700       9.50976200      28.89555600
O       38.21518400      10.09635700      13.59875200
H       37.32604500       9.78437200      13.78266200
H       38.73670700       9.78155100      14.34141800
O       22.33094900       6.86076000      23.09025600
H       23.09445800       6.28726100      22.99087200
H       22.68853200       7.74905500      23.01469300
O        2.78839700      28.29599900      38.83012600
H        3.33423800      29.05007300      38.59527500
H        1.89599400      28.56673400      38.59998900
O       16.60776700       0.84914000      10.65992900
H       17.35055600       1.37390000      10.96752700
H       16.97456400       0.30480200       9.95864500
O       14.55163800      40.58026600       9.66695300
H       15.00083500      39.75877400       9.87931600
H       14.14706100      40.41649700       8.81130200
O       10.66574900      22.37064900      13.98112000
H       10.97635200      22.98502900      13.31195100
H       11.25159800      22.51576100      14.72835900
O       28.94322900      20.14322400      11.65809200
H       28.98859600      19.20191100      11.47479900
H       29.55502900      20.27396500      12.38696100
O        2.63724500       3.26850600      20.78152400
H        2.71090100       3.87202600      21.52453400
H        2.34026600       3.82102900      20.05408700
O       32.75450100      39.88076800      32.56099700
H       32.32232500      40.62825500      32.14122200
H       32.30105600      39.11245100      32.20502200
O       20.20736700       1.77895100      14.78602300
H       20.07799300       1.63268600      13.84602600
H       20.77357800       1.05465800      15.06431500
O       23.75992700       9.98953400      30.47794400
H       24.28352000      10.37868600      29.77357400
H       24.08687700      10.40909400      31.27776600
O       27.77600000      19.07068000       5.03420500
H       28.61036100      18.60000300       4.97071300
H       27.65317200      19.21220200       5.97629100
O       33.77929400      44.56502300       4.85178900
H       34.60606400      44.13316600       5.07911500
H       33.43683800      44.05190500       4.11553200
O       27.54713800       7.88683200      34.23104400
H       27.88564300       7.28185500      34.89522900
H       27.92911600       8.73638800      34.46554300
O       36.47651000      33.22742000      23.58185200
H       36.15005700      32.49629500      23.05212600
H       37.42747600      33.09518000      23.61044800
O       42.38978900       5.01617100      33.23817000
H       41.68054200       5.07577400      33.88248500
H       42.76645700       5.89949600      33.21580900
O       32.82078400      26.71848800       2.22436200
H       33.65511100      26.58860700       2.68125800
H       32.17910900      26.83798700       2.92907100
O       15.76707200      37.93805900       7.44887100
H       15.44146500      38.59806700       8.06538900
H       15.88236800      37.14854500       7.98367600
O       19.88050800      44.26038100      24.18473600
H       19.28766500      44.99962800      24.03053700
H       20.75887500      44.63007500      24.06456600
O       33.01983800      33.80851800      32.44143100
H       32.21246400      34.10962700      32.86475700
H       32.99644500      34.21117100      31.56967100
O       28.29333600      17.14430000      22.48263400
H       28.39645700      17.80989600      21.79847600
H       28.95690700      16.48218000      22.27308100
O       35.69215300      10.25722300      27.05578800
H       35.12488300      11.03052000      27.01173100
H       36.10584600      10.31396400      27.92082000
O       19.79407900      43.03472000      42.03748300
H       19.55679700      42.14300800      41.77239600
H       20.74992800      43.06390500      41.94724300
O        3.38217000      34.55002200      18.20255200
H        2.81841300      34.89833600      17.50787200
H        2.80500900      33.97625600      18.71276800
O        8.42011800      31.76539100       3.90422900
H        8.54610400      32.67298100       4.19081700
H        9.28355000      31.35889200       4.01325200
O       27.46600800      10.60862700      32.77056000
H       27.37346800      11.05820500      31.92732800
H       28.08608900       9.89653200      32.59431600
O       23.57380100       7.73351900      32.36064000
H       24.38497800       7.67165900      31.85084700
H       22.91841300       7.28371000      31.82139900
O       32.38972500      41.09304000      23.11871500
H       32.07744800      40.55116600      23.84712400
H       33.00936100      40.52827100      22.64996100
O       38.24435900      43.78491800      40.96952200
H       38.69876700      42.94780200      40.84921400
H       38.78309200      44.25905000      41.60796400
O       36.35076800      17.65562100       7.22701200
H       35.66539300      17.89881400       6.60024000
H       36.04530100      18.01264300       8.06478700
O       14.09020600      22.98348700       2.20669300
H       13.13703500      22.95375800       2.31762900
H       14.23048000      23.64678000       1.52624700
O        1.81862900      37.78732900      27.95013400
H        1.25677400      38.50615100      27.65123900
H        1.82853800      37.87436500      28.90667400
O       31.83920200       1.78329300      39.82898800
H       31.48027700       2.62887700      40.10806700
H       32.18830600       1.39472200      40.63507800
O       39.35611800      11.73756400      33.54129700
H       39.89396300      11.25762600      34.17541600
H       38.52167100      11.87939500      33.99541500
O       33.60073500       7.54015700      22.72593500
H       32.91788700       6.88338000      22.88113100
H       34.38725400       7.02469100      22.53016700
O       30.32079600      14.45042300      37.96762600
H       30.43485500      13.49809300      38.00985100
H       30.49500000      14.75135500      38.86302200
O        1.71750600      37.64421000       9.05589700
H        2.18090000      38.19649200       9.68991200
H        2.40471400      37.33965600       8.45787100
O       36.09341200       2.52103800      32.62179700
H       36.42593700       3.01198700      31.86673400
H       36.21471000       1.59957500      32.37923800
O       31.74753700      11.46149000       1.59676800
H       31.64208300      12.04854900       2.34907500
H       32.69454600      11.30988600       1.54354200
O       26.21743500       8.71544900      21.39531700
H       25.62260900       8.00508500      21.14374400
H       26.44562300       9.14073100      20.56483000
O       14.03035800      14.43939200      36.30358300
H       13.45927800      15.09312900      36.71372900
H       13.69612600      14.36003900      35.40656900
O       39.18635400      20.50725000      25.61703900
H       38.61035900      19.77673300      25.85431200
H       38.74678000      20.92530100      24.87229000
O       17.86350400      39.22273100      23.56037100
H       17.71653800      39.45549400      22.64061700
H       18.51614900      38.51876300      23.52681200
O       24.30959600      32.67993700      21.00529600
H       24.62220500      33.32899000      21.63990700
H       23.39716800      32.51896700      21.25868300
O       21.24923200       3.13847800      31.41293600
H       20.36624700       2.89071200      31.12890300
H       21.16329300       3.28481500      32.35836800
O       25.46031800      43.33059400      24.16856400
H       25.58630500      43.00827800      23.27304000
H       26.16692200      42.91835100      24.67196200
O       10.32944700      23.14890500      30.71519400
H       10.99429400      23.83104200      30.59522700
H       10.64580100      22.41200700      30.18647400
O       24.82535500      24.94386100      41.23543800
H       24.93546600      24.06852900      41.61411200
H       23.95256700      24.92231300      40.83491600
O        0.97696000      27.85719800      31.00888700
H        1.68984200      28.00925700      30.38406600
H        0.18063100      27.88006100      30.47225000
O       17.98927500       6.86194400       2.68266100
H       17.13751500       7.30186200       2.63067900
H       18.62929100       7.56404000       2.54094800
O       36.95132300      16.52875500      35.55257800
H       37.81157000      16.95470100      35.53611300
H       36.57936500      16.70903900      34.68552100
O        8.44500900      17.38257300      21.43072100
H        7.60857300      17.21057600      21.86949000
H        9.05452800      17.57703200      22.14718100
O       18.84149700       2.78224900      12.45003400
H       19.46391500       2.95177500      11.73899200
H       18.00661700       3.12707200      12.12336000
O        3.75068300      10.74838100      34.99007500
H        4.15080300       9.90322600      34.77249000
H        3.97371500      10.88694700      35.91403200
O        9.57924800      43.86007100      29.93909900
H        9.47647600      43.42460400      30.78852900
H       10.11558400      43.25277800      29.42317200
O       19.22445900      36.18333000      16.78562800
H       20.14467300      36.41942800      16.92415300
H       18.94585000      36.73229800      16.04829900
O        2.48369100      40.70591600       1.76140000
H        2.00911200      40.03699600       1.26235600
H        3.32289500      40.79497700       1.30265600
O       13.37746900      33.62251500      37.78836700
H       13.21102100      33.74050800      38.72650200
H       12.52777100      33.78929800      37.37262900
O       31.02033800      40.11148400      17.24581400
H       30.50189000      40.69208900      16.68382300
H       31.57017300      39.61577500      16.63377100
O       13.34125700      28.11674600      43.10084900
H       13.27243200      27.41167800      43.74882200
H       12.91645800      28.86890800      43.52089700
O       16.31486900       7.87032900      31.46328700
H       16.80692400       7.08872700      31.72540600
H       15.75681700       7.56983400      30.74153800
O        8.03356300      36.23630300      40.50643500
H        7.20653000      36.71839500      40.43343600
H        7.78598700      35.39661900      40.90175500
O       23.05510700      26.97818500      30.96902100
H       24.00252000      27.08662600      30.85778000
H       22.79227300      27.72355000      31.51490600
O       35.28318900      20.50103300      18.04724100
H       36.06417900      20.92692000      17.68613000
H       34.60257500      21.17764000      18.00712600
O       28.83789500      24.91525700       2.37074900
H       28.60580900      25.67357500       2.91187300
H       29.24944100      25.29592700       1.59077400
O       14.48483500      31.08191000      38.87830200
H       15.13184700      31.30628500      38.20543000
H       13.71138100      31.60309100      38.64856400
O       38.96439700      26.83836500      24.22792400
H       38.62330800      26.94077400      25.11949300
H       39.24178600      27.72272300      23.97571600
O       12.11079800       5.11717100      19.45219500
H       11.25126600       5.48512900      19.23416700
H       11.98168300       4.70054900      20.30799700
O       34.94595700       5.79756500      14.98360400
H       35.17975700       4.91989900      14.67253200
H       35.69948800       6.34354100      14.74539700
O       42.80029100      28.12469800       4.65991900
H       42.24323200      28.73998900       4.17739700
H       42.34857200      27.28080200       4.57971800
O       26.13442500       5.10185000      25.37294300
H       26.64626500       4.31748300      25.16196100
H       26.42147400       5.75421500      24.72899800
O       26.93577700       5.42122200      18.05206200
H       26.67368200       5.46184600      18.97476500
H       26.10671500       5.35643100      17.57133300
O        1.70856200       3.27372200      40.73090900
H        2.22522200       3.84020900      41.30873300
H        0.85762100       3.19786800      41.16998400
O       22.97457700       6.45533200      38.29116300
H       22.39940600       6.98803900      37.73697300
H       22.38423200       6.06191500      38.93874300
O       25.52939200      32.22579600      40.46066800
H       25.62641200      33.17955400      40.51223000
H       26.25591600      31.94219600      39.89997500
O       28.91219700      27.42543000      30.21472000
H       29.82210700      27.14657600      30.08811400
H       28.94826400      28.02294300      30.96593200
O       14.69884800       6.99507400       3.57141800
H       15.18465000       6.19974100       3.34084000
H       13.80694200       6.82968300       3.25551800
O        2.09760500      42.34698400      43.37946600
H        2.47518100      42.28853900      44.26023000
H        2.81443100      42.08761500      42.79506000
O       43.46942900      14.12137900      30.33915000
H       44.27994700      14.04078700      30.84737200
H       43.53387800      13.42928500      29.67620600
O        2.09162900      13.64614600      16.25977100
H        1.90669800      12.96389900      15.61010700
H        2.64911600      14.27435300      15.79371600
O       37.16503200      25.37703200      24.60453300
H       37.78480900      24.99969700      23.97586800
H       37.43769600      25.01825000      25.45280900
O       34.90293700      17.61948600      14.66442700
H       34.03108900      17.30929500      14.92013600
H       34.73218100      18.27990700      13.98816600
O        6.82680400      18.50917200      39.18079900
H        6.02684900      18.58745900      38.65575900
H        7.48061100      19.01998200      38.69680400
O       30.58833500      31.61101100      33.48062500
H       30.67816400      32.55110500      33.30776500
H       31.46350900      31.33630100      33.76566300
O       12.68695500      29.84531400      35.00490500
H       12.23804400      30.65990400      34.76689900
H       12.07128300      29.39575200      35.58927100
O       18.76217300      41.78701800      43.95315900
H       18.43226300      40.90582700      43.76240800
H       18.17405000      42.37185400      43.46868000
O       40.62064300       4.87292500      37.93629700
H       41.53717200       5.12639200      37.80418200
H       40.14234800       5.70582300      37.94878200
O       24.96253900       0.90856000       9.28002200
H       24.73889500       1.61446900       8.66895600
H       24.67200900       1.23326400      10.13606000
O       17.80440600      40.00415600      17.27663900
H       18.60441300      40.45696800      16.99973600
H       17.56443500      40.42866400      18.10419400
O       28.30419300      25.66503500      43.62516200
H       28.25645600      26.33083300      42.93511900
H       27.47050300      25.19260400      43.55873700
O       26.83552800      11.60495200       4.79893100
H       26.29101700      12.38139900       4.64938800
H       27.34585200      11.51230700       3.99045800
O       20.01337700      26.82256300       5.43547200
H       19.64619300      26.14330200       6.00600200
H       19.30175900      27.03156300       4.82509500
O       35.75636500      36.65347800      24.99970400
H       35.57766400      37.57012600      25.22229900
H       35.51572200      36.16473000      25.79081600
O       34.62517900       4.10460800      17.48414900
H       34.99862700       4.67811300      18.15746400
H       34.14268100       3.43799200      17.97958700
O        0.95200700      11.01163000      17.63302800
H        1.73438300      11.30421800      17.15973700
H        0.96554900      10.05498300      17.54766900
O       39.86530900      16.05526400      24.94036300
H       40.32126300      15.22681800      25.10621900
H       39.55653900      15.98016300      24.03390600
O       27.79636700      20.19162500      30.81611800
H       27.24167600      20.79818100      31.31223500
H       27.88687800      20.60306200      29.95288700
O       42.15820600      15.55909400      29.08089800
H       41.47348300      15.07249700      29.54576700
H       41.67717300      16.19697400      28.54764500
O       42.93140500      39.68016200      38.15453200
H       42.37101800      39.03402100      37.71841900
H       43.06470700      40.36466200      37.49397800
O       11.33653800      11.76410700      31.50383200
H       11.51592300      11.62388900      32.43650800
H       11.85938500      11.09355600      31.05702800
O       10.94590900      37.15782900      19.67086400
H       10.70285800      36.90273500      20.56393600
H       11.11136900      36.32504900      19.22170600
O       38.73554500      35.19265000       1.27728500
H       38.87075600      34.27030900       1.04765500
H       39.62094600      35.56418500       1.30316000
O       23.24664000      35.79730300      21.51892500
H       23.95469700      35.38569000      22.01988000
H       23.14964900      35.24095100      20.74193900
O       19.88997700      20.35613100      36.66775900
H       20.64185600      19.83606200      36.96089800
H       19.35698500      19.73934300      36.15968900
O       43.99339800      23.00625400      27.80058100
H       43.86604400      22.21642300      27.26985100
H       44.94715300      23.10868700      27.85058600
O       24.15055500      29.62549900      32.35178100
H       23.39762400      30.16726900      32.59938200
H       24.57304600      30.11482100      31.64135400
O       31.48352200      15.73705900      16.10464500
H       30.90073700      16.32000400      16.59684800
H       31.30771100      14.86425400      16.46512300
O        1.09347900      38.17733300      44.93999100
H        1.89859000      37.88905300      44.50362600
H        0.55532800      37.38367100      44.99598700
O       13.50745300      34.25297100      18.93286100
H       13.66936500      34.73468800      18.11833100
H       12.93235200      34.83051400      19.44113600
O       31.98701600      22.54719000      33.57812600
H       32.37547300      23.35162500      33.22640000
H       31.60060800      22.81540400      34.41561700
O       42.06384800      19.32565900      31.53341800
H       41.39757900      19.69628200      30.94993700
H       42.88499000      19.73367300      31.24724900
O       33.70990800      32.42284700      20.99203200
H       33.29464800      33.16134300      21.44359300
H       33.64299800      31.69452300      21.61469600
O        5.30646700      42.97487400      26.93649500
H        4.75012300      42.20982500      27.10052900
H        4.88536500      43.68543700      27.42681700
O       39.05629100      18.63142700      13.21857500
H       38.54628000      19.40298400      13.47608700
H       39.70320300      18.97056100      12.59476800
O        6.68231000       4.76712300      18.08574900
H        5.75128500       4.60633900      17.91525900
H        6.77876000       4.62951200      19.03147800
O       23.17149700      27.74611500      33.67804300
H       22.43084500      27.92577400      34.26189500
H       23.94691200      27.95137600      34.20647600
O       34.17615300      22.73563400      34.90151500
H       35.12604300      22.79784100      34.77675500
H       33.86505800      23.64064600      34.81896700
O       41.16225000       9.47161800      21.62505400
H       41.60148100       8.65006000      21.39301000
H       40.22581300       9.26363300      21.57535900
O       33.43204800      38.33787800       1.37712100
H       32.62181700      38.63560200       0.95687100
H       33.13622500      37.88165200       2.16894700
O        2.98223300       5.61026000      44.05755200
H        2.22011000       5.71409800      43.48300000
H        3.66088700       5.23837000      43.48854500
O       39.26235500      19.68478400       3.14630100
H       40.18766700      19.49613700       3.31932000
H       38.95515100      20.12295800       3.94396700
O       13.79215800      35.79316900      30.09501700
H       13.12361800      35.12224800      30.25200400
H       14.54210600      35.30527900      29.74546800
O       43.02610200       5.00786300       9.32908700
H       43.54121000       4.91060400       8.52476800
H       43.68083500       5.01734800      10.03185000
O       37.76354300      12.36896400      14.80609200
H       37.54968500      11.96127500      15.64857600
H       38.68123900      12.13074400      14.65205700
O       27.84093200      30.37578500      35.04919000
H       28.01079100      31.21606400      34.61698200
H       27.10329800      30.55518600      35.63770800
O       36.81485000       1.29403500      25.13072400
H       36.30637700       1.37828300      24.32073500
H       37.61358500       1.80107300      24.96466000
O       13.70696700      34.64090000       2.79673300
H       14.30539500      34.08463100       3.30089000
H       14.06871900      34.63513400       1.90693300
O       17.50622600      32.99655100      39.42933600
H       17.98181200      33.40384500      38.70156200
H       16.86695300      32.41988600      39.00339000
O       13.15665700      35.04445700      24.38176000
H       13.57429200      34.18027900      24.40415800
H       13.82371400      35.62187100      24.00193200
O       16.69593800      44.30943400      44.92085100
H       17.60833400      44.06770400      44.74527700
H       16.23751100      43.46901100      44.99943500
O       37.03818500      38.23869200      13.15347100
H       37.16146500      37.71507500      13.94867700
H       36.94359500      37.58891200      12.45241500
O       16.94745900      41.82071500      15.93573500
H       17.24177300      41.08647100      15.39168600
H       17.54237400      42.53965500      15.70804300
O        9.51706500       8.32050300      10.17665600
H        8.70882100       7.85446900       9.95021000
H        9.46916100       9.13839700       9.67526100
O       16.05453500       6.29523500      18.64469300
H       15.28445800       5.73417400      18.76266800
H       16.37311600       6.45357300      19.53692500
O       30.45693500      43.80564400      19.17102500
H       30.50606100      42.87990100      19.42064700
H       29.81842300      43.82561000      18.45370700
O        4.45887300      39.18797400      14.35374200
H        5.28121300      39.58775700      14.06107000
H        4.43755100      39.35194300      15.29994500
O       42.43828700      41.25456600       2.66039700
H       42.98028100      41.88594000       3.13928600
H       43.06203300      40.77349000       2.11071500
O       32.20546100      41.08632700      27.67902100
H       32.23752900      40.13236800      27.57578600
H       32.29337500      41.22685100      28.62515300
O       19.60521100      16.10854000       2.74349200
H       20.54543800      16.19202800       2.91878700
H       19.54407700      16.06591300       1.78584500
O       29.74542400      43.74851800       0.58965600
H       28.99517700      43.84343000      -0.00182200
H       30.51029900      43.91655000       0.03344300
O       10.23092200      31.58199600      13.62573500
H        9.56767000      32.27159500      13.54652400
H        9.87806800      30.98725300      14.29238200
O       17.46672300      15.70064400      25.03100900
H       16.67720700      15.16240000      25.12418500
H       18.13256600      15.09210400      24.70089500
O        8.97430700       3.25480300      29.88439100
H        9.43776600       2.60930000      29.34563500
H        8.24950100       2.76152400      30.27678500
O       29.51142600      10.33885500      42.44803900
H       29.79116100      10.77200900      41.63819300
H       28.64364500      10.70886300      42.62885200
O       43.10151100      36.52326400      10.30850500
H       43.97753100      36.15307400      10.43993200
H       42.85999900      36.25417400       9.41861500
O       32.46948300      25.94605300      10.72892100
H       31.65686300      25.65739400      10.30696300
H       32.50326700      25.44607100      11.54838400
O       20.12940900       0.91689500      21.52848300
H       19.37979000       0.78943700      20.94235000
H       20.21646700       0.07894700      21.98990000
O       18.30281000      13.77796900      34.31145300
H       18.32658900      14.03691300      33.38727300
H       17.36733700      13.75274900      34.52800600
O       27.47132500      21.29207500      20.57159500
H       27.86122200      22.13897200      20.80066100
H       28.00073300      20.97743200      19.83445900
O        1.43928800      41.42480000      23.59380700
H        2.16150800      42.05416300      23.53036600
H        0.92062000      41.57622500      22.79964300
O        4.55399800      27.86164800      13.08718300
H        4.94079600      28.62687900      13.51908000
H        3.62792700      27.88741100      13.34090000
O       29.24571100       2.52300000      35.58718200
H       28.65795500       3.25950700      35.77109900
H       29.31372100       2.05736500      36.42455900
O       43.46599600      38.36058500       6.07878300
H       42.93921700      37.88607100       6.72613600
H       43.38945400      37.83558400       5.27806000
O       44.31377800       6.09667100      38.91444100
H       44.05509400       6.98896500      39.15655400
H       43.49594900       5.67978300      38.63159400
O       28.67128100       0.00344400      34.29338700
H       29.61385300       0.07474000      34.12545700
H       28.52997300       0.52751600      35.08586500
O       38.43813900      21.87273600       6.14686100
H       38.10798100      22.67553900       6.55701800
H       38.76611200      21.34736800       6.88107000
O       33.65396800      41.48808000      18.72837800
H       33.54397700      41.99345800      19.53721600
H       33.09227400      41.93473300      18.08990800
O       32.89073600      38.22476500       8.88069200
H       32.45947000      38.35292500       9.72881300
H       33.10236000      39.11352200       8.58410000
O       29.09178500       7.10549900      23.54278300
H       29.26323500       7.55772300      22.71343100
H       29.96437600       6.89102300      23.88223400
O       37.06931000      42.13800600      38.60978300
H       37.99719500      41.97740100      38.42280400
H       37.04271500      42.30983900      39.55445600
O       20.51340800       2.60883700      28.62143600
H       21.09083600       2.11436400      28.03509400
H       21.10028600       3.21896800      29.07526000
O       26.78286200      28.53908700       6.18138000
H       27.38784900      28.01907600       5.64724200
H       27.35065900      29.14858600       6.65967000
O       43.92799400       5.99394200      18.77419800
H       43.40094900       6.01313000      17.97196400
H       44.06161600       6.91942700      18.99388800
O       27.23916800      44.86501100       9.95847400
H       27.87776600      44.35998600      10.46726400
H       26.50510300      44.99933600      10.56324400
O        9.03177100       0.77448100       1.44453300
H        9.74477000       0.29346900       1.01793500
H        8.59472900       1.23933800       0.72652000
O        2.58524500      34.58784700      12.23458900
H        2.69174600      33.65519600      12.43594600
H        1.95020700      34.60522300      11.51412600
O       10.71257400       4.13818400      15.72697300
H       11.58887800       4.01105900      16.09799000
H       10.60466300       5.09199300      15.69168200
O       36.92602900      37.71197600      33.15360000
H       37.58065300      37.94259100      33.81693200
H       37.24704000      38.12515000      32.34806800
O        9.14773200      38.99986600      19.10051400
H        9.92102900      39.28888500      18.61040800
H        8.42636700      39.51827800      18.73510400
O       41.47403400      10.49521700      13.25030000
H       40.85630300      10.00639200      13.79910200
H       41.68779200      11.27520200      13.76854100
O        4.84324100      31.68359200       7.52860400
H        4.66989800      32.62507400       7.60132800
H        5.62747400      31.62746800       6.97681500
O       39.19485700      14.00912500      13.61715200
H       39.26377800      14.76755800      14.20175000
H       38.54220700      14.27096100      12.96283500
O       42.79699100      44.90595600      16.71838200
H       42.01586500      44.59928900      16.25198900
H       42.50852200      45.00134000      17.62960600
O       28.39232400      15.65141900      20.30358300
H       28.78911200      16.49422300      20.07127700
H       28.53130900      15.10084200      19.52886300
O       28.17115900      44.40071000      22.19635700
H       27.28879600      44.08263300      22.40126500
H       28.38270200      44.99839100      22.91793100
O       31.96582900       5.12911700      18.03944500
H       32.48110000       4.67839900      18.71255200
H       31.63615900       5.91687200      18.47922000
O       37.31234300      43.72956800       3.92989000
H       36.45300500      43.36483700       4.15402000
H       37.78912500      43.74615100       4.76358400
O        8.75391300      35.05222300      26.55085200
H        9.30404000      34.67784500      27.24289700
H        9.14163500      35.91387000      26.37799700
O       44.31526300      41.56372400      24.37609700
H       43.36238400      41.67407600      24.33649500
H       44.45815100      40.64153000      24.14853500
O       39.92610700      27.65870900      40.83708200
H       40.84904900      27.43582800      40.97930400
H       39.44313700      26.89776100      41.16925700
O       13.67818800      30.20148200       9.65153800
H       13.52501200      29.53604500      10.32641300
H       14.60687300      30.42778400       9.74627100
O       23.82149200      11.68574900      37.71335000
H       24.04996200      11.59862600      36.78494500
H       23.06481900      11.10531600      37.82817200
O       22.57437100       6.34087600      11.26593100
H       22.86008700       5.45245000      11.49130000
H       23.37726500       6.78442700      10.98086000
O        3.68129900       3.78650900      10.37557000
H        3.69794700       4.68195200      10.02969500
H        4.43446500       3.74661800      10.97037400
O        4.23339900      15.43354800      17.40623400
H        5.11952200      15.56422200      17.75182700
H        4.01040200      14.53326800      17.65605600
O       12.35016300       1.35342200      31.18075000
H       13.07267400       1.73810200      31.68247100
H       12.64192300       0.45820600      30.99073000
O       37.48325000      15.91813400       1.03094200
H       37.02175100      16.54548900       1.59234100
H       36.90150000      15.80123500       0.27559900
O        4.86023400       3.75397300      42.40006700
H        4.31466700       3.03812800      42.06592900
H        5.62809500       3.31414600      42.77367600
O       21.02868800      11.85048300      36.87011500
H       21.34074000      12.72868100      37.10058400
H       21.64893100      11.54434300      36.20361800
O        5.54783100      31.23111300      14.10427300
H        4.98189700      30.97456800      13.37240600
H        5.84467600      30.39819600      14.47947000
O       28.46469600      11.80356600      34.46867500
H       28.28090600      11.90077200      35.40595700
H       28.51664300      12.70504500      34.14114200
O       22.24981700       8.68701200      44.14802000
H       21.43132700       8.32251500      43.80314400
H       22.36282100       8.25609100      44.99900800
O        5.23172700      41.50228500      44.99959600
H        5.12138000      40.59297300      44.71201900
H        6.07117700      41.77255000      44.61890800
O       41.77193900      38.99321200       2.03330500
H       42.14419200      38.62904900       2.83986400
H       41.51435100      38.22288600       1.52057800
O       17.35132200      11.02378900      24.78876200
H       17.55016600      10.08526300      24.82555600
H       17.65425500      11.29779000      23.91939600
O       15.30937600      40.51376400      13.82969200
H       15.91033900      40.86229100      13.16704800
H       15.24611600      41.21279500      14.48543300
O       33.34324700      19.32804700      23.72191000
H       34.16262500      18.98226000      23.36028000
H       33.60926700      19.77708300      24.52828500
O        7.45719700      39.83466300      14.63505600
H        8.13666500      39.56379500      14.01322100
H        7.94424800      40.22323100      15.36610800
O       22.28188200      13.03975800      16.76848700
H       23.04104700      12.77973600      16.24143700
H       21.54302000      12.57461800      16.36802600
O       39.49767500      13.27253600      31.74566700
H       39.29946600      14.10724100      31.31472900
H       38.92007300      12.63814400      31.31373600
O       19.38002600      35.17942100      36.85813900
H       19.13446900      34.28505400      36.61007700
H       19.07711800      35.72174100      36.12548800
O       26.85433700      21.35621600      43.88148100
H       26.90394200      21.65935800      42.97188200
H       27.01374900      22.14566400      44.40493300
O       42.35566900       3.14105300      20.26562500
H       42.49305100       4.08435400      20.37979300
H       43.20397600       2.81210500      19.95771100
O        9.19358100      25.49503500      12.52393500
H        8.39178600      25.26652000      12.04787800
H        9.06911500      25.11451600      13.39706500
O       35.46209600      25.52527900      35.82433400
H       35.42815300      25.72989900      34.88694200
H       35.75592500      24.61141700      35.85840800
O       20.26758300      40.51283500      23.33921300
H       19.48947700      40.82225500      22.86960200
H       19.99561400      40.48671800      24.26007900
O       13.72407200      19.02812100      40.80130800
H       14.04417900      18.60242000      40.00253600
H       12.94163800      19.50817200      40.51848400
O        5.33745700      22.40556800       4.59877200
H        6.11124800      22.65075300       4.08607600
H        4.81612900      21.86498700       3.99991500
O       22.45241400      20.08288300      42.42135600
H       23.33161300      20.46832800      42.40844100
H       21.97045300      20.60987600      43.06372300
O       10.81455800      10.67868700      22.09804800
H       10.23056300      10.16133900      21.53856100
H       10.99415000      10.10676500      22.84857700
O        9.88104800       2.46375800      43.45668800
H       10.25368600       1.63287600      43.15255000
H        8.98398500       2.46263600      43.11329300
O       29.34164700      19.11745400       7.38065000
H       29.39784100      20.01751600       7.05132400
H       30.02378400      18.64389600       6.89787300
O       36.98689400      25.22659700      20.41410400
H       36.59648700      24.39828700      20.12564200
H       37.86719000      25.22188300      20.02978800
O       28.84109800      21.50560500      41.51209500
H       28.26920500      20.75001200      41.35800800
H       28.79025800      22.01303300      40.69810800
O       28.74284000      26.07735900      35.16236600
H       29.68008400      26.28497500      35.17631600
H       28.57188200      25.68866800      36.02395400
O       38.85943900      42.98840300      44.99156700
H       39.49627000      43.64510500      44.70016900
H       39.29966100      42.14750500      44.84412800
O       13.15319300      43.11398700      28.13579200
H       12.34869100      42.59631200      28.21650600
H       13.80626200      42.61946400      28.63738000
O       31.28748500      17.66402600      34.12975500
H       32.24093200      17.56514600      34.18349200
H       31.05035400      17.24172700      33.30025300
O       44.90528800       4.12538200      33.32849600
H       44.22334100       4.08364400      34.00298200
H       44.68343300       4.90495400      32.81304500
O        8.68835900       5.63991000      26.22934600
H        9.50892400       5.55708600      26.72081100
H        8.81518500       6.41988100      25.68326700
O       43.52937600      13.33310400       0.94765400
H       44.08759600      12.60199000       1.22258700
H       43.84207900      14.07952600       1.46506300
O       10.87969800      24.97022400      15.12498700
H       10.99153200      25.25261000      16.03574300
H       10.13690400      24.36187600      15.15347900
O       16.84989000       2.84680900       8.40616100
H       17.46182500       2.29812500       8.90235400
H       16.38807900       2.23015800       7.83247700
O        8.86281900       5.43681000      13.62928200
H        9.26469900       6.25670500      13.92591300
H        9.43535700       5.13353800      12.92015000
O       29.26259600      35.20294100      32.21822600
H       28.41908000      35.51730200      31.88448500
H       29.08048900      34.31077000      32.52401900
O       28.74509700       7.44306900      29.89775000
H       28.47343300       7.41331200      30.81809600
H       28.35702300       6.65508800      29.50900100
O       16.71679300      44.25167800       4.05456600
H       16.76708400      44.02518500       4.98617600
H       15.78868300      44.14255900       3.83242500
O       42.99219000      27.99840500      16.38058500
H       42.10915500      28.16791200      16.04407200
H       42.86220000      27.83053600      17.31736900
O       40.39587400      26.19784300       7.17073200
H       39.52819700      26.60582900       7.12165400
H       40.47209100      25.90866700       8.08353500
O       23.04123700      10.89686100      41.93510900
H       23.11532000      10.02740800      41.53475000
H       22.19870700      11.23354800      41.61978900
O       36.27688200      38.44156300       5.40226600
H       36.45997600      38.28915700       6.33230600
H       35.95070600      37.59679700       5.08192000
O       19.04723200      33.08625000      27.46187700
H       18.68173300      32.92776700      26.58836800
H       19.74441500      32.43154800      27.55099800
O       43.40693200      42.56287500      28.83163400
H       43.69551300      41.85902800      28.24593300
H       43.77994900      43.36046600      28.44777500
O       42.60807200      35.29837600      15.77992500
H       42.41396000      34.55575600      16.35660600
H       42.32365700      36.06836100      16.27879600
O       32.35301000      30.53381700      19.95540300
H       31.85803800      31.32637600      19.73499700
H       31.85678400      30.13513400      20.67474600
O       11.37545900      22.62127900      33.08099500
H       10.55794900      22.62267600      33.58438400
H       11.43969400      23.51233700      32.72810500
O        0.00018500       8.06188200       8.89596700
H        0.19036100       8.95700400       8.60559800
H        0.77462000       7.55702100       8.63518400
O        7.03480700      35.74160200      44.91873600
H        6.36055400      36.42073300      44.99548000
H        7.72812500      36.15198100      44.39572300
O        1.82576300      18.92113000       8.52620000
H        1.75329400      19.76591800       8.97654000
H        1.81489700      19.14689900       7.59263100
O       17.87095000      25.86487000      12.73897800
H       17.11189600      25.42396300      13.12777300
H       17.50365600      26.37743000      12.01439600
O       43.67623100      29.86360400       0.46193300
H       42.97751100      30.35304700       0.90234300
H       44.37591500      29.80496000       1.11740700
O       35.82562500       0.11072200      26.98057100
H       35.28590600       0.00272100      26.19395500
H       35.19105300       0.16360800      27.69971200
O       30.15289000      25.60102300      13.45327000
H       29.25108300      25.34802600      13.66412900
H       30.37152300      26.27070500      14.10623800
O        1.57990900      28.18952500      17.10739300
H        1.77954200      27.25346500      17.18264900
H        2.01445800      28.58772300      17.86584400
O        1.62038900      14.23943500      25.21551400
H        1.63685600      14.83831900      24.46532000
H        2.01388900      14.74388200      25.93198700
O        7.35141600      21.30399300       6.37741200
H        7.40078900      20.55696600       6.97844400
H        6.63994000      21.07728500       5.77322100
O        4.17801400      12.63444000      14.59583500
H        4.10080000      12.62264200      15.55271700
H        5.08678900      12.89962800      14.43321300
O       37.80489700      41.14131600      22.88827900
H       38.66390900      41.38306100      22.53418400
H       37.98429800      40.38656500      23.45467900
O       14.08205700      39.37933800      35.60064700
H       14.08821000      40.31615800      35.39075100
H       13.40684800      39.29121600      36.27812000
O        4.41519400      44.28535400      13.14427100
H        3.70739100      43.72999600      13.47940800
H        4.89086900      44.56562100      13.93029000
O        2.96077300      29.63796900      11.16722300
H        3.26021600      29.75168600      12.07228000
H        2.27032600      30.29706900      11.05992600
O        7.34558600      16.85264800       0.39558300
H        8.30455400      16.81122100       0.41530000
H        7.11480700      17.39653900       1.15292400
O       29.96116400      20.10117200      32.98598000
H       29.09651000      20.17298900      32.57495700
H       29.93780600      19.25752900      33.44463400
O       34.15142300      14.61426000      22.99755100
H       33.42115900      15.17594500      23.26764000
H       34.58795200      15.10970100      22.29996800
O        9.51150900      19.01207100      26.67009500
H       10.32940000      19.23486700      26.21938300
H        9.77379500      18.37414600      27.33860000
O       26.55207300       5.25598100      35.31153500
H       27.46443400       4.99962000      35.15790700
H       26.60198500       5.90111800      36.02142800
O       38.04808900      44.91511600      38.18203900
H       38.35999100      44.99980700      37.27800900
H       38.47545200      44.11908000      38.50812000
O       32.82447800      11.17684900      16.90766800
H       33.41935300      10.43440700      16.77871500
H       33.34241500      11.81347500      17.40675800
O       24.85813000      35.78326300       3.89959700
H       24.70856500      35.79949700       2.95139200
H       24.09340400      36.23175500       4.26931200
O       35.23365100      14.05268700      19.07358000
H       36.03307400      14.20861500      18.56531400
H       35.05445800      14.89436500      19.50032400
O       41.42928200      30.65107700      40.50348500
H       41.61935100      29.71580300      40.39927500
H       42.22212300      31.09210500      40.18798700
O       34.10650100      29.67786100       4.20902200
H       34.99628500      29.37735200       4.40828200
H       33.95617700      29.39421200       3.30371000
O        9.70071000      22.85340900       2.84858300
H        8.83163000      23.07881200       2.50855600
H        9.53942400      22.12056800       3.44822600
O        6.87357800      27.24976100      13.62927300
H        7.64389400      26.72699900      13.86391600
H        6.44824300      26.74702100      12.92999900
O        5.46716100      15.49108200      13.16587400
H        6.07174900      14.76874100      13.35140600
H        5.34644300      15.92486900      14.01434200
O       20.48484200      33.61208600      12.83927300
H       20.21579500      33.80523400      11.93814500
H       19.74951400      33.11484100      13.20626400
O       24.44977600      24.24173900       5.90374600
H       24.94798800      24.91479700       5.43417000
H       23.53979200      24.38559600       5.63194400
O       16.70765600      34.38785300       8.56125600
H       15.99715200      34.97505400       8.29273400
H       17.46207500      34.67204300       8.03902000
O       23.43666100      44.51466200       6.08247700
H       22.85545200      43.96970400       6.61814700
H       22.97034200      44.61219200       5.24840400
O        9.91448700       6.69010600      22.80460700
H       10.75823700       6.60634000      22.35427800
H        9.70093000       7.62430800      22.73902400
O       19.86260600       3.03638100      24.60801000
H       18.95402700       3.33513900      24.69140000
H       19.78764800       2.11144700      24.35997800
O       25.51003600      10.39954000       3.44015700
H       24.61435700      10.18281400       3.17087600
H       26.01422500      10.38779100       2.62266300
O       35.44343200      31.90912100       0.52939500
H       35.06439300      32.26258700       1.33755100
H       34.68290000      31.65457000       0.00077700
O       18.86365400       5.59120300       7.97770500
H       18.25114500       4.89013700       8.21236500
H       18.29958400       6.31904100       7.70435800
O       31.14474400      43.71622500      22.27744000
H       31.52644300      42.84914300      22.12187700
H       30.19620100      43.56885000      22.24296600
O       36.10440200       3.75173900      19.81642400
H       36.79683700       4.41589300      19.78238400
H       36.39202500       3.14228600      20.50088100
O        3.84698500      37.00739800      31.04232900
H        4.43931400      36.30871500      31.32992700
H        4.25411800      37.35122800      30.24316400
O       24.85981500       0.70725200      13.64867800
H       24.78462800       1.54357300      13.18323200
H       23.95160100       0.45394000      13.83203800
O       43.47149200      13.01349300      16.29998000
H       43.49387800      12.05455700      16.34078700
H       44.21971400      13.29239000      16.83385500
O       11.86239600      11.76296000       6.02142100
H       12.17465600      10.90755600       5.71727700
H       11.65678400      12.24229600       5.21482200
O       25.29650300       5.18956400      42.46889400
H       24.64672400       4.89750500      41.82529900
H       25.33429300       4.47563400      43.11039000
O        6.77480200      43.75789000      25.03132900
H        6.00496600      43.20979000      24.86202500
H        7.26820100      43.27600900      25.69990300
O       40.86812100      43.05321900      40.54081100
H       40.94115500      43.54002300      39.71654600
H       41.76257500      42.75252700      40.72019100
O        7.71759600      29.74118800      12.26767200
H        8.66670600      29.81274100      12.14199600
H        7.55741800      30.15929600      13.11747800
O       38.24761400      31.94562200      21.93114900
H       37.81142800      31.19525800      21.52075900
H       38.86979000      31.55170700      22.54789100
O       32.37580500      44.08865700      34.36065100
H       33.24490000      44.40710100      34.10571700
H       32.11616200      44.66036300      35.08754900
O       21.63661900      20.83644800       6.59181400
H       22.34999100      20.19760100       6.66037000
H       20.93399400      20.36174900       6.14056900
O       21.61915700       0.50631600      34.16033000
H       20.78349100       0.87195100      33.86083200
H       21.39112700       0.00229100      34.94557000
O       18.62724800      43.49943200      12.02044500
H       18.05976100      44.23447000      11.77671700
H       18.20753300      43.12160800      12.79744600
O       41.74587100      25.03957600      28.65672100
H       42.53689200      25.07605200      28.11387600
H       41.54811200      25.95902800      28.85201700
O       44.42883600      34.58268900      31.34110200
H       43.92924900      34.19826800      30.61697600
H       44.17669800      34.06176300      32.10772100
O        5.35162600      10.51287600      26.99975500
H        4.85107200      10.73596600      26.21146500
H        5.22834700       9.56560200      27.10034000
O       16.69775400      34.04776900       1.47490900
H       17.34954400      34.57597400       1.00811700
H       16.63074800      34.46105900       2.33939900
O       44.49083800      23.34052100      15.39471900
H       44.62357100      22.39571500      15.50172100
H       43.87745700      23.41332200      14.65912000
O       19.91619700       6.52713500      24.35973800
H       20.67997800       7.07003600      24.56859900
H       19.22955100       6.84356800      24.95221500
O       26.34277600       3.03194000      18.86924500
H       26.93922000       3.36348800      19.54456500
H       26.30794000       2.08491400      19.02599100
O       43.15724100       8.05308200      33.00873100
H       42.89535800       8.97673800      33.01007400
H       44.02062600       8.05065900      32.58777700
O       24.60163000       4.13260300      23.40574600
H       24.88213300       5.04685800      23.32100800
H       24.05316700       4.12358300      24.19425600
O       30.03111500      29.50142300      16.84638300
H       30.74195700      28.86109900      16.76630600
H       30.16235400      29.89634200      17.71209600
O       16.70677900      33.70104700      20.37919700
H       15.86625800      33.65535000      19.91750300
H       16.77112900      34.61507600      20.66738400
O       37.19058800      22.22362400      27.28883100
H       37.67236100      22.02422100      26.48269300
H       36.28998500      22.38278500      26.99519100
O       30.27189700      44.83422300      29.99561600
H       30.16146400      44.97763700      29.05276800
H       29.37687600      44.72426000      30.32650500
O       43.75281100      24.73878300      22.17627700
H       44.23125600      24.25683700      21.49764400
H       44.18557100      24.48846100      22.99645900
O        4.39993300      18.35539300       5.99549800
H        4.48243700      17.47459600       6.36848000
H        3.58399200      18.69729000       6.36964900
O        5.96512200      34.83888700      38.02371800
H        6.23854500      35.72784100      38.26189200
H        6.77811200      34.40311100      37.75578700
O        6.28375300      36.30760600      25.61568700
H        6.97175800      35.67820600      25.38714700
H        6.75269200      37.02862700      26.04331600
O       15.97742500      31.53996200      23.75328000
H       16.39622800      32.38807300      23.58885100
H       15.13287500      31.59913300      23.29954400
O       34.44240400       6.77912600      36.68614900
H       34.99241600       7.56269800      36.61384900
H       34.75666500       6.33968400      37.48036100
O       28.02183000      38.72965700       7.90187900
H       27.62865000      38.85792700       8.76829800
H       27.27086600      38.66487900       7.30648100
O        0.99227000      30.57320500      40.99898200
H        1.81482700      30.14173300      41.24179200
H        0.44718000      29.86567800      40.64553500
O       11.28522900      36.24552800       8.09823700
H       10.83075500      35.40439300       8.01065800
H       11.41310900      36.54274400       7.19383000
O       25.56106500      25.23268700      32.51243800
H       24.79575700      24.67091300      32.36946900
H       25.22219600      26.12630100      32.41618400
O       44.21062800      14.45446000      39.19956800
H       43.61187800      14.48491300      39.94943200
H       44.41878500      13.52222000      39.09836900
O       41.98580100      43.19914000      26.13243500
H       41.78102500      43.78158100      26.86766000
H       41.76268700      42.32191000      26.45388400
O       10.11595300      19.77891700      13.71155400
H       10.46932500      19.27704800      12.97332600
H        9.44556000      19.20504000      14.09087000
O       41.70826600      32.29652600      42.32856900
H       41.57280500      32.28041400      43.27889300
H       42.58277000      31.91857600      42.20594000
O       19.94740900      23.67031100       8.42862300
H       20.48156700      22.94340100       8.09998700
H       20.44857400      24.01803100       9.17062500
O       16.62418000       3.42660900      21.01415900
H       15.72652500       3.65266300      21.26879500
H       16.83183000       4.03881800      20.30372000
O       21.55591500      43.33800100      21.83317400
H       21.15601600      42.86904000      22.56930000
H       22.50093200      43.22857600      21.96587800
O       36.51355200       8.89011100      38.46831300
H       35.66268600       9.22621000      38.17712600
H       36.30642200       8.34747600      39.23335300
O       44.99657900      14.87511100      18.64856000
H       44.65306300      15.74591300      18.43542800
H       44.56682300      14.64529800      19.47629000
O       31.20258100       8.88301700      18.11813300
H       31.84066000       8.61065200      18.78175800
H       31.12185000       8.12150900      17.53828000
O       27.95914200      43.26461600      25.89729200
H       28.68522000      43.80020500      26.22543800
H       28.32589300      42.80560500      25.13739300
O       44.99744100       6.48032400      41.75809200
H       44.55977000       5.94294600      41.09371700
H       44.52298700       7.31531000      41.73981800
O       43.26046900      43.65384000      19.57134400
H       43.15728700      42.76155300      19.23237100
H       44.15885400      43.67767800      19.91042900
O       37.62820300      30.19760100      19.14280800
H       38.01899000      29.67113300      19.84412200
H       36.90028000      30.65820700      19.56779300
O       41.59952600       7.26221500      37.01836700
H       42.40124300       7.32678400      37.54258700
H       41.83901200       6.68856500      36.28610000
O       34.84793200      28.17557300       7.30675500
H       34.41754200      28.08083000       8.15969900
H       35.51711700      28.84941000       7.45089500
O       36.92621700      38.27342900      17.01323500
H       36.92826200      37.91955200      16.12077100
H       37.82779700      38.14999200      17.32073700
O       40.92435200       9.28690600      27.19915500
H       40.00646000       9.31134800      27.47951700
H       40.98502100       9.96559100      26.52214000
O       38.89074600      44.04807500       9.07108100
H       39.64948600      44.23798700       9.62783300
H       39.14892000      43.26754000       8.57433800
O       21.07133800      20.61348800       3.96413400
H       21.57671100      21.25986600       3.46561800
H       20.16450100      20.74682200       3.67688700
O        3.04070900      19.01538300      20.80701600
H        3.50313900      19.85473500      20.74894600
H        2.36594800      19.16062900      21.47503000
O       17.86424800       0.72316800       2.89422500
H       18.36960500       1.19721900       2.22968500
H       16.97958100       1.09156500       2.82873100
O       22.06721900      14.17506300       1.45470900
H       21.11252100      14.16222300       1.35415700
H       22.22626200      14.83186200       2.13732300
O       19.26151500      20.15202800      38.76405200
H       19.78994600      19.36970300      38.93856400
H       18.37531300      19.81279100      38.61503600
O       33.35610700       3.98823700      15.41423100
H       33.02885700       3.38378500      16.08450800
H       32.79310900       4.76220200      15.49580100
O        7.38000900       9.86580400       2.92180200
H        6.83623900       9.27249400       2.39833000
H        7.92051000       9.28168800       3.45967700
O       33.24378500      41.31895000      11.25855400
H       32.39410100      41.64560600      11.56360700
H       33.37744300      40.50547100      11.75153500
O        4.52570600      43.88302000      17.94294300
H        5.17652200      43.23874600      18.23116900
H        3.88772000      43.36937400      17.44116300
O       32.10302000       0.08437100      17.36021700
H       31.21004000       0.08965500      17.00767700
H       32.63452000       0.48782500      16.66929400
O       25.65742600      39.61644700      12.61051000
H       26.35024900      39.94229000      13.18977300
H       25.16454400      40.40272200      12.36255400
O        7.65548200      38.05404800      38.69569000
H        6.76237100      38.32263700      38.92358900
H        7.89285100      38.61882300      37.95587400
O       21.12656100      17.63937500      38.14727000
H       20.36816500      17.73199900      37.56590800
H       20.74845700      17.39155800      38.99477600
O       12.47674500      11.43853400      20.18882000
H       12.37006200      10.55257100      20.54295700
H       12.78875500      11.30042900      19.29092300
O       16.86718200      27.18420900      42.51239600
H       16.20221100      26.91682700      41.87361200
H       17.48099400      27.72259500      42.00641400
O       16.31911800      10.43174800      16.91039400
H       16.25095200      11.10185300      16.22626200
H       16.08173100       9.61337400      16.46705000
O        1.82505900      35.41231100      32.38036200
H        1.19180900      35.06376200      33.01221000
H        1.28616500      35.87194600      31.73153800
O       40.40010200       2.71618400       4.64502600
H       40.13190800       3.53869200       4.22876000
H       41.26959400       2.53601700       4.27874000
O       17.47809100       2.68381400      41.48664000
H       16.59235400       2.60593300      41.12452100
H       17.47764100       2.09597700      42.24630400
O       40.55719800       5.38580000       6.03657400
H       40.04336600       5.86241700       5.38042000
H       41.23339100       4.93256200       5.52669100
O       17.69505500      44.96599100      27.81454800
H       16.77926400      44.99510300      27.52783600
H       17.65240900      44.63611600      28.71566200
O        5.79993900      34.11815500      22.18179400
H        6.63168800      34.21187600      22.65204400
H        5.21432100      34.75132600      22.60462700
O       12.51054800      21.60204700      26.73701600
H       13.07503000      22.27203700      26.34433600
H       13.11380500      20.89606500      26.98260200
O       26.72948600      35.73557300      28.99423400
H       25.86129100      35.70910200      29.40321100
H       27.33784500      35.54965600      29.71394000
O       35.58875500      23.02652400       7.06003000
H       36.24213900      23.71324500       7.21244100
H       35.50449300      22.58496300       7.90889200
O       41.20906400      18.50521700      16.64318600
H       40.98188700      19.00322900      17.43191900
H       41.74687900      17.77817700      16.96692700
O       16.77042300       5.20103800      11.33637600
H       16.01078700       5.72775800      11.07706100
H       16.46048400       4.68947000      12.08795900
O       17.01500600       8.33117400      37.45782700
H       16.94791300       7.40346600      37.21995900
H       16.87977000       8.34389000      38.40871700
O       29.18027200      22.70356800      17.31040900
H       28.35618600      22.89686100      17.76345000
H       29.79455300      22.48500900      18.01576800
O        4.15544900       6.01334100      16.78232200
H        4.22747500       6.94201600      17.01491700
H        4.94318200       5.83606500      16.26204100
O       11.64605900      41.11664500       0.89493900
H       11.99691000      41.09006600       0.00167400
H       12.29648200      40.64426700       1.42072500
O       29.35850900      43.12252200      31.82953200
H       30.11666100      43.57157200      32.21069300
H       29.70955500      42.67907500      31.05315300
O        3.28783700      39.52169600      42.50536100
H        3.12068500      38.69737500      42.04245600
H        3.19833900      39.29569500      43.43463700
O        6.54424200      42.24425700      16.46527600
H        6.76411200      42.46227400      15.55651300
H        7.38093000      42.30221400      16.93350300
O       23.15318700      33.28765400       4.39534000
H       22.46862000      33.72215400       4.90944500
H       23.17490800      33.77445900       3.56757800
O       35.14601200      39.87376400       1.97743900
H       35.66218400      40.33921000       2.63974800
H       34.26878900      40.25927200       2.04456200
O       38.29180900      30.89303100      28.46643400
H       38.23567200      31.84085600      28.60856800
H       39.23424000      30.70738000      28.46616200
O        7.32587200       6.38928200      35.09143100
H        7.08769400       5.93944000      34.27740500
H        7.13601100       5.74913500      35.78194300
O       35.85360400       9.24560800      18.76910200
H       36.57462500       9.19835900      19.40125800
H       35.82157000       8.36887700      18.37800200
O       39.72407400      29.28701400      21.23200200
H       39.58005000      29.49146600      22.15892200
H       39.93060000      30.13466800      20.83016700
O       27.04679700      28.64329000      29.79946500
H       26.74167200      28.22162700      28.99272800
H       27.78218100      29.19322200      29.51763800
O       37.35504600      37.64624700       8.98665000
H       37.69010400      38.18952500       8.26949600
H       36.40731900      37.60892500       8.83478500
O       35.97207700      37.58563200      29.58988900
H       36.58727900      38.30150400      29.41445300
H       35.21036700      38.01729100      29.98499700
O       30.43303300      23.88000100      15.57472300
H       29.55484200      24.26318500      15.63534900
H       31.01183400      24.63236600      15.42783000
O       37.49509600       6.17098500       2.59707700
H       38.26785200       6.50433900       2.13507200
H       36.76262500       6.36336700       2.00621500
O       41.60714800      31.61556800      18.61490700
H       40.84493400      31.69194500      18.03618300
H       41.26524200      31.18840400      19.40438300
O       38.95066200       9.79522700      10.90229400
H       38.62137600       9.39825700      10.09253400
H       38.98736300       9.06668500      11.52721100
O       19.42075200       0.91146800      39.40736500
H       18.69125100       1.47806500      39.14559900
H       19.06738400       0.38626700      40.12981700
O       23.68826700      28.38382300       4.50934000
H       23.42163800      29.02769700       3.84899200
H       24.17362000      28.89693600       5.16033100
O       27.08269800      40.67978300      10.29015300
H       26.38451100      40.03635600      10.43249900
H       27.06118600      41.23260400      11.07537200
O       30.79165900       8.54144200      14.57447000
H       30.15782500       8.38460800      13.87063500
H       30.25524500       8.82202100      15.32024400
O        8.29661900      35.97879600      37.52607000
H        7.95854900      36.65231200      36.93125000
H        8.64661600      35.30005400      36.94344300
O       20.05846300      22.82683000      30.76077800
H       19.51922400      23.53822000      30.40740800
H       19.73463300      22.70467000      31.65679900
O       10.39497900      35.83866700      42.51165200
H       10.98808900      36.53280000      42.21479300
H       10.11316900      36.12309000      43.38476700
O       16.47317500       1.98312900      19.32398800
H       15.94168900       2.48695300      18.70317400
H       16.36917200       1.07097800      19.04148900
O       36.40342700      34.76612600      42.57684300
H       37.21569100      34.50461700      43.01680300
H       36.52963300      35.69711700      42.37692000
O        2.79858600      30.93172100      26.51981900
H        3.04996800      30.05763600      26.21240000
H        3.20079600      31.00353600      27.38913600
O       38.39561300      44.13020000      31.10382000
H       37.85041200      44.13954100      31.89400700
H       39.29612100      44.17612400      31.43490600
O        9.63588400      30.30853700      43.33117300
H        8.88435900      30.75546700      43.72764400
H       10.34009700      30.40774000      43.97684000
O        7.44632300      11.00149200      26.13993300
H        6.83154700      11.43237500      25.54150500
H        7.96833900      10.42794200      25.57320400
O        3.05427900      32.49502000      22.49704900
H        3.60000600      33.27590500      22.37819900
H        2.49886100      32.70495400      23.25208600
O        1.21743200      34.55314800      25.89232400
H        0.66489400      35.20656500      26.32760800
H        1.76357000      35.06542400      25.29070200
O        5.27406800      37.50717100       6.47105200
H        6.08302800      37.23249100       6.03303600
H        5.50375500      37.53015600       7.40344500
O       39.46283400      33.33067400      19.44627100
H       39.49680700      32.43514600      19.79065600
H       40.37158700      33.52836400      19.20600200
O       15.78261100      37.17889300      23.10276300
H       16.12810200      37.93654000      22.62492300
H       14.96457200      37.49626700      23.49356700
O       44.18743100      32.56129500      16.18638800
H       43.30746000      32.55025500      16.57012400
H       44.18993100      33.33551800      15.61786800
O       40.75374900      38.33853000      22.11216700
H       41.46889800      38.35543300      22.75248000
H       40.64628400      37.40806600      21.89925800
O        4.80474600      31.46261000      23.39344900
H        5.62184300      31.96590300      23.42125000
H        4.75629600      31.03890200      24.25412700
O       34.21675500      32.29459400      11.52875500
H       34.31429300      31.40439100      11.18270500
H       35.11554500      32.57803100      11.71444800
O       18.93813000      25.48890600      42.47597700
H       18.36210900      24.72118100      42.49882200
H       19.80011200      25.13346100      42.24513500
O       12.07208200      43.04771400      43.96622700
H       11.17030100      43.23137200      44.23969900
H       12.42419400      43.90518300      43.71442300
O       10.67209800      33.56946500      38.53366400
H       10.56627000      34.45797200      38.18569600
H       10.15658600      33.01786900      37.93983700
O        5.22552100       2.67339200      37.92758500
H        5.16662500       2.51792000      36.98202500
H        5.53537100       3.57958800      38.00137400
O       23.67363200      13.26726100      43.71262500
H       23.77280700      13.95123800      43.04624300
H       23.51485400      13.74983800      44.52782400
O        4.18516500      16.59921700       1.11880600
H        3.82784000      15.93092300       1.70823500
H        4.42793400      16.11324800       0.32663100
O        2.90584600       1.50832500      43.21088600
H        3.09672300       1.87643900      44.07678600
H        3.23086900       0.60570400      43.25860500
O       37.77915400      41.60244000      31.44456400
H       38.68784700      41.91074500      31.41371000
H       37.33512600      42.09946400      30.75286400
O       28.93815200       5.44467300      19.95117000
H       28.94788700       4.63218900      19.43979900
H       29.69823600       5.93702600      19.63101100
O       44.38903800       4.39325200      25.03991800
H       44.50006300       4.45704900      24.08843000
H       44.99994300       3.70117600      25.30537800
O       39.02045000      31.88777600      41.64946800
H       38.84079700      31.34260800      40.87989600
H       39.50613800      32.63961900      41.30092700
O       34.19670900       6.29510100      40.57113900
H       35.09909000       6.61658700      40.63502800
H       33.68370200       6.91995100      41.08981800
O       23.97697300       6.51398600      43.79505300
H       23.29369400       6.55685900      43.12198700
H       24.68660000       7.06148500      43.44963200
O       42.39099100      26.49923000      33.51655900
H       41.82445700      25.83642400      33.91837100
H       42.63300100      26.12255300      32.66674300
O       41.29930400      43.25997900       2.75238600
H       41.92343200      43.97851200       2.62629600
H       40.55257300      43.66818600       3.19780900
O        1.21866100      13.23418900      29.99208100
H        1.82983400      13.53366000      30.66921400
H        1.65960800      13.44157300      29.16431300
O       33.12729000      30.23564300      32.35763900
H       33.13992900      29.31935000      32.64394600
H       32.51854900      30.24492000      31.61467900
O       31.18151500       1.40173500       1.44300600
H       30.71431700       2.18142700       1.75208600
H       30.50206200       0.86672500       1.02497500
O       20.74227800      13.09106000      32.73318500
H       20.33793700      13.93143000      32.50512500
H       20.18468600      12.74006800      33.43214000
O       32.13753000      19.59774300      32.82103400
H       32.60231400      19.02066400      32.21055800
H       32.10905500      20.44642500      32.37206900
O       16.10066200      44.33517700      22.45970300
H       16.35853100      44.76416700      21.64043800
H       15.74186100      43.48830600      22.18273100
O       21.15915100      35.00043200      32.71824100
H       21.34790200      34.82771500      31.79289400
H       21.27748100      34.14984300      33.14851800
O       32.52143300      25.69602600      43.91729300
H       31.62467400      26.03887800      43.91624700
H       32.47169000      24.89664000      43.38705700
O       44.01698700      15.41018600      16.14390400
H       43.27468400      15.50581900      16.74520800
H       44.54553900      16.19875800      16.29029100
O       33.12686500      27.77956100      12.25561500
H       32.87187200      28.36361800      12.97365500
H       33.55861500      27.04040700      12.69137300
O       29.88880800      -0.00011500       3.83526900
H       30.03038000       0.61635700       3.11302000
H       29.08710900       0.31263500       4.26201000
O       32.43382900      33.45997800       6.29111500
H       32.51967200      34.40647100       6.15507700
H       31.82542400      33.37951300       7.03004100
O       21.82068900       7.37421400      15.18355400
H       21.29666000       7.18512200      15.96545200
H       21.89831500       6.52686100      14.73789800
O       15.91713300       1.32122100      13.27081600
H       16.74628000       1.47492400      13.72974400
H       16.05988400       0.50314100      12.78810600
O        2.34540300      10.94544600      19.56504500
H        2.71755600      11.01917700      20.44697000
H        2.34718600      11.84547100      19.22949300
O       32.37386500      23.92002100      13.12938900
H       32.32389600      23.56536200      14.02014400
H       31.48458800      23.81660700      12.78134500
O       36.14778600      33.20104100       3.77701900
H       36.59130500      33.78545900       4.39626900
H       36.59545500      33.35517700       2.94126900
O       10.16098000       7.88051800       3.72161400
H       10.79746700       7.34079900       3.24694300
H       10.51136900       8.77269600       3.65925800
O       39.36542900      18.30906500      30.67385300
H       39.24834900      19.25590200      30.56653000
H       39.97395700      18.06306000      29.97255600
O       40.73087500      25.34373100      25.83493100
H       41.61180400      24.96683600      25.77460900
H       40.40082400      25.04350400      26.68556200
O       18.37204500       3.59861000      36.64728100
H       19.12360800       3.50321900      37.23700900
H       17.92232400       4.38770200      36.95989600
O       11.87294300       3.49675600      13.26463800
H       11.29918800       4.18736900      13.60461300
H       11.94133900       3.68462100      12.32513200
O       42.62945800       6.99086800      23.74737100
H       43.17326200       6.32495900      24.17465000
H       43.17677200       7.78022600      23.74526600
O        0.90526000      16.06929000      21.21221500
H        0.00192100      15.76294500      21.32110200
H        0.85593400      16.70736800      20.49592900
O       31.18333800      31.82899200      11.37751600
H       32.06933200      31.86814000      11.74522200
H       30.67511900      31.34232400      12.03135800
O        8.95927600      40.15851600      39.23951000
H        8.03166500      40.28403800      39.45283600
H        9.27330300      41.03794600      39.01449500
O       43.14419500      26.08509300      14.35496100
H       42.39419900      25.51171600      14.52952100
H       42.91103400      26.54207900      13.54290100
O       20.23190500      32.43300300      37.06646000
H       20.20562900      31.47554200      37.13205300
H       21.07734500      32.67533700      37.45265600
O       12.57743200      31.45465100      27.64197400
H       11.90133800      32.13531100      27.67834800
H       12.09964900      30.65657600      27.40230600
O       32.83347400      29.49720300      17.05574900
H       32.53190800      30.09612900      16.36867400
H       32.45910200      29.85471100      17.86487000
O       17.86966500      17.17762600      29.47198500
H       18.73421200      17.43796900      29.14563200
H       17.72387400      17.74072200      30.23638600
O        5.69443800      10.71157100      15.91005100
H        5.14379500      10.72997100      15.12380800
H        5.06995800      10.74195200      16.63925800
O       24.08853200      15.87636600      40.51763300
H       24.02683700      15.50531200      41.40094400
H       24.89148900      15.49453300      40.15417000
O       41.82505000      18.96508200      36.34682800
H       40.90657600      19.23619000      36.41487300
H       42.25355900      19.68887900      35.88299600
O       21.10581200      38.54259200      23.96117300
H       21.13034700      38.14451600      23.08787000
H       21.68460100      37.98930500      24.49175600
O        2.78288000      35.37261600      14.60876800
H        3.64430700      34.95773100      14.52194400
H        2.36641400      34.90695500      15.33839700
O       15.76441600      12.30042200      19.79036300
H       16.49125000      12.00858500      20.34558200
H       15.76619300      13.25691000      19.87850500
O       18.93937100       1.77453600      18.30885500
H       19.35690800       2.28028800      17.60771200
H       19.65745700       1.56393900      18.91105300
O       29.11163000      16.95648000      11.80917700
H       29.84548400      16.54316100      11.34836100
H       28.37202100      16.36162700      11.66163100
O       18.65533400      33.02543800       9.63044100
H       18.39953400      33.91449800       9.88707900
H       18.01163700      32.45811900      10.06223300
O       39.07623100       9.61678600      35.56506700
H       38.49490900       8.89888800      35.82662600
H       39.69613700       9.21096000      34.95378700
O       24.05408500      22.49076100      42.84876800
H       23.91681800      23.23287200      43.44219400
H       24.75092900      21.97775700      43.26575500
O       31.13035400      41.00873100       9.20702800
H       31.18963000      40.05255300       9.14429700
H       32.02274800      41.28913300       9.42531300
O       38.90909300      40.01090900      38.00588800
H       39.80940200      40.25145100      37.77500400
H       38.46921100      39.89380100      37.16005600
O       20.74680300      43.80701700      19.38805000
H       21.30326000      43.07686700      19.66905100
H       20.18007000      43.42817800      18.71134000
O       26.37802700      12.55781700      28.56088700
H       25.62045000      12.91945300      28.09503200
H       26.28271400      11.60646700      28.46874000
O       13.42774800      10.47772100      41.22042000
H       13.48345000       9.54053400      41.01966200
H       12.67334800      10.78603800      40.71202600
O       17.77252800      25.47013200      30.81173200
H       18.35916400      25.79424000      31.49914500
H       18.29403500      25.52657400      30.00706600
O       33.05270700      20.99773100      14.59905600
H       33.58243400      20.49802400      15.22468100
H       32.23787100      21.18437600      15.07218100
O        5.84728400      45.00168000      20.09878200
H        5.14850400      44.34651500      20.16352300
H        6.12472300      44.96436500      19.17993600
O        0.86603700      11.65613500      43.12933200
H        1.69699600      11.81284300      42.67471600
H        0.39159600      11.04859300      42.55623600
O        5.71725200       7.26617600      32.74069500
H        6.53678400       7.74632400      32.88052100
H        5.02904200       7.90896900      32.92997200
O       18.86301900      12.35872000      38.17771400
H       18.22561800      11.64231600      38.13072300
H       19.52966700      12.04470100      38.79384300
O       35.69195900      28.83523100      41.84210700
H       36.31653200      28.14858100      42.08735300
H       34.88344200      28.35946900      41.63572800
O       16.85421900      40.68122000      28.20826300
H       17.66485700      40.17234700      28.13317000
H       16.34099400      40.42728800      27.43705500
O       15.77987600      45.00009700       7.84618300
H       16.02354500      44.08536600       8.00624000
H       14.93153900      44.94610000       7.39891300
O       11.59126800      16.96109500       2.12676400
H       11.38156400      17.89585300       2.18982600
H       12.43534000      16.93645300       1.66896900
O       13.40618000      27.23685400      37.15730500
H       13.36737000      27.80357500      36.38332500
H       12.68021000      26.61942000      37.03736900
O        2.04325500      21.70748300      20.23205000
H        1.71056300      21.20127500      20.97689500
H        1.86422100      21.15335100      19.46816100
O       39.22254700       4.04523300      30.67106200
H       39.91376800       3.48811900      30.30559700
H       38.43483000       3.80221200      30.17802700
O        3.54252700      20.96461500      42.83252000
H        4.25620900      20.34367900      42.66874800
H        2.79899000      20.41183000      43.08594200
O        3.11810400      24.62873600      22.58761100
H        3.22729700      25.52546300      22.91269900
H        3.60341400      24.61483500      21.75880300
O       17.59922100       9.39416800       8.07879800
H       17.95753400       8.50870100       8.17515800
H       16.93626800       9.30934000       7.38891500
O       31.58014800      25.39250800      35.83247200
H       32.42736000      25.69198300      35.49443000
H       31.41331500      25.95695200      36.59155800
O       12.44606600      14.27816100      33.06271600
H       12.94720200      13.50934900      33.34470300
H       13.06634300      14.78621300      32.53377200
O       42.52461400       9.99729400      42.91669300
H       41.95309600       9.68431800      43.62177300
H       41.96034000      10.56650400      42.38731800
O       35.92073800      43.82108100      23.93306400
H       35.89902100      43.00194000      24.43332500
H       35.31643400      43.67000700      23.20187700
O        0.95901600      44.90004400       6.56930300
H        0.40622000      44.99998300       5.79074400
H        0.35208600      44.99991400       7.30707400
O       24.43514200      35.29948200      15.05339100
H       24.11000400      36.01714800      14.50478800
H       24.28919100      34.51060900      14.52516900
O       23.35187500      31.23152000      29.58782900
H       23.55815300      30.30028500      29.69726500
H       23.46152000      31.60482500      30.46604500
O       10.98380100      27.81415800       5.39061900
H       10.54795500      27.12228100       5.89367900
H       10.27152400      28.24572100       4.91202000
O       28.76979200      31.18410700      31.54625400
H       28.38546300      31.21367600      32.42553900
H       29.40138900      31.90774600      31.53765100
O       29.65710100      21.33048600      43.56638400
H       28.93746000      20.70137600      43.65617500
H       30.41578800      20.88079700      43.94693200
O        2.90458600      44.45686500      26.78769500
H        1.97819300      44.21018200      26.83933800
H        2.96319700      44.99919000      25.99706800
O       12.62493500       1.25103300       1.36891100
H       11.91056000       0.66946800       1.09840200
H       12.98485000       0.83602600       2.15686500
O       40.67163400      44.60902100      19.82164100
H       41.52010900      44.99681700      19.59486200
H       40.45298500      44.99528000      20.67348500
O       39.71898200      27.44660300       2.59078300
H       40.28184300      27.62695300       3.34734500
H       39.30416500      28.29068800       2.39561700
O       13.07165600       3.57622500       3.38632400
H       13.26195100       4.23682500       4.05648800
H       13.68066700       3.77915700       2.67178500
O        9.17705200      12.17470300      33.37109700
H        9.62525800      11.33948300      33.52355300
H        8.35934100      11.92958500      32.93074900
O       15.52656500      14.85248600       7.07227300
H       15.69978900      14.48622000       6.20188900
H       16.39425200      14.92328000       7.47816700
O        8.51947000      11.13998600       7.11469300
H        7.76401700      10.54764800       7.12700100
H        8.14020400      12.00669000       6.94848800
O       33.76069800      36.33242700      16.18386600
H       34.09112100      36.50438000      15.29900500
H       32.81523100      36.48945800      16.12002300
O       44.65736100      18.46256700      12.78178100
H       44.99612700      19.36087600      12.78353200
H       43.75136100      18.55000900      12.47492500
O        8.79179000       3.39340200       6.68622300
H        8.91499600       3.96800200       5.92702600
H        8.07150800       3.79749000       7.17668100
O       14.48912400       4.51992800      13.04943900
H       14.06425400       3.68949900      13.27658900
H       13.92239300       4.90073400      12.37383200
O       30.19175200      19.84632100      15.68408300
H       29.75557800      20.69397300      15.57022700
H       29.66925600      19.39731800      16.35343800
O       12.90685200      12.99986600      42.26773400
H       12.24648900      13.61160800      42.60152700
H       12.55302400      12.13106400      42.47420400
O       40.85618200      12.01550200      38.73887500
H       40.00178700      12.25652900      38.37330600
H       41.10128000      12.76548000      39.28669000
O       41.87173400      37.61942900      28.69505600
H       41.45424500      37.32631700      29.50839100
H       41.13831800      37.79104000      28.09899100
O       26.34599800      38.11111100      27.63371000
H       25.55409100      37.75720000      27.22218300
H       27.01331400      37.43612600      27.48631300
O       22.12240500      21.57003800      40.87070600
H       21.47578700      21.97277000      41.45501600
H       21.64509400      21.42663300      40.04957800
O       33.11122900       1.08938900       3.04289500
H       33.34090500       1.63710900       3.79720000
H       32.26216800       0.70577000       3.27650700
O       34.50899800       2.18889900       0.29078300
H       33.88877200       2.86175300       0.00041900
H       34.03934600       1.71354000       0.98078500
O       12.49547200      42.14250200      33.51072000
H       12.03110600      41.58830400      34.14234800
H       11.89230700      42.21271100      32.76647200
O        9.34486100      34.07240900      23.39752000
H        8.90318900      34.76803200      23.89022700
H        8.81333100      33.96766500      22.60433300
O       19.60587500      16.21752800      31.10421800
H       19.85901300      15.98125400      31.99966300
H       20.14291400      15.64883600      30.54670600
O       19.64263600      18.31365100       3.51924700
H       20.58288000      18.30513000       3.71313800
H       19.23422100      18.62054200       4.33267000
O       35.42424800      24.42630300       3.90672900
H       35.84168200      25.06243200       4.49223200
H       35.99493100      24.40278300       3.13445400
O        1.55419300      39.12714300      36.53388200
H        2.08392100      38.33445700      36.64685500
H        2.18694400      39.84732600      36.59393100
O       19.70437500       9.95478000      37.57970600
H       18.81003700       9.60889000      37.53232800
H       20.17169400       9.50534600      36.87100100
O        4.01704800      37.79750100      10.93342400
H        3.97695400      38.73457600      11.13838400
H        3.30725300      37.40955100      11.45142800
O       40.13495100      28.50958500       5.38049600
H       39.29159400      28.06667800       5.50011200
H       40.72286900      28.07523900       6.00366400
O       16.27127000       7.56100300       9.88914500
H       17.03677800       7.07749600       9.56985800
H       16.59474100       8.03992300      10.65637600
O        2.67441400      23.36034000       5.44097400
H        3.19047900      22.98175300       6.15656700
H        3.33083400      23.68028600       4.81696400
O       34.04836900       5.89820700      24.48591700
H       34.10745000       6.51572000      25.21866000
H       34.96215500       5.69118800      24.27430200
O       23.83304900      36.66794900      30.48470100
H       23.99231100      37.61421800      30.45409800
H       23.06175700      36.57411900      31.04945500
O       44.26659800      29.89220500      26.83880700
H       44.99934400      29.37660900      26.49388800
H       44.02525000      29.44712000      27.65507400
O        9.95942600      11.76262700      26.74660700
H        9.83953700      10.90827500      27.16783600
H       10.69905200      12.15774900      27.21508700
O       15.84422400      32.61128300      36.27547100
H       16.10816100      33.52829900      36.38103800
H       16.62739800      32.10880800      36.51379800
O       18.62176800       5.99639100      16.84972300
H       18.32317600       5.40750100      17.54670000
H       19.57332300       5.86850700      16.82089600
O       27.75393600      19.13411800      35.12574700
H       27.42177000      19.68127100      34.41019400
H       28.66771900      19.41021300      35.23258400
O        1.43589100       4.40096400      38.60844300
H        1.30568100       5.21950900      38.12392700
H        0.60878400       4.26789900      39.07836900
O        6.57276300      27.41763300      38.87184500
H        6.50966500      28.19477600      39.43201700
H        6.97981100      27.73892700      38.06331400
O       37.92119700      25.48481400       9.16742000
H       38.82061700      25.19576500       9.33835900
H       38.02268200      26.33444700       8.73099600
O        3.74318600      36.58148300      22.73548400
H        3.49523800      35.95142700      23.41612700
H        3.10407800      36.43745600      22.03303100
O       31.96043000       2.51873100      35.98546400
H       31.29510100       3.20801000      35.92255700
H       31.48067700       1.75335800      36.31208900
O       12.64318500      23.47983800      11.10476300
H       11.68925800      23.58695000      11.12137600
H       12.83844900      22.96016100      11.88863200
O       41.07462900      16.08437400      42.91603600
H       40.36603600      16.43752000      42.37298100
H       41.78888700      15.91618900      42.29620400
O       16.30928300      39.38255900       2.96680800
H       17.13031300      39.50191400       2.48370500
H       15.91960600      40.26004900       2.99517700
O        6.39137700      31.18016300      10.79372600
H        5.95973200      31.69642400      11.47847500
H        7.32263300      31.39839200      10.88193300
O       29.28385900      22.79935900       8.84765700
H       28.91768200      21.91455900       8.91670800
H       29.05800900      23.08210100       7.95788700
O       23.22787600      18.41169000       8.82567900
H       22.33651800      18.67194500       9.06954900
H       23.48054700      19.03775600       8.14242200
O        4.89355600      33.09986500       0.00101000
H        3.96155300      33.01564000       0.21548700
H        5.05472000      34.04677800       0.00590700
O        5.99319900       5.94813100       6.04410000
H        6.91454400       5.92839000       5.77491900
H        5.94952900       6.65482100       6.69319500
O       29.12973200       9.80540200      23.62525200
H       28.36671100      10.37498900      23.50238900
H       28.89227800       9.24585100      24.36900000
O       12.78040300      31.79751400      43.68705200
H       13.35623900      32.14677200      44.37127200
H       12.46664600      30.96230100      44.04288600
O        3.90634200       6.38906500      22.17835500
H        4.35181700       7.23913000      22.15255100
H        4.35054200       5.86658300      21.50579100
O       41.47497700      24.13226900      22.05977400
H       41.59436600      24.96162600      21.59111700
H       41.31471900      24.39371500      22.97005200
O        3.87980100       2.99894000      32.04382400
H        4.55872900       2.35708400      32.26473500
H        3.31631300       2.54269500      31.41377300
O       32.77374800      13.93972100       9.07680300
H       33.47933800      14.56367100       8.89091300
H       32.05138000      14.48538600       9.39785600
O       31.97944100      18.00714300      12.64365400
H       31.72401200      17.10954900      12.41825300
H       32.59958500      17.90334500      13.36980200
O       24.67091500       3.52350100      10.71696000
H       23.77910200       3.23392600      10.51070700
H       24.84725700       4.22280400      10.08251500
O       11.38823400      44.50484600      27.36671300
H       12.13847000      44.98649400      27.72292500
H       10.62156200      44.95346500      27.73222300
O       11.81116200       8.09332200      10.02088900
H       11.81653700       8.96872800      10.41504800
H       12.35775200       8.18187700       9.23600700
O       43.50827800      27.01229700      28.74290500
H       43.11413600      27.87469600      28.89338600
H       43.91991700      27.08588600      27.87816300
O       14.30559500      15.11959700       9.64771300
H       14.78915700      15.90877700       9.39259200
H       13.67347000      15.42829800      10.30175000
O        4.74901800       9.60001500      40.91890200
H        3.80610100       9.43045300      40.85660700
H        5.06912800       8.94150200      41.54061900
O        4.23641300      24.46181600      41.29483100
H        3.74081800      25.10315600      41.80941200
H        3.63393300      23.72060200      41.19353500
O       20.22967600       5.23860000      35.14491200
H       20.48129200       6.15541900      35.01128400
H       19.64713200       5.26006900      35.90834100
O       39.87350800       5.94445800      11.05032700
H       40.00989400       6.85529700      10.77922500
H       39.12061600       5.98304400      11.64556400
O       35.46429000      22.51297100      16.28520100
H       34.84780900      23.09555000      16.73495400
H       35.66918300      22.96973300      15.46542700
O       36.51976200      33.59825100      17.73521800
H       36.83243800      34.14975700      18.45618900
H       36.45501000      32.71961700      18.11790800
O       22.90254200       4.51847300      44.16234600
H       23.64306200       4.35594300      44.75136100
H       23.17090300       4.12559500      43.32791700
O       14.28778300      36.45644400       6.53602000
H       14.44177200      35.56604900       6.86037800
H       14.86554700      36.53540000       5.77273900
O       17.66277200       2.28522500       4.61069500
H       17.72205500       3.06002800       5.17451400
H       18.54313900       1.90206400       4.63867300
O       38.28478300       9.26991400      33.25557600
H       37.62758300       9.89070900      33.57872700
H       38.82374500       9.78640600      32.65109400
O       25.14323100      10.14900700      33.54810400
H       24.22003700       9.91953900      33.41855900
H       25.54917000       9.33668300      33.86113000
O       13.87106300      39.62244100      21.84077100
H       13.04737200      40.10045100      21.96228300
H       14.33677800      40.11842800      21.16272400
O       24.10754100       9.16592500       5.95442000
H       23.46911100       8.46401600       6.10089800
H       23.81941500       9.58395500       5.13902000
O       14.37365500      18.74070900       7.31120000
H       14.42682200      19.67683800       7.10489700
H       14.80604900      18.65980400       8.16509200
O       39.52494900      36.15059600      16.27136600
H       40.19915500      36.17164900      16.95454100
H       39.31474700      37.07476500      16.11526200
O       39.10798400      14.89102200      27.33970800
H       39.72509800      15.61070100      27.18819100
H       38.37560200      15.29956200      27.80806000
O        7.60066000       9.48438900      20.28019200
H        7.08969700       8.67369200      20.22178500
H        8.39833900       9.23007200      20.75101400
O       12.14116800      37.36341600       1.42261200
H       12.68109000      36.71384100       1.87897100
H       12.77477300      37.91641400       0.95852100
O       36.89719500      28.57893100      25.75734800
H       37.76761400      28.68743700      26.14763300
H       36.38524000      29.31171700      26.10887200
O       14.66441400       1.19844200      42.28973800
H       15.01770800       2.05036800      42.55644200
H       15.27290200       0.88894700      41.61401800
O       14.75962600      24.39343400      31.79950600
H       15.44594300      24.91636700      31.37851300
H       14.30133100      23.96949200      31.06952000
O       42.50996200       8.84817100      14.66161700
H       43.45687500       8.75943200      14.79278900
H       42.23405300       7.99066500      14.32815000
O        5.32880500      17.09246500      11.00458900
H        4.87439100      17.87684200      11.32079500
H        6.12664200      17.43008400      10.58972600
O       15.06837900      26.73165200      25.29159000
H       15.51761400      26.12691000      25.88673700
H       15.14826600      27.58881800      25.71764900
O        3.58736300      12.89642200      42.97737400
H        3.43912900      12.53025300      43.85240100
H        4.28119800      13.54810200      43.10601700
O        5.33329300      37.20694000       3.62288200
H        6.11541100      37.72881700       3.42881700
H        4.85622500      37.72590700       4.27535500
O       36.86189300      42.49881700      33.22996600
H       37.33626400      43.12818100      33.77823300
H       36.90585200      41.67434600      33.72083900
O       25.36361900      37.28755100       5.72652300
H       26.08667800      36.88984800       6.21717700
H       25.79125100      37.91556500       5.13884000
O       14.76733600      29.28903800      27.45973200
H       14.59213100      28.37568100      27.69807400
H       13.97110500      29.57345300      27.00391900
O        3.97935200      25.01834800      26.79455000
H        4.73556400      25.18864300      26.22809700
H        3.67120900      24.14912200      26.52597000
O        7.35932200      31.06434800      27.18395700
H        6.52722500      30.70821100      26.86379100
H        7.56531500      31.77571700      26.57226800
O       15.82780100      25.27514800       3.93555300
H       15.93984700      25.65469400       4.81026200
H       14.95678800      25.56966300       3.65763500
O       27.52684400       5.98177100      22.48134400
H       28.26867000       5.54701600      22.05425300
H       27.00323900       6.32874900      21.75464900
O       37.86619400       3.82692100       2.19311000
H       38.08314000       2.92843300       2.45268000
H       37.04969200       4.01968100       2.66088200
O        0.33900700      10.15625800      26.69813900
H        0.50757900      11.09323000      26.82220200
H        0.66862900       9.96952200      25.81546100
O       28.34576700      39.64126900      11.88721000
H       29.23270200      39.42658200      11.58891600
H       28.48110800      40.15272100      12.68892200
O        7.71208500       6.91590100      43.54308400
H        6.96766000       6.36449100      43.79508200
H        7.77913300       7.56333800      44.24946300
O        5.67689400       0.36828300      35.01849200
H        4.94586600       0.93285500      34.75661000
H        6.45432600       0.80232300      34.65814200
O       22.26457100      30.86399300      38.12862500
H       22.94207600      31.53078100      37.99406800
H       22.54545100      30.12516000      37.58284800
O       30.38137400      13.10726000      35.33218700
H       31.25427500      12.93542400      34.97129800
H       30.29913900      12.48844600      36.06222000
O       18.21789400      24.70168500       5.16971700
H       18.94992500      24.09928700       5.32128300
H       17.71321900      24.29066800       4.46331100
O       21.28412500      43.01102500      30.82870600
H       21.28196200      42.10215800      31.13802800
H       21.36338600      43.53528900      31.62964800
O       20.18793600       6.99853200      37.75238500
H       20.40823700       7.31929700      36.87471700
H       19.79494400       7.75693400      38.19173200
O       40.67654600       6.27953400      43.55841400
H       40.53566500       6.66421800      42.69014200
H       41.62651700       6.14675700      43.60908800
O       11.29508100      23.39285300      27.24894800
H       11.25630000      23.01117900      28.12903100
H       10.71269000      24.15537800      27.29387700
O       41.49928300      21.54401800      34.86862100
H       40.99682000      22.16007200      35.40689000
H       41.63274800      22.00722300      34.03779600
O       11.84916000      27.34778700      14.19871500
H       12.41961200      27.71771600      14.87655100
H       11.02200300      27.17068100      14.65378200
O       33.41114400      24.08993600      24.66006400
H       32.87920300      24.34197900      23.90162000
H       32.80153800      24.12621200      25.40148600
O       39.19739100      33.88997700      16.85088500
H       40.14778700      33.98019600      16.74924100
H       38.98406600      34.44764900      17.60330600
O       19.71824600      43.85834100      33.45091000
H       20.19228000      43.02388000      33.42461400
H       19.09999200      43.80455100      32.71775900
O        6.17013500      15.87008100       6.06015800
H        6.99110700      15.37621800       6.12204000
H        5.74539700      15.52842600       5.26926500
O       26.52176800       5.48109300      31.05224800
H       26.48975300       5.66373300      30.11025900
H       25.92982200       6.12992400      31.44117200
O       15.46270500       8.52938700       4.94964700
H       14.87016200       8.96266500       5.56842600
H       16.26734500       8.38233000       5.45320500
O       42.26785300       9.08773100      35.92449900
H       42.47751500       9.73670200      35.24877500
H       42.61476300       9.46755800      36.73568700
O       19.44662000      16.24808400       6.64513500
H       18.60897700      16.42534400       6.21078600
H       19.52870100      15.29130200       6.62338900
O        3.88301200      32.83244300      25.24211300
H        3.16042000      33.38747800      25.54463900
H        4.24540700      33.30321300      24.48733700
O        8.27884900      11.73694700       4.38058600
H        7.96236500      11.05325000       4.97566600
H        8.91400400      12.23280300       4.90341300
O       43.69143300      11.94742700       8.60135700
H       42.77138000      11.82269700       8.84563100
H       43.65925200      12.53837800       7.84479700
O       34.23781000      39.71651400      42.27701000
H       33.33383700      39.57703000      41.98528600
H       34.17970700      40.45479800      42.88873100
O       22.20068400      34.97984400      12.33329000
H       22.56166800      34.88800300      13.21815200
H       22.94167000      35.28558400      11.80404000
O       30.76639800      39.34312900      14.59684800
H       30.32564400      39.70011300      13.82223600
H       31.35937700      38.67363900      14.24641900
O       33.65930500      24.21995100       9.14696300
H       33.86275400      24.36882600      10.07333800
H       33.15726000      23.40107100       9.14171900
O       32.33490300       6.78575800      10.20259500
H       31.85843200       6.00007300       9.92438700
H       32.94343000       6.46986500      10.87531200
O       26.81684400      14.84777900       1.01113400
H       27.68194000      14.48458900       1.21467000
H       27.00323800      15.71341200       0.63887100
O       21.99626800      17.25177600       5.02844900
H       22.49648600      17.20508100       5.84657300
H       21.31286500      16.58423400       5.12839900
O        9.31770800      24.39564300      41.55584200
H        9.24671000      24.11769300      42.47204500
H        9.13487000      23.59960700      41.05033300
O       35.65931500      28.26063900      19.23507900
H       35.89471500      28.94900700      18.60861100
H       36.45432000      28.13286100      19.75879900
O       19.51193500      32.91626300      32.70163600
H       19.10410000      32.08123200      32.94271500
H       19.00403800      33.22002500      31.94505700
O       12.73386000      42.92339500      41.64593600
H       12.33812200      42.06960200      41.83607900
H       13.64063200      42.71755800      41.40502700
O       24.49974200       5.29426400      37.24483000
H       25.23241000       5.32770300      37.86435000
H       23.96697100       4.55368100      37.54538400
O        0.67951300      30.87812200      16.26989800
H        0.90102900      29.97649100      16.02553000
H        1.21806200      31.42168800      15.68925700
O       30.41907100       9.59215900      39.69549600
H       29.85772200       9.05568100      40.26012300
H       29.81747100      10.22185000      39.29026900
O       10.77865700      34.09461100      12.79414100
H       11.62632500      34.54522300      12.80564600
H       10.90565400      33.36328200      12.18449300
O       42.83567400      14.93056600       5.73563100
H       42.06983500      14.44540000       5.41967400
H       43.00134400      15.58553200       5.05283200
O       43.97843700      13.80816300      23.55968100
H       44.62170100      13.98576000      24.24989500
H       44.36915300      14.18459100      22.76703600
O        9.18628900      14.02941800      37.98756800
H        9.48641300      13.64538400      38.81471300
H        8.25789200      14.22441500      38.13821900
O       39.76109300      39.01990600      17.90714900
H       39.64052800      39.32554500      18.80924300
H       40.01386100      38.09784000      17.99958500
O        8.33444000      22.83203800      31.89357500
H        8.77600700      21.98466400      31.98684900
H        8.15306400      22.90413700      30.95307100
O       44.38853000       5.91943800      22.15564500
H       43.77700000       5.35043300      21.68237100
H       44.28339100       6.77952400      21.74111000
O       38.94913900       0.82401600      44.24933300
H       39.63425200       0.82532400      44.92189900
H       39.42482300       0.69634600      43.42467100
O       25.40416300      17.67643400      13.76818700
H       24.88801200      17.14016800      14.37459600
H       26.14086800      17.99255500      14.29731300
O       12.54597300      25.10897000      28.05004000
H       12.76058800      24.51454100      28.77275700
H       13.34926200      25.14528700      27.52463600
O       12.21980500       1.00305600      17.20937600
H       11.50597000       0.57368600      17.68666500
H       11.79606100       1.37763600      16.43299200
O       10.01944200      32.42820900      25.47234800
H        9.75929700      32.17395500      26.36083200
H        9.83615000      31.65092700      24.93860900
O       40.96442500      36.50093200      11.91483000
H       40.26956500      36.23242600      12.52047000
H       41.63656800      35.82089100      12.00653700
O       11.39726300      37.52533000      36.36134200
H       11.26756200      38.11353500      37.10895100
H       12.03938200      36.88228200      36.67249200
O       34.17406400       3.86905200       2.55595200
H       34.23577500       4.31499700       1.70798400
H       33.31514300       3.43945200       2.53746800
O       14.15697500      27.64728700      31.98394500
H       15.08743400      27.81592600      31.81801600
H       13.69915400      28.33811500      31.49835400
O       13.54914900      34.40260900       8.50011900
H       13.26523500      33.76560300       9.15992200
H       12.87201600      34.35951600       7.82020900
O       14.25884100      37.07062700      18.88029400
H       14.78487100      37.69060800      19.39082400
H       14.90624100      36.54079300      18.40828600
O        9.35782900       4.34609700      17.63109700
H        9.41605800       5.29960700      17.53542700
H       10.24658000       4.07632700      17.87602100
O       25.69858400      13.24879200      15.63000500
H       25.83089600      12.65174100      16.37010500
H       26.52260400      13.73853300      15.56847800
O       19.19126600      24.63250100      38.20710700
H       18.52182300      23.94495400      38.23626800
H       19.72016400      24.48388500      38.99503000
O       21.45445100      30.06150500      12.86306100
H       22.26038400      29.56529800      12.70188800
H       20.87120500      29.43428800      13.29787700
O       30.66937700       9.10617500      26.19839000
H       30.22098600       9.94632500      26.32012400
H       30.75435700       8.75037700      27.08655000
O       41.87816400      25.10445800       9.95930600
H       42.81686900      25.26465100      10.08136200
H       41.83948000      24.39304800       9.31506900
O       14.45883100      41.07408100      40.04639700
H       13.92085900      40.30504400      40.24861800
H       14.39758700      41.16361700      39.09199900
O        4.32455200      41.36516200      16.64606200
H        4.99996900      40.73865400      16.91629200
H        3.51610700      40.84717700      16.61870300
O       39.18900300      11.00251200       2.19660500
H       39.51322000      10.24077700       1.71043000
H       38.61694000      11.45735500       1.57330400
O       30.66987600      23.53147400      44.18485700
H       31.40634500      22.98624100      43.89839600
H       31.04381000      24.10039400      44.86246000
O       43.33078200       2.10877400      29.27911000
H       42.74375400       2.76127400      28.89005200
H       42.74642400       1.52349300      29.76759200
O       11.79838400      43.07308900      39.38530600
H       11.08299800      43.39412200      39.93927900
H       12.47745200      43.74857900      39.45757100
O       19.34228400      24.05221500       2.95770400
H       19.52518000      24.91975200       3.32601600
H       19.94569200      23.97681300       2.21416200
O       29.73562100      22.10116800      13.59819500
H       30.61850800      22.18164400      13.96665000
H       29.23711300      22.80724300      14.01722800
O       17.41869000      32.24777900       3.19760400
H       18.33755700      32.43939500       3.39932800
H       17.44621200      31.40451200       2.73849100
O       12.03158500      33.32992900      22.56812600
H       12.66112900      33.00727600      21.91905400
H       12.01015400      34.27992000      22.42777200
O       15.48194200       4.43918700       9.07838900
H       16.17894400       5.09176500       8.97810900
H       15.11142900       4.34867500       8.19681700
O       35.66556100      28.56688100      31.78920900
H       35.86288300      27.73690900      32.22959000
H       35.32395800      29.13171600      32.48700000
O       28.73869500       0.96833400      32.33207500
H       27.88215500       1.06003300      31.90821700
H       28.85117200       1.78689100      32.82192800
O        5.90003400      11.86209300      20.81443800
H        6.08660500      12.57198500      20.19559300
H        4.98056400      11.99433700      21.05883100
O        6.87747500       8.03034800       8.73048100
H        6.53649300       8.02003700       9.62789300
H        7.08630800       8.95325900       8.56535600
O        7.07373600      23.76297400      42.53319700
H        6.27098400      23.92398200      42.03180800
H        6.78776100      23.77087800      43.45014700
O       24.20729700      23.06252900      11.06002300
H       24.22055100      22.10321800      11.02436000
H       23.91412900      23.26392600      11.95228600
O       19.25333200      12.46673500       8.32157700
H       19.64970600      12.83056400       9.11671300
H       19.90704700      12.62437400       7.63568500
O       16.07195100      36.42470800       1.12428000
H       15.38641200      36.40506500       1.79612500
H       15.60564700      36.64610500       0.31422700
O       40.22068200      14.10444600      36.61675200
H       40.32726800      15.00344100      36.93639600
H       40.98141300      13.63476100      36.96793300
O        7.97134800      43.69633000      19.63740600
H        8.18368100      44.28045500      18.90567000
H        7.28891900      43.11674200      19.28954100
O        5.51470500      22.13050000      40.75332500
H        5.59008500      21.22026300      40.45750200
H        5.14263500      22.59600200      39.99999000
O       43.96064900       2.11719400       6.80520800
H       44.84637100       2.48761500       6.80203500
H       43.42259600       2.78942200       7.23094300
O        8.32563400      42.42970800       6.90644400
H        8.24813000      43.34740100       6.63523000
H        7.96677600      41.93162700       6.16767700
O       41.54993500      27.78293200      25.94809700
H       40.67949600      27.53328600      25.62913200
H       41.64503700      27.30827500      26.77773500
O       15.51893700      10.00215500      14.31110000
H       15.34186000      10.43326300      13.47174700
H       15.80806600       9.11871300      14.06907100
O        3.61973600      12.85994200      28.35799900
H        3.43505100      12.15799000      28.98639300
H        4.45570400      13.22996700      28.65275200
O        7.01069200       4.45391200       4.14471800
H        6.10739500       4.76350100       4.04505000
H        6.97174700       3.83779300       4.88060000
O       39.49981000      36.65459700      25.94434900
H       39.70432300      37.43038600      26.47165400
H       39.77950600      35.91506300      26.48978500
O       34.46166200      40.53242700      16.16776300
H       33.68098400      41.09011400      16.13237800
H       35.19275000      41.13544300      16.01116400
O       28.45884500      42.00050100      43.94235500
H       27.92684900      41.64100500      44.65612500
H       27.90402100      41.91154400      43.16331800
O       31.44350200      37.86178000      39.13352000
H       32.12951700      37.40123500      38.64463900
H       31.51078100      37.51206400      40.02560500
O        7.80151900       9.51401400      43.23342400
H        8.26453600       9.74621600      44.04177000
H        8.50157200       9.34462000      42.59791500
O       33.29741300      31.74709700      27.51083300
H       32.54998300      31.20750100      27.77899200
H       32.96904200      32.25548900      26.76494300
O        9.09592800      15.66849400      35.88896400
H        9.22256000      16.57381700      36.18235800
H        9.76152600      15.54328600      35.20782900
O        5.81726100      29.16179700      23.06121000
H        6.40065900      29.79474300      23.48635800
H        5.17669500      28.93463900      23.73997100
O       23.18048900      38.80965200      21.25289200
H       22.99831500      39.49105800      21.90421600
H       24.07490200      38.99618500      20.95645700
O       44.02162600      34.80543600      21.87084800
H       44.26361600      34.79060600      22.79979600
H       43.49267100      34.01288300      21.74956900
O       31.85230200       2.18792500       9.53254400
H       31.71742300       2.65455700      10.36066700
H       32.06337300       1.28896600       9.79705000
O       18.54415700      43.83658000       1.97680200
H       17.80236400      43.26028000       1.77844300
H       19.08826800      43.32539900       2.58118400
O        8.64239500      13.10075100      20.85625500
H        7.91924100      12.77282700      21.39592000
H        8.38425300      13.99825000      20.63153400
O       38.45246500      18.40003900      21.82082400
H       38.09726800      17.83341700      22.50966400
H       38.24911000      17.93802700      21.00361400
O        0.02100900      35.71651300      29.17360600
H        0.10822000      36.29979600      29.93116700
H        0.69154700      36.02328600      28.55804800
O       33.50565500      15.46058300      10.89912900
H       34.02303300      14.70382100      11.18436200
H       33.59437800      16.09387300      11.61586800
O       15.79535500      43.04817800      27.69710600
H       16.71502500      42.83934700      27.87688800
H       15.75676100      43.15304500      26.74308500
O       15.91414600      20.58125700      12.36016300
H       16.07749600      20.12270700      11.53265200
H       16.47655300      20.13246000      12.99649700
O       24.05815200      40.82827700      42.36308900
H       23.35024500      41.11104500      42.94672900
H       24.64716100      40.32370400      42.92976000
O       30.97213100      12.31388600      20.25276500
H       30.24705700      12.91116700      20.45087700
H       30.66918800      11.81616500      19.48912800
O       12.01230600      26.96849800       3.16991300
H       12.84146300      26.48694600       3.12162800
H       11.36420100      26.30332900       3.41517200
O       10.86008300      19.47731100       5.85732600
H       11.35474600      18.93703900       6.47792200
H        9.96858200      19.49500800       6.21447300
O       27.32584300      15.77928100       7.49720000
H       28.13069100      16.10349700       7.90808700
H       26.91907200      15.22888200       8.17117400
O       44.57885400       8.40439500      12.84869100
H       44.98067500       7.53465600      12.91048100
H       43.65229000       8.22669700      12.66829100
O       41.09563600      12.43162100      17.69130700
H       41.35036900      12.81416100      16.84839700
H       40.96960800      13.18898500      18.26850700
O       38.99140700      38.73864100      43.09215600
H       38.52151100      38.06310100      42.59761700
H       39.66437700      39.05462600      42.48395700
O       28.83667300      31.09517700      19.29846600
H       29.66428600      31.53563200      19.09162700
H       28.27114700      31.28448500      18.54548300
O       10.93352300       6.95293000      27.80125300
H       10.14886100       6.91841100      28.35337500
H       10.65219800       7.43038600      27.01669300
O       44.25032300      13.33838300       4.80079200
H       43.66866300      13.68456300       4.11994200
H       44.99087600      12.96635700       4.31517900
O       22.69468500      12.03764400      34.28444200
H       23.37514900      11.49841400      34.69423000
H       22.24049300      11.43634400      33.68880000
O        0.87213400       9.91521400      44.47443000
H        0.77593500       9.00115200      44.75185200
H        1.81765200      10.02778800      44.34808300
O       41.82772800      22.85328700      28.15022000
H       41.33715400      23.08607500      27.35846700
H       41.24535600      22.25411500      28.62401100
O       19.41155800       3.70403100      20.26179200
H       18.95603400       2.90570200      20.53908800
H       18.88747800       4.03491300      19.52796700
O        2.60816000       8.88902900      10.16830000
H        3.51183600       9.05937400      10.44412000
H        2.69349700       8.26055200       9.44692900
O       21.93150900      25.79348700      12.21587200
H       21.20803400      26.41496900      12.10601000
H       22.64175600      26.31866900      12.59320000
O       32.42416600      26.81813100      19.72480300
H       31.46833300      26.72896500      19.73729500
H       32.57434900      27.75199800      19.55753300
O        9.78377000      44.07612300      21.53632600
H        9.80123200      43.12793600      21.38678900
H        9.91673700      44.17070600      22.48290700
O       34.40875800      14.13454700      14.85522200
H       35.26375000      13.82576600      14.54640600
H       33.81342500      13.40098800      14.68169700
O       22.07600900      13.24187300      10.34949000
H       22.01086100      12.47063400       9.78144900
H       23.00938500      13.29795400      10.56927900
O       41.65273000      12.45675700      25.94464900
H       42.32557800      11.79945000      26.13687000
H       40.96184800      11.96566100      25.49282000
O       37.35734500      32.72022600      12.67088100
H       37.93321500      32.90724300      11.92581500
H       37.45524500      33.48373800      13.24543000
O       33.92954000      14.26541000      27.29767300
H       33.17903100      13.78414800      26.94151400
H       34.13075000      14.92332900      26.62737500
O       29.81577000       0.58184400      41.62182600
H       30.70371200       0.47092500      41.96965000
H       29.84816400       0.17631300      40.75169000
O       42.60972400      30.25229900      16.52066600
H       42.43765900      30.72640700      15.70375700
H       43.55163400      30.36767300      16.66944600
O        7.99505400      39.21752800       4.66631000
H        8.65409400      38.54829300       4.46752500
H        8.44861300      39.83373400       5.24701300
O       21.81842600      38.76810000      36.73030100
H       22.65534200      38.41115300      37.03670700
H       21.55556200      39.38411200      37.41883000
O       28.08100900      33.30250400      37.49634100
H       27.31795500      32.76246000      37.71503500
H       28.73785800      33.06535000      38.15584800
O       20.39791500      34.84072100       2.15314200
H       20.32000800      35.75076900       1.85739200
H       19.74150700      34.36542400       1.63752300
O       21.63800800      22.70796900      11.66996000
H       21.71861600      23.55269100      12.11903900
H       20.80432000      22.76814200      11.19668800
O       29.58565500      37.71376800      19.75347400
H       29.64350500      37.68819300      18.79549400
H       29.87890700      38.59826500      19.98651900
O       21.35528600       4.90742100      23.97040000
H       21.85674700       4.09904900      24.10000400
H       20.70290300       4.67896500      23.30343200
O       17.74228800      25.43735300      39.65839900
H       17.39437000      26.14264700      40.20907100
H       17.01276600      24.81810200      39.57492200
O       38.67454800      18.01366600      10.90575300
H       38.44803300      17.08084600      10.88954100
H       38.05345000      18.42047200      10.29633700
O       26.39255300      33.56622500      28.73744800
H       27.33078200      33.52675000      28.53771700
H       26.33320500      33.29777900      29.65780500
O       40.79046200      41.43637600      18.63682200
H       41.16689000      42.29482500      18.42923600
H       40.71295400      40.99790000      17.78572200
O       17.27279600      10.30880000      28.05111800
H       17.25065700       9.35021200      28.09953400
H       16.81488800      10.51684100      27.23277800
O       16.78745100      22.26249700       4.45076700
H       16.02692300      22.84689400       4.49323700
H       16.61808300      21.60126900       5.12658900
O       14.31046800       1.32064800      44.70641400
H       14.75920800       2.11853400      44.99578300
H       15.02133800       0.70564300      44.50874000
O        0.15890800       9.80362600      21.92082100
H        0.34553900       9.93182300      22.85380500
H        0.73460800      10.42958800      21.47429700
O       18.21843400      13.72145000      36.55376900
H       17.87564600      14.61763400      36.52098200
H       17.44377700      13.17543600      36.71003000
O       14.65805400       9.50148500       1.97755600
H       13.82089800       9.08618400       1.75751400
H       14.74228500      10.21855100       1.34402400
O        7.91070900      27.18673800       4.88536200
H        7.22873700      26.63764100       5.27922800
H        8.68382600      26.61782800       4.84968500
O       36.45275600      10.00884200      11.26555600
H       36.64262200      10.67929800      10.60512900
H       36.27637100       9.21452500      10.75507500
O       27.80687800       9.34656300      39.37086400
H       27.38624900       9.46353600      40.22591600
H       27.09150900       9.08065200      38.78761300
O        9.64374300      32.62672000      31.62517100
H       10.17200100      33.02573300      32.32048100
H        9.23296500      31.86635100      32.04438600
O       12.63401900      27.03783100       7.17823000
H       12.69171700      26.73330900       6.26957000
H       11.88620100      26.55819000       7.54340800
O        5.96128800       2.14245200      20.55837400
H        6.72438700       1.78617200      21.01931800
H        6.20700200       2.11056800      19.63033800
O       18.34533600       8.42507700      33.07575000
H       18.69669300       7.74155500      33.65113700
H       19.08717300       8.67135600      32.51747900
O       29.18338200      37.36758600       9.21585500
H       29.98658400      37.59503700       9.69004700
H       29.44304900      36.64349900       8.64060500
O       40.12475100      43.02759400      16.20494600
H       39.99002000      43.87009000      16.64514300
H       40.52766000      43.25950300      15.36439600
O       14.70361900      37.48260900       9.80815100
H       15.03914300      36.59192000       9.93393800
H       13.95609500      37.37421800       9.21477000
O       36.36113900      19.98416400      21.60389000
H       35.66251400      20.45752700      22.06168400
H       36.37905000      19.12060900      22.02412200
O       38.07847300      17.52809400      38.17581500
H       39.01196200      17.54875700      37.95244200
H       37.95683100      18.27944100      38.76175300
O        6.54156700      44.15867700      11.07653100
H        7.44072500      44.37964700      10.82273800
H        6.33735600      44.77085400      11.78799300
O        6.12557500       7.44842500      38.70605300
H        6.71156400       7.25721400      39.44211000
H        6.31105200       6.75538000      38.06736000
O        2.10113800      22.07638600       9.74553200
H        1.14922900      22.13017600       9.85823800
H        2.32756300      22.86714700       9.24947700
O       43.28979900      40.81803700       8.23341400
H       43.80037800      40.83357600       9.04630600
H       43.01084200      39.90320200       8.14451800
O        5.96533200      11.75718400       6.70565700
H        5.24716400      12.37023800       6.53209000
H        5.60946000      11.15268000       7.36183700
O       29.57868700      33.70925100       6.35470600
H       30.06236200      33.48893900       5.55517700
H       28.69352900      33.92054700       6.04731100
O       11.98349400      40.34415400      10.03554200
H       12.64823900      39.67756600      10.22395500
H       12.46791800      41.17353400      10.04576600
O       35.56240700      31.94631300      39.02558400
H       35.96734600      31.09538200      39.20906400
H       35.30604500      32.27954600      39.88922500
O       28.15181000      44.22738600       2.28925600
H       27.35722000      44.47823600       2.76614800
H       28.36609600      44.99979200       1.76000000
O       40.14187900      28.91554900      17.06523800
H       40.35878300      28.02918600      17.36363100
H       39.23417200      28.84835500      16.75832400
O       19.92790900      14.96113400       9.58128000
H       19.85846200      15.51466600      10.36262800
H       19.19482400      15.23901800       9.02629400
O       33.90589000       0.34364400      22.91090400
H       33.08170800       0.50004200      22.44401200
H       33.63459600       0.11528700      23.80359400
O        3.18529800       6.97391900      31.69618700
H        2.22694700       6.96963900      31.75337000
H        3.47092600       6.43727800      32.43987800
O       18.75410800      43.17589200      22.63806400
H       18.26368700      43.96415700      22.39342000
H       18.10044800      42.60775600      23.05350700
O        3.03235600      29.53665000      15.58755400
H        3.91974700      29.64070900      15.23622100
H        2.66614400      28.79762500      15.09524000
O       40.41681600      29.91873800      31.26163100
H       40.71614800      30.71269100      31.71081100
H       39.50866400      29.80738000      31.55403800
O       23.78585800      39.94455000      28.47678500
H       24.49234300      40.50011600      28.81435000
H       24.20243400      39.09142500      28.33089800
O       31.79285600       8.44745000      30.71628900
H       31.73811900       7.88704800      31.49390100
H       32.32294600       7.94193500      30.09491900
O        6.08587400       4.11979200      22.22976100
H        6.07170000       5.01443300      22.57781500
H        6.80794600       4.12180100      21.59631900
O       30.76584500      13.07523600      40.57076800
H       30.39161200      12.37386100      40.03248600
H       31.20885600      12.61480000      41.28797200
O       43.73875300      35.36701900       7.30971000
H       44.08666800      36.21888200       7.58359000
H       42.78535000      35.46975900       7.36548000
O       19.67297200      12.24075100      29.95902700
H       19.72733300      12.58288100      30.85441400
H       19.23314000      11.39215900      30.05432600
O        5.26837400      31.59449200      31.48532700
H        4.38323700      31.41249300      31.16108200
H        5.21069800      31.44534700      32.43246500
O       32.09117500      29.10113400      44.72796000
H       31.86580900      28.33662800      44.19273700
H       31.59620900      29.82320800      44.33266300
O       33.17997900      37.32563000      27.70302800
H       33.95130800      37.59708500      28.20610600
H       32.51739500      37.12889700      28.37005200
O        5.63290600      38.57944600      35.48012000
H        4.85833500      38.01284800      35.45308600
H        6.29135900      38.06092000      35.94938900
O        6.06573000       7.97583200      24.43580900
H        5.92806600       8.82048100      24.87094100
H        5.26692200       7.47711500      24.62509300
O       23.13474900      43.16363100      32.98259100
H       22.38148400      43.28705900      33.56489800
H       22.96057200      42.32848400      32.54119000
O        1.97032700      34.58031500       1.11745400
H        1.24231100      34.99645300       0.64996400
H        1.55727000      33.87604600       1.62344900
O       33.65290700      18.57369600      10.29214600
H       34.47489300      18.27250800      10.68629100
H       32.98056900      18.00951800      10.68240900
O       22.39191400      14.64613300      30.47261700
H       21.90044900      13.82150200      30.45953800
H       23.08908100      14.49801100      31.11655800
O        4.11832300      32.17091500      16.35132100
H        3.71769000      32.10426500      15.48139300
H        3.81886700      33.01947200      16.68735400
O       43.81934300      35.45182300      13.56326700
H       43.45792100      34.63317100      13.21554900
H       44.29136900      35.18612200      14.35651100
O       34.22402400       9.22074200      39.83267800
H       34.58146200       9.41328500      40.70267300
H       33.63984500       9.96000800      39.64596300
O       31.75652100      18.93894000      40.47144400
H       32.10337400      19.82002900      40.62987600
H       31.12440300      18.80034200      41.18127400
O       22.74022100      22.10557800      31.49815500
H       23.36146300      22.78449400      31.22455500
H       22.16205700      22.54953800      32.12366800
O       13.78877700      39.55461000      12.56670700
H       12.85421100      39.68670100      12.39102400
H       13.81250700      38.83468000      13.20214300
O        5.40013300      40.17209900      42.50973500
H        4.93889800      41.01223800      42.56588700
H        6.12318000      40.33737800      41.89938400
O       13.42160700      30.07800600      41.25617400
H       13.15773100      30.95538600      41.54305300
H       14.35335700      30.02315000      41.48305400
O       26.36277900       9.12218200      31.46075600
H       26.56508300       8.21914000      31.71631900
H       25.72041800       9.03130100      30.75241000
O       15.77187700       5.65590800      26.66468100
H       16.46828800       5.75793900      26.01174300
H       16.17707700       5.93213400      27.49060700
O       29.19327100       7.24157700      16.95920800
H       28.65343800       7.41119800      16.18362200
H       28.61116500       6.76304600      17.55486200
O        2.82569400       5.42276000      27.11683100
H        3.09740400       4.55967800      26.79591200
H        3.39908800       5.58867400      27.86938300
O        7.99265300      26.92849900      17.22464000
H        8.60579400      26.55997000      16.58435200
H        8.55588400      27.28607800      17.91569000
O       35.43407500      16.20217100       3.07360000
H       35.19633900      15.59665700       2.36751100
H       34.64150700      16.72595700       3.21546700
O       33.09635800      34.07227500      38.65663000
H       33.94392600      33.67648300      38.87273900
H       32.87758800      33.71107700      37.79389100
O       10.01547000      41.73252900      27.82302500
H       10.65165000      41.19919100      28.30525900
H        9.22424500      41.18886400      27.79087300
O        6.16030200      13.64456700      16.86245600
H        5.71838300      12.80909200      17.03102400
H        5.60813300      14.07838300      16.20705200
O       10.29469700      21.64900300       5.91281700
H       10.30776900      22.52102400       6.31423100
H        9.39407600      21.54627100       5.59506000
O       33.96685100      10.89629700      11.99774100
H       34.27511000      10.13184000      11.50549400
H       34.63360000      11.02745000      12.67662800
O       41.92275100       9.70129000       8.31954200
H       41.16735700      10.23279700       8.05761700
H       41.57755600       9.11351400       8.99630000
O        5.71945600      23.22677400      23.60909600
H        5.62277900      22.27477500      23.53114400
H        5.17012100      23.58065800      22.90508100
O       37.82810600      22.21543000       3.98769600
H       37.64502900      23.12307100       4.24145800
H       38.46979400      22.29136500       3.27698400
O        4.76620000      38.96734800      40.22126400
H        4.38472800      38.16200400      39.86401600
H        4.09204200      39.63576500      40.07507900
O       40.62470500      40.32329400      35.51367000
H       40.09637800      39.54678900      35.71275700
H       41.41359000      40.21928300      36.05170700
O       43.98823100      23.52209400       8.59713800
H       44.17839200      22.70932700       9.07145300
H       44.49665300      24.19282500       9.06003100
O       44.03434000      20.16238600      19.44437900
H       44.51993100      19.35946400      19.64746100
H       44.57409900      20.60743700      18.78617500
O       35.19211300      11.64448600       9.17506800
H       34.62509400      12.40970400       9.29613100
H       35.08652900      11.41367000       8.24866700
O        8.69823700      10.23621600      37.35058200
H        9.21008900      10.17655600      38.16062700
H        8.22830600      11.07052000      37.42638100
O        2.11296300       6.31851200       6.31356400
H        1.26551000       6.23317500       6.75658400
H        2.49938800       7.11362500       6.68921500
O        3.44806800      10.72649900       8.56447900
H        4.28047000      10.53127600       9.00119500
H        3.33787700      11.67438500       8.67407900
O       42.20906300      44.37138900      11.62461900
H       43.08337100      44.60285300      11.30254100
H       42.34323800      44.16867200      12.55389000
O       36.93353600      12.62520400       7.68115800
H       37.12748100      13.55169600       7.84154400
H       36.99768300      12.52979000       6.72752100
O        4.15441200       3.78492100      39.69889300
H        3.73803700       2.95521200      39.94372000
H        3.58304800       4.14618000      39.01648800
O        4.96436200      29.02008300      35.36757000
H        5.31661200      28.42779700      34.69910800
H        4.76236000      28.44691200      36.11141900
O       20.55978000       5.58938400      44.04371000
H       20.33753500       6.38356100      43.55216700
H       19.88851700       5.53732100      44.72879100
O       11.37531000      29.10701600       9.00174800
H       12.08888400      28.55248600       8.67765900
H       11.37171600      28.96039400       9.95102700
O       15.37321000      39.37755100      17.30635800
H       15.98369900      38.88742400      16.75065600
H       14.65568700      38.76124600      17.47360000
O       43.93529700      39.52508400      34.46708300
H       43.12914900      39.00495900      34.43075900
H       44.00756000      39.78888300      35.38786000
O        1.41973100      20.99345200      12.29212100
H        1.59224600      20.42944700      11.53458400
H        2.06168300      21.70345200      12.21187600
O        4.21361200      13.76534900      35.24467400
H        4.45354300      13.03010200      35.81350600
H        4.19317200      14.52477000      35.83247000
O       41.78301400       5.39028800      30.81384800
H       41.89465400       6.27484900      31.16995500
H       41.16684500       4.96657100      31.41671000
O       38.82902700      11.51388700       9.53875500
H       38.69261700      12.43373200       9.77750800
H       38.05493700      11.28541300       9.01796200
O       26.96212300       4.85579100      39.80882500
H       26.08572600       5.11774400      40.10043200
H       27.02002200       3.92402000      40.03486000
O       41.69660400       7.71573100      17.67327100
H       40.84049100       7.90259600      17.28100100
H       41.50814400       7.07340800      18.36214400
O       24.32862300       3.87790400       5.51427200
H       24.49236800       4.82307800       5.47477400
H       24.79781500       3.58728500       6.30042800
O        7.29993700      32.88396900      17.62954100
H        8.08844300      32.57212700      18.07980300
H        7.06289100      33.69025400      18.09468300
O       42.61977200      26.03167600       6.58468800
H       43.03208000      25.17312200       6.46380400
H       43.33524000      26.60024800       6.88044700
O       35.96180400      25.21902400      12.45954600
H       35.49804600      26.05757200      12.40046100
H       36.74293200      25.33958300      11.91370100
O        4.65656300      21.53888600      13.15950900
H        3.81516900      21.56853800      13.62092200
H        4.48584700      21.98043400      12.32372600
O       17.38860300      29.74650000       5.17937100
H       16.54788400      29.90570800       4.74397400
H       17.15014600      29.34488600       6.01870800
O       34.87295000      22.99900900      32.46920500
H       34.50593700      23.21918800      31.60981700
H       34.41093900      22.19747100      32.72751800
O       27.47187800      35.38214500      43.34661600
H       26.61752500      34.94692100      43.29776700
H       27.95329900      35.04850900      42.58532500
O        3.63528400      44.82514300      10.90667100
H        2.92873600      44.45370600      10.37324000
H        4.43962400      44.48145000      10.50974000
O       24.03641400      33.34476900      11.63296700
H       23.74935500      32.58768400      12.14885800
H       23.48464700      33.32081500      10.84707800
O       43.79206300      32.83227800       6.36829000
H       43.83326900      33.07117800       7.29724300
H       43.77405000      33.67415600       5.90616600
O       34.12247900       7.12716600       6.87574700
H       33.82192600       6.28568900       6.52459300
H       35.06720500       7.00878400       7.00271300
O        6.40866500      14.45754200      21.48003600
H        5.53203000      14.72299200      21.76773900
H        6.95574600      14.55239700      22.26383900
O       26.93410000       9.20403400      15.05831000
H       27.46052300       9.24612400      15.86007800
H       27.25783100       8.42371100      14.60121400
O       11.77058700       7.84433500      30.31684000
H       11.88528900       6.98831600      29.89755600
H       11.36102100       8.38859400      29.63958000
O       35.81837000      36.96633500      22.64437900
H       34.97021400      37.21386400      23.01999300
H       36.29475500      37.79649700      22.56357800
O        6.82525000      38.99863300      24.25353800
H        6.20712600      38.38068600      23.85631100
H        7.52357200      39.09038400      23.60041500
O        1.12262000      41.21316600      35.24583500
H        0.39240100      41.73928700      34.91161300
H        1.02477300      40.36396800      34.80773600
O        1.77473300      34.59363300      29.83556500
H        1.87446300      33.64641700      29.71490100
H        2.58267800      34.86384400      30.27924700
O       13.81533300      25.20670200      41.97685300
H       13.85447900      25.40593100      42.91520300
H       14.25074800      25.95253400      41.55638600
O        5.72194100      37.58820800      42.46295000
H        6.36423500      37.64289400      43.17442200
H        6.09173800      38.13521000      41.76532500
O        8.23622800      18.33999300      11.23012400
H        7.71294500      18.76921000      11.91105900
H        9.07262700      18.14436800      11.66001900
O       43.95822300      21.75146900      31.98624000
H       43.56966200      22.45283300      31.45819200
H       43.29400000      21.55901200      32.65288100
O       23.31173200      38.61583800      39.83962100
H       22.77793600      38.55137800      40.63500300
H       22.77811800      39.13896500      39.23610100
O       20.72737700      33.46133700      30.18435800
H       21.42210400      32.88322500      30.50818700
H       20.10509400      32.86892000      29.75488400
O       30.64483700      41.44662000      37.49833800
H       31.57200500      41.45617200      37.24935600
H       30.58316400      42.08590800      38.21258500
O       42.09270600      33.02750700      14.81158000
H       41.32116800      32.52430900      15.08221900
H       41.74845400      33.67861800      14.19498700
O        4.61872900      29.24485400      28.61802700
H        5.56479500      29.32363300      28.76112900
H        4.51980700      29.26235600      27.66275200
O       39.84376800      17.88713500      32.92174200
H       40.05274500      16.98397200      32.67204100
H       40.24498600      17.99394800      33.78791600
O       36.99309700       2.31175900      28.75155600
H       36.12634200       1.98872600      28.49443700
H       37.26869300       1.72003400      29.45621900
O       10.74549000      41.18611300      12.68224400
H       11.13272600      40.66635800      13.39050000
H       10.13554300      40.58301700      12.24994600
O        4.03974900      33.29823300      29.78743200
H        4.94029300      33.61128700      29.90031300
H        4.13002700      32.49374400      29.27043100
O        8.65116900      27.19987800      42.30271000
H        9.00786200      26.62731900      41.61957700
H        8.51849700      26.61854100      43.05576200
O       33.47815000      32.13548400      31.03101500
H       33.92701900      32.18624600      30.18386400
H       34.18756500      32.03850300      31.67130300
O       13.09614400       6.79279800      38.34484000
H       12.79025200       5.96807000      37.96016100
H       12.57572700       7.46906800      37.90385500
O       21.25604900       3.59818400      18.02938100
H       20.83549600       4.26630700      18.57570700
H       22.19492900       3.70611400      18.20112800
O       40.63897600      31.64853900      11.15910400
H       39.72726900      31.93601800      11.07039000
H       40.76201800      31.02124700      10.44216100
O        5.34296100      29.02503700      10.90088000
H        4.68580000      28.33807200      10.76692600
H        5.93767500      28.66056900      11.56127300
O       16.58343800      20.04546900       0.24819200
H       17.32266100      20.04992900       0.86077100
H       16.27865000      19.13456500       0.24894300
O       19.14950700      34.99172500      30.26729200
H       19.71787400      35.74987300      30.11271000
H       18.62223500      35.24071000      31.03059500
O       42.59714900      15.24264300      32.79067000
H       42.52807200      14.43256400      32.28005600
H       42.36404000      15.93688100      32.16911100
O       43.06827000       8.88622700      26.37841000
H       43.17025700       9.78748700      26.69313800
H       43.73396900       8.79668800      25.69177400
O       16.37441600      10.58135000      30.82513400
H       15.96756300      10.04289800      30.14229800
H       17.28105900      10.26702200      30.86802600
O       30.81965200       4.76309800       1.03200400
H       31.55530900       4.37254700       1.50950200
H       30.40409900       4.02090600       0.58578700
O       32.17293500       8.59806600       5.40342500
H       31.61107200       8.82887400       6.14690500
H       32.40721800       7.67941000       5.55778000
O        5.84700300      18.53545200      19.42824700
H        5.83438600      19.30057600      20.00803200
H        5.79508100      17.78387600      20.02413200
O       36.43284800      14.35116700      30.82678700
H       37.00302300      13.73067600      31.28680400
H       35.74506900      13.80241200      30.44146900
O        8.11410200      16.70197100      24.49451200
H        7.91120400      17.51527700      24.02644000
H        7.50607200      16.05642500      24.12544300
O       26.18685800       7.19036200      40.82692300
H       25.95986100       7.65170100      40.01614300
H       26.44376700       7.88850300      41.43457300
O       39.57844700      34.15247400      11.15970600
H       39.88830100      34.11342000      12.06755600
H       40.19293200      34.74807100      10.72345600
O       38.87972600      36.65979800      23.55522100
H       38.61039700      35.75498500      23.38057800
H       39.81437500      36.59376500      23.76667200
O       38.33717400      44.31810000      11.60251700
H       39.01432400      44.99858600      11.59105500
H       38.77784600      43.54944600      11.97348900
O       23.65192300      21.34674600       8.50279100
H       22.82550300      21.73453500       8.20551200
H       23.43337500      20.93424500       9.34226800
O       40.50839500      41.73397700      29.26733800
H       39.78388800      42.31055100      29.52106600
H       40.76032100      42.03874600      28.39195700
O       39.27956800      18.55335300       6.27664300
H       38.72057600      19.15794100       6.77033000
H       38.83090600      18.44808700       5.43387200
O        3.62725300      37.05257000      19.21501500
H        3.28468300      36.88059900      18.33478900
H        3.93797700      36.19684500      19.52132600
O        6.96495900      42.69395000      34.07669500
H        6.15484500      42.72527000      33.56243800
H        6.72572300      42.20644700      34.86900100
O       18.27285000       1.63487200      25.90307900
H       17.79792900       1.02375700      25.33500000
H       18.92138200       1.08736300      26.35283700
O       34.19969600       7.01604400      17.59776900
H       34.08759600       6.30719600      16.96004300
H       33.30527700       7.31212700      17.78483300
O       42.54322000       3.37861000      22.63045700
H       42.32255700       3.82074500      23.45359100
H       42.52430500       2.44357500      22.84953400
O       15.69584200      18.20262400      27.72488300
H       16.04978400      18.05943300      28.60576100
H       16.28457000      18.85334800      27.33424200
O       38.88639400      10.54860000      23.55169500
H       39.69920000      10.78758100      23.10007800
H       38.74658800       9.62713200      23.31933200
O        4.91691900      35.32184900      35.08018400
H        4.90104500      35.44673800      36.03195900
H        4.00901300      35.10578900      34.85288400
O       19.41270500      17.28339000      42.62511400
H       18.52224700      17.59183100      42.80862000
H       19.67061600      17.75827500      41.83100500
O       32.96279900      13.16506500      31.15183500
H       32.18469200      13.67952900      30.92467500
H       32.64666100      12.25884300      31.19004500
O       31.33303000      28.00788700      38.70361100
H       31.56148900      28.62107600      38.00109400
H       32.15690200      27.55610900      38.90304400
O       11.50948600       2.80056100       7.52165800
H       12.36365800       2.87020400       7.08891800
H       11.32568200       1.85787900       7.53611900
O        2.58926300      29.54273900       0.38986800
H        2.24876600      28.65125000       0.49491200
H        1.86020500      30.03208200       0.00043300
O        0.56570500       7.68772900      27.15844500
H        1.50030800       7.89026500      27.07346800
H        0.32690900       8.02349600      28.02613100
O        3.58677800      19.23219800      23.42835400
H        3.93396700      18.44494500      23.00242200
H        2.89527000      18.90403200      24.00866900
O        3.93537400      13.93047400       3.53609500
H        4.82378800      13.77883100       3.86692700
H        3.70128200      14.79968700       3.87122600
O       30.52568200      42.27428700       6.98441900
H       30.72301300      41.40363300       6.63122200
H       31.26543600      42.46922800       7.56528400
O       42.28627500       3.23967600      35.71800000
H       42.82076700       4.01874600      35.88856800
H       42.74488000       2.78720300      35.00554600
O       16.74868700      26.92661100      37.69204300
H       16.12578800      27.43221700      37.16470600
H       16.19701100      26.33802300      38.21344400
O       33.64515700      19.59105000       6.13767600
H       33.40622300      18.86486300       5.55691100
H       34.58656100      19.71352000       5.99138500
O        1.40878100      21.89000300      35.98957400
H        1.51623900      21.63530100      36.90897900
H        2.07611300      22.56664500      35.85005300
O       13.89658200       6.18030200      43.02077200
H       13.95669200       6.04032100      42.07287100
H       13.00200400       5.91193600      43.24516500
O        4.93672200      27.53635400      26.30758800
H        4.23619400      27.22507900      26.88559600
H        4.47452100      27.94920400      25.57371600
O       27.55161800      33.85381700      14.79099700
H       26.76886100      33.29882600      14.82263800
H       28.14498000      33.46636600      15.43941500
O       17.82185600      40.33311500       9.25799600
H       16.99498400      39.96387000       8.93914600
H       18.24516500      39.60555300       9.72071000
O       33.35801800       5.21238900      38.85168100
H       32.50902500       4.77356100      38.94314200
H       33.96057700       4.51297300      38.58638700
O       15.57474900      18.91775800      34.63398800
H       15.25628400      19.82246500      34.67653300
H       15.40978100      18.56536900      35.51219600
O       31.88670000       5.05277800      43.09230100
H       31.22814300       5.17722900      43.77971700
H       31.80095500       4.12873300      42.84444700
O       17.52350900      19.03992100       2.80262100
H       18.05210300      19.83107300       2.93065400
H       17.00715700      18.96506200       3.60910600
O       31.74474700      36.43510300      20.09085400
H       31.96154400      36.13656600      20.97719500
H       31.81281600      37.39205700      20.13826300
O       38.69949700      37.65577900       3.32312600
H       38.90153000      38.52049800       3.68805100
H       39.15488500      37.64152300       2.47751400
O       32.96297600      33.65771500      14.82405800
H       33.76218900      33.48020100      14.32258800
H       33.23057900      34.31043600      15.47596800
O        6.14848300      29.42011300      31.73934200
H        5.59817200      29.48479800      30.95531400
H        5.86050100      28.60943800      32.16655900
O       17.31937300      13.52142300      30.01046000
H       17.58727900      12.75469800      29.49851800
H       16.37350300      13.40763500      30.13303000
O        5.70405000      31.29506900       4.61412100
H        6.20245200      32.11117200       4.52869900
H        4.84224200      31.57431500       4.93341900
O       19.40087200      41.42573300      15.16008900
H       20.27559300      41.42277500      15.55579000
H       19.32788200      40.56671500      14.73652900
O       21.27868900      25.26894400      31.55207100
H       20.39281200      25.00019200      31.80647000
H       21.14144400      25.90015000      30.84116700
O       16.91790000      41.23932100      35.08944000
H       17.60725600      41.90539100      35.03592600
H       16.43814100      41.45671700      35.89269100
O       29.87116800      27.84939900      36.83555300
H       29.08252100      28.10735000      36.35262200
H       29.59395800      27.09250700      37.35796400
O       25.77022500      21.97821100      32.44401500
H       26.01032500      22.61013100      31.76228700
H       24.89048100      22.24773500      32.71978500
O       25.63044400      19.62531400      16.18122300
H       25.77247200      18.71470100      16.45017900
H       24.98195200      19.56697100      15.47503900
O       34.92076400      29.53209800      34.62271700
H       34.43470600      30.22991400      34.17715300
H       35.70936900      29.96681800      34.95702600
O       40.44707100      36.47959100      44.10619400
H       41.21330500      37.01451300      43.88603500
H       40.81316500      35.62172100      44.33570600
O       17.48932100      20.31664500      42.70324600
H       17.22099100      19.82620500      41.92273800
H       17.96023800      19.67326000      43.23890900
O       21.57243600      34.74742900      18.07903600
H       22.41688900      35.03134400      18.43682900
H       21.46576700      33.84963500      18.40342900
O       11.95675900      23.94419300      35.66557400
H       12.08085200      24.63200700      36.32378100
H       11.88021000      24.42021200      34.83479800
O        3.38122700      14.98403600      22.80961900
H        3.93752500      14.32342100      23.22895900
H        2.60492400      14.49564500      22.52419100
O       25.19185200      20.39796900      30.56669400
H       25.45992300      19.49121000      30.40040800
H       24.29199900      20.44539000      30.23404300
O       40.84331600       0.80038200      40.00349900
H       41.75539600       0.54125900      40.15413800
H       40.67463600       1.47516400      40.66596300
O       30.81083800      43.02403400      24.94664000
H       30.24832000      43.60941500      24.43416800
H       31.44258900      42.68191300      24.30907700
O        5.95573200      41.51459800      19.96954700
H        6.76233300      41.13789800      20.32901400
H        5.91696700      41.18064200      19.06976200
O       10.99658100      31.42809100      17.84026100
H       10.09327300      31.59822100      17.56310500
H       10.93848800      30.62341700      18.36157400
O       29.51154700       3.33826800      11.83941900
H       28.79886500       3.96195500      11.99697500
H       30.18278200       3.85317900      11.38449900
O       37.94841100      19.94105800      19.38532000
H       37.64249500      20.81281000      19.64645000
H       38.57081000      20.11010800      18.67350300
O       22.45326300      35.66649100      24.32568100
H       22.68561800      36.24674000      23.59695200
H       22.88035100      36.06112700      25.09020700
O       35.98682000      31.45414100      26.48714900
H       35.34573100      31.26464700      25.79807600
H       35.81945000      32.37006500      26.72318500
O       10.38559200      18.69410900      40.06482100
H        9.73132400      19.37041800      40.25525500
H       10.28438200      18.05726900      40.77674300
O       43.25356900      36.08472200      42.19366900
H       42.61651400      35.57472900      42.69942800
H       42.80614900      36.26975900      41.36408000
O       42.40160900      17.54414000      14.88300200
H       43.23060000      17.93475900      15.16921000
H       42.47222800      17.50968800      13.92567900
O       43.60528200       6.00365400      44.95810000
H       43.40952000       6.89391900      44.65671700
H       44.56453600       5.96978600      44.99450500
O       42.30623800       8.29540900      10.93419700
H       42.78663100       9.11844900      10.81778700
H       41.71645400       8.46601100      11.67290700
O        8.39057000      21.99664700      19.96693900
H        8.07563100      21.26933100      20.50874100
H        8.60721500      22.68765400      20.59798300
O       34.32833800       9.54003900       7.38440700
H       35.05112800       9.49384900       6.75419600
H       33.54255300       9.63197400       6.83967600
O       34.26352300      26.47897800       0.03404900
H       34.91448000      27.18393600       0.00221500
H       34.53696700      25.93532800       0.77722800
O       34.08308100      10.34903700      32.00046500
H       33.40030700      10.66909800      32.59469200
H       33.76779500       9.48704300      31.71726100
O        0.63780700       4.89177700      27.69724400
H        1.18606300       4.89930100      28.48533300
H        0.05525900       5.64789000      27.80483000
O       33.46581800      12.19378100      20.78955300
H       32.80496700      12.35462700      21.46714400
H       33.26560100      12.83608300      20.10398600
O       28.87951000       4.45197200      37.73960500
H       28.85469000       5.06909500      37.00457500
H       28.73195700       4.99897400      38.51527200
O       13.31575000       5.55769400      30.76083300
H       13.92338700       6.28319700      30.59912800
H       13.83940500       4.91033800      31.23974600
O       40.20400200       5.45607700      17.35562400
H       39.57834700       5.93754500      17.90194700
H       40.21295900       5.93621400      16.52374100
O       30.08876300      11.61417800      22.73303500
H       29.29408000      12.06484200      22.43789700
H       30.80643800      12.18653000      22.45019800
O        2.20433500      13.99137700      34.37909800
H        2.39051900      14.75935100      33.83386700
H        1.52316400      14.28999500      34.98694300
O       16.65499800      43.02878600      24.68718400
H       15.74764400      43.24320600      24.45814700
H       16.62415300      42.10327700      24.94237800
O       35.88614800      12.67573500       4.35151000
H       35.94120900      13.08170600       3.48324600
H       35.92652900      13.41506400       4.96339600
O       44.63181400      12.47227400      18.87843000
H       44.04618400      11.83227800      18.46713000
H       44.99229900      12.01077200      19.63981600
O        6.39428100       0.14159600      37.08080800
H        6.56837400       0.93694000      37.58957700
H        7.19598100       0.00532200      36.56958500
O       34.44539300      36.41264200      31.27713800
H       35.19139100      36.68968900      31.81422000
H       33.77902300      37.08773600      31.42826600
O       24.83253000      14.92797200       7.54466200
H       24.60854300      15.85550800       7.65064300
H       24.76846900      14.77379100       6.59874100
O       12.59247700      12.89620900      23.90781000
H       12.29753600      13.79750900      24.05745700
H       13.05347600      12.93287300      23.06592100
O       12.27050100       2.04953300      44.35287700
H       12.34810400       1.32073600      43.73275000
H       12.31335500       2.83600200      43.80308400
O       26.49329500      27.89937500      37.55746900
H       26.74762600      27.01060200      37.29838600
H       27.05181900      28.09630700      38.31371600
O        0.42385300      42.71400400      11.26583400
H        0.38109500      43.64975700      11.47622500
H        0.51017700      42.28147200      12.11912500
O        3.76629600      43.93436800      40.79997100
H        3.21251100      44.69534400      40.61033300
H        3.77749700      43.88068900      41.75894700
O       23.16439600      39.76930100      34.23474100
H       23.74312600      40.08057300      33.53480800
H       22.54395600      39.18657100      33.78963200
O       11.13911600      20.25803500      36.22736200
H       11.53811800      19.38481000      36.22674400
H       11.12549300      20.51329700      37.15326600
O       30.26680300      36.54855300      26.91040600
H       31.05646000      36.91314900      26.50391400
H       29.54225800      37.00596000      26.47629200
O       20.08685700      27.77866900      43.37148900
H       19.17320500      27.48430700      43.38926200
H       20.07460700      28.56066700      42.81384100
O       41.51666100      20.61373100      41.21599400
H       42.23221300      20.05289900      40.90748500
H       41.76543900      20.84506300      42.11445700
O       40.29066100      12.69343000       3.73327800
H       39.57829600      12.13044600       4.04522100
H       40.84346200      12.82924600       4.50697500
O        2.51378200      24.86162600      35.42739400
H        2.99365800      25.24329500      36.16615900
H        1.59466700      25.07915600      35.60218300
O       12.56820100      17.79203000      35.11567100
H       13.33852800      17.85203300      35.68551500
H       12.76742400      18.38004000      34.38273500
O       17.14287400      13.94288600      38.78599800
H       17.15585600      14.88099100      38.58224300
H       16.22674200      13.68386300      38.65851700
O       36.34218500      43.81305700       8.41892400
H       36.21763600      43.67798700       9.36124500
H       36.76763900      43.00666800       8.11665100
O        2.45140400       8.80427300      33.93911900
H        1.92734300       9.53634200      33.60571300
H        1.94290400       8.46500800      34.68004400
O       12.87727400      14.71304200      30.07429500
H       11.95247300      14.51466400      30.23895900
H       12.90543000      14.96715300      29.14840200
O       20.83514200      32.05707800      42.16538100
H       20.75337900      32.93580300      42.54337900
H       20.09169500      31.57045000      42.53024200
O       43.07734200      41.89641200      31.04258300
H       43.44111100      41.19485500      31.58775600
H       42.13989000      41.69428000      30.98810500
O        9.96953100      10.79702300      19.14875800
H       10.78690300      10.61825600      18.67793900
H       10.17650300      11.54969200      19.70848500
O       11.71358600      16.27206100      11.08442100
H       11.21385100      15.48255300      11.30502600
H       11.51056600      16.43200900      10.15930400
O       43.58099400      22.85407000      11.28131400
H       44.52384800      22.69323800      11.36429400
H       43.17644800      22.00388900      11.47151400
O       33.53685000      14.05801800      17.67555400
H       32.87906800      14.67730200      18.00041500
H       33.30397800      13.92486200      16.75323000
O       14.40849200      11.80552800       6.37689500
H       15.16534300      11.23105600       6.23948100
H       14.07996400      11.98286700       5.49187500
O       14.65249200       2.75343500      30.53896900
H       15.38576000       3.34168400      30.34401900
H       13.92780300       3.09123000      30.00665100
O       16.75709300      36.09936000      37.68513200
H       17.07799600      35.23267700      37.42511700
H       17.50045800      36.50189100      38.14122300
O       12.62224100       1.84831300      22.09724000
H       11.82936100       2.28538900      21.77781600
H       13.02682900       2.48952700      22.68698200
O       33.70171700       1.48014400      30.82693900
H       33.00322000       2.12819300      30.94466300
H       34.36558700       1.93735900      30.30456600
O       16.96542100      27.18106000       9.24298200
H       16.99493000      26.23149500       9.38147800
H       16.48120100      27.28707900       8.42022200
O        5.94180900       1.51823600      41.58604500
H        5.10711700       1.04567500      41.62730000
H        5.88130600       2.03925200      40.78135600
O        4.31885500      27.91263300      17.45252000
H        3.94987600      27.28332600      16.82837900
H        4.81748700      28.52564100      16.90641700
O       22.46969600       9.15815100       2.99166100
H       23.13110800       8.54978200       3.32951600
H       21.95650400       8.63271100       2.37263800
O       23.57882600       6.06170500      19.73933300
H       24.12435300       6.66179600      20.25315600
H       24.20810900       5.48210600      19.30263000
O       38.91287200       6.03228700      23.33438300
H       38.87640800       6.20811900      22.39126100
H       39.48181700       5.26222700      23.41153300
O        6.11585300      23.41199200      26.49787700
H        5.50346500      23.17490300      25.79752300
H        6.94530500      23.57864000      26.04303700
O       11.46713600       4.78458400      23.36350600
H       12.14621300       5.42120800      23.59864600
H       11.82225600       4.32986500      22.59554700
O        0.49610400      26.76371100       7.24213400
H        1.42637300      27.00059200       7.22754400
H        0.19631000      27.02849400       8.11543600
O       21.24709900       4.28846000      10.55047100
H       21.46816700       3.75341600      11.31635800
H       21.79842400       3.93689200       9.84685100
O        9.64751100      28.71788500      16.26758700
H       10.21837400      28.06146600      16.67373300
H       10.16279800      29.06004200      15.53270600
O       31.96940000      23.94205100      21.53861600
H       32.44978800      24.75130500      21.34872200
H       32.00120800      23.44725800      20.71593100
O       38.26523700       4.32328900      24.97837100
H       38.93219300       3.68334400      25.23792000
H       37.76371000       3.87911400      24.29002400
O       25.72572500      17.05655800       6.18211700
H       25.19576700      17.77356200       6.53817200
H       26.34528000      17.48956100       5.58941000
O       17.65975800       2.18716200      44.99397000
H       17.01004300       1.48035100      44.99782200
H       17.34657400       2.79523200      44.31957500
O       24.92072800      42.22880800      43.98712700
H       25.85284400      42.00178400      43.95043600
H       24.86577500      42.90093800      44.67113200
O        2.88560300       8.56202500      19.37231000
H        2.14955600       8.64522300      19.98307800
H        2.53449000       8.86896600      18.53257800
O       35.49732700      39.81057200      37.43898400
H       34.91342600      39.35952300      38.05326400
H       36.37719700      39.66482000      37.79567400
O       19.41528600      41.63363800      20.82297500
H       18.49233400      41.37315600      20.86807600
H       19.38847200      42.57307700      20.62453600
O       20.84838400      40.94318200       2.99920500
H       19.93728800      41.15556900       2.78352000
H       21.36519000      41.41203200       2.33910400
O       37.14237500      18.91476300      36.24066300
H       36.54133100      18.65584500      36.94311100
H       37.95330300      19.15364500      36.69670500
O       25.13977900       1.29505600       1.55477600
H       24.99678900       0.37597900       1.31691500
H       24.25889700       1.63602200       1.72921600
O       28.49715200       2.47353700      40.82511400
H       28.90407000       3.32669100      40.99325000
H       28.94513400       2.14607600      40.04107100
O       33.72496700      39.87848300       4.20711900
H       34.28809400      40.64490300       4.33831500
H       34.31913900      39.12861600       4.29256300
O        9.99817400       4.47155300      31.46444800
H       10.69433700       4.52856100      30.80578800
H        9.72910300       5.38264000      31.60644800
O       16.24344600       3.06600200      37.87451500
H       17.06874300       2.65988100      38.14960600
H       15.91564800       2.49164300      37.17787900
O        6.51906200       1.44086500      25.02926100
H        5.70509600       1.47824000      24.52153300
H        7.09801600       2.07490800      24.59863200
O       20.34134700       1.47510600      37.49073700
H       21.05849400       2.10406100      37.59954400
H       20.29843300       1.32402000      36.54312200
O       34.71745000      35.94696800      37.62986300
H       34.52041800      35.08323700      37.25989900
H       33.85571400      36.33825500      37.79402000
O       21.69196000      12.21887800      13.88338700
H       22.59027200      12.47638100      14.10350500
H       21.16043200      12.98386400      14.11772600
O       30.54429300       2.48566200      18.32917000
H       30.72503500       3.31749600      18.77314000
H       31.39922500       2.20337000      17.99443900
O        5.34421400       0.80009200       4.29262500
H        5.73915500       1.25705500       3.54634700
H        6.04462900       0.23100700       4.62156600
O       20.96357800      15.66584900      44.58959200
H       20.74457800      16.50670700      44.99790700
H       21.88224300      15.76102400      44.32570200
O       32.03343100      30.62632800      39.96644200
H       32.53117700      31.38916500      40.26984600
H       32.62618200      30.18294800      39.35431300
O       41.93335100      36.28625600      34.74850600
H       42.86851800      36.50336600      34.75555100
H       41.88374500      35.46147100      34.25869800
O       31.27427500      29.95655400       4.47300600
H       31.61376800      29.05925300       4.50933700
H       31.84406200      30.40163700       3.84064000
O       20.86468100       0.00320800       5.78689600
H       20.70465500       0.49534800       4.97824600
H       20.03743000       0.06478300       6.27115300
O       12.97653500      25.68091300      10.27484800
H       12.80069200      26.37359800       9.63376200
H       13.53071100      26.10313100      10.93610700
O       42.56545000      17.99742000       0.33390400
H       41.81583900      18.49620400       0.00070300
H       43.22920600      18.66454800       0.52628800
O       20.48747300      30.53104900      29.97513800
H       20.44203900      30.94289900      30.84118700
H       19.63743800      30.72700800      29.57304100
O       27.58492500      23.65010200      38.57288500
H       28.36557600      23.18927800      38.88903400
H       27.04070000      22.95955200      38.18610100
O       40.94418300      14.16609000      33.77565600
H       40.49916800      14.68069800      33.09826000
H       40.24599000      13.63814600      34.17118700
O        7.46957900       3.55803300      39.03921900
H        7.31702500       2.61951900      38.90639000
H        7.18282700       3.72086500      39.94138400
O       43.93703000      26.55303500      35.74382200
H       44.79966000      26.31372100      36.09069700
H       43.52811400      27.05945000      36.45020300
O       10.98761900      27.97836300      11.96571100
H       11.77096400      27.42356800      11.98296200
H       10.34007600      27.49274400      12.48291900
O       35.92779000      30.84077700      28.97439800
H       35.14634800      30.78306200      28.41965200
H       36.08410700      31.78380900      29.06872700
O        5.74165300       0.80353100      44.39497800
H        5.29539700       1.39551200      43.78494700
H        5.92504100       0.01788300      43.87366500
O       41.91549700      40.76702600      20.86027200
H       42.15951700      41.26281300      21.64536800
H       42.75438300      40.49322600      20.48087000
O       11.15893100      28.42833300      33.13127200
H       10.40849300      28.97255700      33.38104700
H       11.90111100      29.03791600      33.11646400
O       32.81325600      12.61151500      12.75128100
H       31.93245800      12.76842300      13.09956200
H       32.78562000      12.97241400      11.86154500
O       25.70676100      38.97753600      18.83248400
H       25.80619500      39.86275000      19.19058000
H       24.76259600      38.80676500      18.87756000
O        0.43681300       1.24627200      43.88926500
H        0.44765900       0.37729400      44.29729000
H        0.93799300       1.79969800      44.49356700
O       17.04369300       3.30216700       2.70014600
H       16.89277400       3.99021100       2.04780900
H       16.26815100       3.33573100       3.26587600
O       16.37535100      34.26097100      14.43881000
H       15.82774600      34.71169000      13.79173400
H       15.75439700      33.95405900      15.10428900
O       42.69921800      11.66155700       4.50522900
H       42.26258300      10.84164500       4.26270300
H       43.30236900      11.41118700       5.20962000
O       37.29697500      22.68857600      10.54040400
H       37.34680000      22.94462500       9.61645500
H       37.93268600      21.97339400      10.62424100
O       21.59089600      42.53155900      16.92213100
H       22.12461500      41.76517600      16.69958600
H       22.08531500      42.97261600      17.61758800
O       41.31717400      12.92537100      42.68634200
H       41.29849900      13.29215300      43.57338600
H       41.42016300      13.69006500      42.11426000
O        4.99931700      39.02263900      32.97298500
H        5.60909900      38.35266600      33.29083300
H        4.74253500      38.71623900      32.09958800
O       35.16151500      34.18453100      31.20545200
H       35.77309400      33.44532500      31.16979800
H       34.79965200      34.23765300      30.31726600
O       36.61277100      39.13396100      42.60609700
H       35.95835900      38.55989100      43.01096100
H       36.33215900      40.02101600      42.84491000
O        1.72656700       4.40761200       1.38036500
H        1.81008800       4.35186700       0.42556500
H        1.62886600       5.34675500       1.55673400
O       18.79256200       9.84094600      43.36357000
H       18.58252400       9.44177700      42.51606000
H       18.55589500      10.76572800      43.25675600
O        9.12733600      42.44031400      40.75106200
H        8.24423000      42.09835000      40.90889100
H        9.71159600      41.74011300      41.05272800
O       40.12051500      43.34946200      24.97525900
H       39.51860600      42.70956800      25.36251400
H       39.85195200      44.18977400      25.35524600
O        4.45148800      28.72403400       1.87761900
H        5.37663200      28.96442600       1.96730700
H        4.39686000      28.30361100       1.01570100
O        4.95704700      26.27109500      43.46975300
H        5.25723200      27.09284900      43.86514400
H        5.56291000      26.12266900      42.73931300
O       37.22742600      16.48793900      18.43928400
H       37.54779700      17.36693200      18.22374000
H       36.27831300      16.59769500      18.53817300
O       28.52231800      35.13367200      34.84981900
H       29.21403500      35.60553200      34.38013800
H       28.75283300      34.20702700      34.74573300
O        1.47231100      43.46481300      20.50173500
H        1.46217200      43.45111400      21.46164900
H        1.26021900      44.37354500      20.27399600
O       41.14099800      11.94429900       6.68521200
H       40.35208300      12.48569800       6.60631200
H       41.85814400      12.52889100       6.42714900
O        9.38743800      10.35826100      16.06612700
H        9.59825400      11.26917500      15.84814000
H        8.57016400      10.41608800      16.56748700
O       14.17075000      17.57854200      12.29598400
H       14.61542300      16.75317100      12.50275500
H       14.75389000      18.01280200      11.66828300
O       30.64787100       6.33750800      28.09580400
H       29.95183300       5.67632300      28.08627300
H       30.60663500       6.71440600      28.97835100
O       26.18182200      36.80567700      24.96758800
H       25.75590400      36.25416600      25.62800800
H       25.72678400      37.64915000      25.03188900
O        1.41426500      32.73431300       8.85608200
H        2.30139100      32.85397300       9.20309000
H        1.48751100      32.97016900       7.92783200
O       26.67378500      16.15563300      17.52029700
H       25.82950000      16.50890500      17.81030800
H       26.47039600      15.26487900      17.22393100
O       11.93541500      27.16968000      39.28143700
H       11.17128800      26.59442400      39.36460100
H       12.33666000      27.16078300      40.15411400
O        0.56628900      29.81117500       9.34592500
H        0.24974500      29.88742600      10.24909200
H        1.11449500      30.58961800       9.21888900
O       10.66257400      28.89715300      39.74765900
H        9.75223300      29.04015800      40.01701800
H       10.79856900      29.51827100      39.02768700
O       20.00821400       1.75951900       0.65560100
H       20.49146500       0.97985900       0.93901300
H       20.68365900       2.34240500       0.29970500
O       44.37647300      20.04262300      42.10147600
H       44.36579200      19.15294000      41.74081700
H       44.39251200      19.91390600      43.05322000
O       37.16059300      25.96663100      32.15212300
H       36.51056700      25.54913400      32.72211200
H       37.90451800      25.35900000      32.15383700
O       13.25212700       4.39533500      36.15152400
H       13.89970500       5.09432300      36.26892500
H       13.48391100       3.99445900      35.30996800
O       24.17770000      44.83301600      21.39932800
H       24.46279200      44.99630300      20.49722800
H       24.97929700      44.57058800      21.85890900
O       39.97733900       7.51475800      13.59146300
H       39.11614400       7.62574400      13.18188900
H       40.51522100       7.10604000      12.90861900
O       36.44075100       7.01064700      12.59524000
H       36.60641400       7.93873300      12.77672200
H       35.48544000       6.92453800      12.64630000
O       31.00001600      22.20125600       7.41531900
H       31.45260600      23.03932600       7.29479200
H       30.70653000      21.95974600       6.53317300
O       28.14833700       7.53737500       7.04798300
H       27.76026200       7.84826800       6.22672300
H       27.89665600       6.61159400       7.09518100
O       39.91963900      31.26947400      13.96988700
H       39.01596100      31.42897800      14.25210900
H       40.06352900      31.90239100      13.26182400
O       33.94592100      12.70986000       6.48903200
H       33.62069000      12.82033700       7.38555000
H       33.99723300      11.75815400       6.36959400
O       35.60709700      35.48418900       8.58586000
H       34.91520800      36.08388200       8.29710000
H       35.16536100      34.88523500       9.19312100
O       42.06132700      13.84110900      27.68966800
H       41.13137800      13.94489800      27.47484800
H       42.12359000      12.95627100      28.05821600
O       30.95617900      22.29419200      39.07331800
H       30.34166900      22.15380200      38.34916800
H       30.50349400      22.91108500      39.65397500
O       39.99470600      23.51337500      10.12032000
H       39.98042600      23.54998500      11.07958100
H       40.49175700      22.71634500       9.91950700
O       37.35676500      42.17507100      20.00090700
H       36.66364400      42.68911900      20.42169500
H       37.33917900      41.33101700      20.45906100
O       11.91561400       4.42008800      33.33792700
H       12.40955700       3.99109000      32.63528500
H       11.98849600       5.35770800      33.14248200
O       31.58816600      18.44117900      19.65732300
H       31.62482900      17.48831100      19.76878600
H       32.31238600      18.77212100      20.19456000
O       28.46481700      11.57918200      13.75274500
H       28.22340800      10.74593100      14.16401000
H       27.72294300      12.16041800      13.93829800
O        2.52756500       9.88587000      27.14432600
H        3.00509500      10.66991800      27.42532100
H        2.95424500       9.62832500      26.32319500
O       31.15752900      38.76951700      36.09522000
H       30.75700800      39.62520900      36.26581000
H       30.89557400      38.55877100      35.19543800
O       32.61234600      28.85113200      41.56597700
H       31.78441600      28.77070900      41.08661500
H       32.39270500      29.38575900      42.33316200
O       28.04093400      12.59697300      40.93198700
H       28.28458600      11.84221800      40.39096700
H       28.79804400      12.73218000      41.50744000
O       19.07287500      37.67940100      18.38919200
H       19.09786600      38.26115400      17.62586800
H       19.07880800      38.27472100      19.14298300
O       38.16983000      23.10738700      34.77401500
H       38.49057000      23.92686100      34.39020100
H       37.53561300      23.38762300      35.43875500
O       10.51369600      27.76642900      36.16357900
H        9.57134900      27.80357700      35.98378000
H       10.57955700      27.28477200      36.99201700
O       30.78702300      28.48353400      14.39066500
H       30.69462800      28.34435400      13.44524600
H       30.18661100      29.20771300      14.58485800
O       25.77208400      42.02526500      38.37177000
H       26.67511200      41.86168100      38.65373900
H       25.63469000      41.41283000      37.64466000
O       22.48158300      11.19600400       7.48946300
H       22.33575700      10.65636100       8.27000400
H       23.43628300      11.28881900       7.43872600
O       30.42480600      23.85291300      36.95894900
H       29.88344400      24.51287400      37.39838500
H       30.05897500      23.79613900      36.07261500
O       40.45566800      32.44109100      23.77880800
H       39.80882200      33.14749600      23.84444300
H       41.04884500      32.72525200      23.07878200
O        3.09509700       8.73655200      15.86802700
H        3.37571700       9.34316500      16.55722800
H        2.37342300       8.24221300      16.26483500
O       32.95993900      21.39481000       8.00450700
H       32.51297700      20.58806300       7.73784600
H       33.86494100      21.12114000       8.17397300
O       19.66601500      36.80855400      13.22528200
H       19.20545000      37.61415200      13.47148700
H       20.28492200      37.08609500      12.54516000
O        3.94819600      37.18450200      26.90673800
H        4.77926200      37.24870400      27.38311200
H        3.99854000      37.87874600      26.24482100
O       42.31056200       9.12883700      29.81723900
H       41.51309200       8.60221200      29.72540400
H       42.93342900       8.72680900      29.20645900
O       44.95440000      11.51095500      34.07877000
H       44.99981100      11.39897000      35.03120000
H       44.30154800      10.86658400      33.79379100
O       22.64562000      14.74306900       5.76034700
H       23.21748100      14.94487500       5.01605300
H       21.96709100      14.17182100       5.39168000
O       32.86526800      14.78293500       4.58428500
H       32.33203900      15.22854100       5.24672500
H       33.70557300      15.24791200       4.60235400
O        1.62862700      22.49816900      23.13639500
H        0.94785900      22.87046400      22.57099500
H        1.48541400      22.91647200      23.98912900
O       21.42913600       2.15353700      43.05561700
H       22.38066200       2.08636000      43.16429600
H       21.23904000       3.08547700      43.18975100
O       43.28834200      14.48213000      14.27334400
H       43.17349800      15.42176900      14.11329700
H       44.23906500      14.34912400      14.24052100
O       21.69728900      28.64442200       6.56710300
H       21.80554500      27.69916800       6.69555500
H       22.58264200      29.00213000       6.67119600
O       28.87005500      39.29206500       3.21511700
H       29.09857400      39.02176400       2.32268100
H       28.42938400      40.13810000       3.10253000
O       23.47347800      39.02533100      14.30816400
H       24.10878900      39.73582700      14.42349100
H       22.83031700      39.16467700      15.00785600
O       19.59846300      27.00585600      13.48365100
H       19.38298600      27.83200400      13.04459100
H       20.22595800      27.25546200      14.16672400
O       15.48189100      19.78777900      31.68421200
H       15.68287900      19.43559600      30.81398500
H       16.07484700      19.31650900      32.27493100
O        1.56258000      12.84797900      21.14339300
H        1.38969400      13.74055900      20.83495400
H        1.21138800      12.83239500      22.03729700
O       17.26130500       4.90466000      39.60000800
H       16.54712400       4.26902700      39.68741800
H       17.08895600       5.34334100      38.76305100
O       10.37227400      14.86935500       5.05828200
H       10.97478300      15.37793300       5.60605600
H        9.75969800      15.52144300       4.70875100
O       26.57629100      12.69933900       9.52492800
H       26.19115700      13.19894100      10.24866500
H       27.48205800      13.01480300       9.47287200
O       44.72492500      43.88654200      17.04132300
H       44.96658400      44.81569000      17.03802800
H       44.99413400      43.57323600      17.90850700
O       42.50633500      28.37837900      11.59749500
H       42.66361500      29.16887300      11.07585700
H       41.54939500      28.31340400      11.64933000
O        1.77732100       3.89433500      15.27514700
H        1.26636700       4.29693300      15.98123800
H        2.03427200       3.03762100      15.62537500
O       35.60578600      21.85621600      29.14298400
H       35.69384400      22.33632300      29.96970500
H       36.28069900      21.17437500      29.19017700
O       36.62669900       6.95119300      20.54109800
H       36.78882400       6.82792900      19.60288300
H       37.09889800       6.22815300      20.96167200
O       12.53277400      14.19621100      15.37288200
H       12.92567100      15.00376500      15.03345100
H       12.11885700      14.46103800      16.19821900
O       33.49409800      10.48893500      19.40635300
H       32.82994700      10.14035500      20.00562000
H       33.71798600       9.74590400      18.84029600
O        1.71274600       7.86710200      24.77964600
H        1.15623500       8.41458900      24.22082700
H        2.31847000       7.44061300      24.16821500
O        0.42085000      33.00117700      23.90759200
H        0.18743600      32.10992500      23.63756800
H        0.00066000      33.10839200      24.76467300
O       19.34044600      14.48369900      39.28391100
H       19.04870700      15.33643900      39.61473800
H       20.29925600      14.52988500      39.31845700
O        8.25792600      14.44479500      26.21098200
H        8.19620700      15.39706800      26.31630100
H        8.40142000      14.11519900      27.10172200
O       32.42488600      36.93264000      11.43642400
H       32.67496000      37.65560500      12.01651800
H       32.57262700      36.14272600      11.96258900
O        5.76719100       7.31072700      19.11802300
H        6.24954900       6.90314300      18.39488300
H        5.21312100       7.97039200      18.69318200
O       23.01560200      43.82316900      38.11444100
H       23.03863200      44.78010900      38.04054600
H       22.13578000      43.63093000      38.44850600
O       37.61480200      35.19463400      11.08082500
H       38.19110200      35.91813100      10.82361900
H       36.83989700      35.62644900      11.44919900
O        8.73602100      42.36308100      14.58755700
H        9.18538000      41.61876700      14.18037500
H        9.00834900      43.12123000      14.06440300
O       40.55115000      19.48732100      24.06209700
H       39.89782700      18.83920400      24.33566300
H       40.12964900      19.96078500      23.34042400
O       15.37542300       1.00049900      15.38395000
H       16.12390900       0.43601800      15.59096500
H       15.15198200       1.41650200      16.22040600
O        9.62029200      33.42372500       9.54221800
H       10.36272600      33.95771000       9.83441200
H        9.97780100      32.88786200       8.82970100
O       10.25182100       4.79764900      35.47780600
H        9.83921100       4.28404200      34.77946100
H       11.18505800       4.57911800      35.41492200
O       33.00393900       4.33647200       8.90897300
H       33.43907000       3.70845900       9.49033900
H       33.72420800       4.76908700       8.44346300
O        0.21155000      38.11165400      11.99253800
H        0.49467900      37.52328600      11.28870100
H        0.78807600      38.87560600      11.91106500
O       25.30617100      20.41989200      38.77709900
H       26.02903000      20.16091900      39.35340800
H       24.80248100      21.05223700      39.29582700
O       15.36445300       2.29554900      34.20677600
H       14.97813500       1.88922100      33.42743000
H       16.09096500       1.71360900      34.44377400
O       21.04221700       8.70641100      41.53176200
H       21.75575000       8.07381400      41.64319100
H       21.21509500       9.11303100      40.67887500
O       35.46846600      12.44437500      17.34112400
H       35.86662800      11.63405100      17.01467900
H       35.48618400      13.03929500      16.58720200
O       24.75207800       0.39613200      35.85015300
H       23.97767900       0.00617100      35.43789000
H       24.77863200       0.00388400      36.72655300
O        4.96346800      40.81067200      29.54167800
H        5.58330400      41.53801600      29.63386900
H        5.41840800      40.05904700      29.92991900
O       11.57891400      32.20698200      10.43715700
H       12.44697900      31.96101400      10.10900000
H       11.36188400      31.52168800      11.07427000
O       34.48149500      35.28380200      34.73324200
H       34.53728400      35.65133400      33.84806900
H       34.37806500      36.04986900      35.30340500
O        9.74403100      29.07642400      29.79863200
H       10.36138800      29.79342400      29.96143700
H        9.06118900      29.19406000      30.46386200
O       37.48247800       2.49959500      43.11847800
H       37.37675900       1.57209600      42.89421400
H       38.43292400       2.63849300      43.11669400
O       41.36373800      24.42333700      16.24769000
H       41.07989800      23.57469600      16.59549500
H       40.67499600      24.66801000      15.62446300
O       21.93377400       4.88235100       6.46942000
H       22.73115700       5.36469000       6.70018900
H       22.20382500       4.30522000       5.75064700
O       33.97173800      21.61430400      25.70702000
H       34.53062200      22.36022500      25.47685700
H       33.18956400      22.01355000      26.09618300
O       44.15338600      22.79152800       5.36258900
H       44.97876500      22.31573100       5.24388400
H       44.37791900      23.51469500       5.95356900
O       39.28418300      28.10621000      38.02387800
H       39.32462900      29.04738300      38.20903400
H       38.96997900      27.71533100      38.84310400
O       20.75748600      35.85355200      27.35060000
H       21.65409700      35.89989600      27.01050400
H       20.76929200      36.41333800      28.13107600
O       22.44734500       3.70477400      40.99608100
H       22.61747300       4.62840500      40.79686600
H       21.49156200       3.64983900      41.07420700
O       35.31670600       2.92121100      23.11222000
H       36.20236900       3.14552300      22.81724400
H       35.14142100       3.53579100      23.82930400
O        3.80149700      27.46039100       7.31234700
H        4.02968000      28.28156300       7.75431400
H        4.15059700      27.56307000       6.42340000
O        9.33325000      40.87402100       2.68200100
H        8.81603000      40.07626700       2.81541100
H        9.12470100      41.42325800       3.44192800
O        8.16474500      19.37056700       8.66943700
H        8.97998500      19.48433300       8.17530600
H        7.72041500      18.64022700       8.23146800
O       40.46878600      23.37943400       6.99155700
H       39.83934400      23.37485900       7.71647600
H       41.14880500      23.99798500       7.27014500
O       38.08931500      42.08427000      43.01027600
H       37.82715900      41.52818700      42.27286800
H       37.60842500      42.90439100      42.87320300
O        3.44299800      11.64497000      23.59250100
H        3.54420800      11.49196800      22.65012500
H        4.33420100      11.57105000      23.94312300
O       29.35513800      36.62307300       3.43927400
H       29.66419700      36.30999300       2.58593500
H       29.34328600      35.83725900       3.99153900
O       23.94557900      13.80886400      37.15381600
H       23.94788900      14.06824100      38.07817700
H       23.82865200      14.63337100      36.67511100
O        9.94241200      44.43873400      42.30437400
H       10.30182500      43.55054600      42.24379900
H        9.60480000      44.61991400      41.42356000
O       27.86226500      44.32426500      42.05386900
H       27.28434900      43.57971000      41.87117800
H       28.60685800      43.93877500      42.52250500
O       26.18978900      40.70180000      35.33758800
H       25.25957800      40.61659100      35.11583800
H       26.33671300      40.03251500      36.01072400
O       42.70196400      18.17022100      33.54491000
H       43.27383800      17.98845700      32.79547900
H       43.01147900      19.01486700      33.88168100
O        0.70927800      26.49496900       1.62678600
H        1.54149200      26.68800400       1.18874300
H        0.96282500      26.23187800       2.51512100
O       14.33635500       8.19248800      44.02465400
H       14.37639800       9.13525100      44.20163000
H       13.43586100       7.94561700      44.25005800
O       13.12011800       9.08883700      17.42196400
H       14.01295000       9.18926900      17.08360000
H       13.19871000       9.27478600      18.36105300
O       41.55628300      16.74042000      36.13505500
H       42.31349100      16.15808700      36.23122600
H       41.35930700      16.72215000      35.19510300
O       22.22203200      27.39161300      42.95557300
H       22.23218600      28.25047200      43.38450500
H       22.75841100      27.51212100      42.16790800
O        8.39775400      26.76958200      26.37466500
H        8.28293700      25.99224500      25.82304200
H        9.20846800      27.17229200      26.05340300
O       17.03282600      22.45920300      43.28487300
H       17.17927500      23.31191900      43.70099100
H       17.54611400      22.49834000      42.47392000
O       19.43181000      18.44319900       6.51553700
H       20.33618200      18.24968400       6.25787600
H       19.51755600      19.09758700       7.21343800
O       25.01995000      18.52520800      34.58101600
H       25.39056600      19.17347800      35.18443500
H       25.60773900      18.54300800      33.82152300
O       28.11496200      33.12640900       3.41122300
H       28.31398400      32.62868100       2.61474100
H       28.22221900      32.49031400       4.12292500
O       23.66842300       7.98129200      27.03208700
H       23.62349600       8.53400600      27.81580500
H       23.12057700       8.43643700      26.38761100
O       41.89779800      16.66606400      38.53368400
H       42.85698200      16.66960200      38.49271200
H       41.66243200      15.73481100      38.53015400
O        1.82161200      18.69695800       1.25758600
H        1.85843800      17.88601200       0.74501000
H        2.44998700      18.55715700       1.97049700
O        7.15686100      14.08752400      30.88144600
H        7.32126700      13.24843400      31.31805000
H        6.91141500      14.68302000      31.59403500
O       15.46498500      43.49626800      42.39770200
H       16.16158700      44.11297400      42.63465000
H       14.77246300      43.65938300      43.04303100
O       41.25865600       0.99458500       8.06216800
H       41.52979500       1.91006600       8.16268400
H       41.85389700       0.64137400       7.39615700
O       25.51876000      39.44390900      38.68751300
H       26.40464100      39.07739800      38.73858700
H       25.48937900      40.09569200      39.39246600
O       11.06260300      33.44974300      15.73681700
H       11.86327600      33.97736400      15.68924900
H       10.55509700      33.71656200      14.96617600
O        7.52474600      16.85455800      34.52231100
H        8.14596700      17.52568700      34.23008700
H        7.25352300      17.14526300      35.39670800
O        4.27910100      34.72187100       2.10991900
H        3.55633600      34.35616400       2.62527800
H        4.98712100      34.07944000       2.20282900
O       28.27154200      12.68924800      11.85184800
H       27.54697900      12.10392200      11.61919500
H       27.98610200      13.55452700      11.54777800
O        4.40258900      21.13262800      30.91122000
H        4.97901200      20.50325500      30.47150400
H        3.58766300      21.10467800      30.40352200
O       44.98441200      41.17045900      20.41327800
H       45.00049200      41.60558800      19.55763200
H       44.58611100      41.81660900      21.00191200
O       21.10948200       3.73569300       2.03151500
H       20.38580900       3.17607200       2.32279700
H       20.68064100       4.45221000       1.55681400
O       31.06626300       5.23414200      30.59612600
H       31.49618000       4.50360500      31.04691700
H       30.38329100       4.81751700      30.06451000
O       40.96886400      10.80133500      31.31904700
H       40.60114400       9.91549800      31.36147600
H       41.72439100      10.77449800      31.91158500
O        6.28777700      34.71598200      33.19034600
H        5.63405400      34.01374400      33.15523700
H        5.83169500      35.48416800      32.83747100
O       43.58015400      29.55899200       8.43749500
H       43.79285400      28.75229300       7.96239400
H       43.28468000      30.16682800       7.75494700
O       15.51212800      43.87532300      10.82153400
H       15.96864400      43.58576400      11.61492800
H       15.28921300      43.06071100      10.36397700
O       35.66965900      29.75793100       0.95490300
H       34.88412800      29.32110100       0.61749200
H       35.39714600      30.11676800       1.80320300
O       19.13923200      29.37904600       6.97326800
H       19.91204600      29.49474600       7.53102700
H       19.21939100      28.48258300       6.63775300
O       33.02654000      31.54372800      37.43935300
H       32.69723400      30.82309600      36.89716100
H       33.94925300      31.32482500      37.59207200
O       40.93366000       3.97085300       8.65598600
H       40.58607800       4.82746200       8.91508800
H       41.54376600       4.16755800       7.94064100
O       28.72281900       1.21563100      43.47732600
H       27.77971100       1.20691800      43.65676000
H       28.86410900       2.02738700      42.98363400
O        7.17310900      21.08148300      28.38601800
H        6.92439100      21.78612800      27.78324100
H        6.80266700      21.34870400      29.23100800
O       32.51088800       8.82273300      41.15223500
H       32.25526200       8.40325600      40.32736000
H       31.72097300       9.28890800      41.43746900
O       33.34618700      19.91064800       3.49427400
H       33.46364100      20.57610900       4.17625000
H       34.13968900      19.37198700       3.54757300
O       39.11422700      12.57776100      41.68209100
H       39.24270000      13.40998300      42.14320500
H       39.86559700      12.51653200      41.08682900
O       19.98175800       5.31707500      26.80985700
H       19.37588800       4.67933900      26.42522900
H       20.01328400       5.08433300      27.74124200
O       28.23559000       7.92311700      10.27969800
H       28.90988300       8.04894100      10.95142900
H       28.22306400       6.97452400      10.12917900
O        7.88252800      38.29908400      44.84507900
H        8.46972400      39.05638100      44.78652600
H        7.01489000      38.68145400      44.99882700
O       29.57232800       6.78323200       0.73277300
H       28.79875000       6.21722000       0.67861900
H       29.76674500       6.83206500       1.67216600
O        9.25519800      30.52101100      22.53821400
H        9.40581600      31.43463300      22.79185500
H        9.88015500      30.36526700      21.82560200
O       11.13023400      25.58856300      41.93040600
H       11.85260200      26.17479000      42.16757400
H       11.38406900      25.23105900      41.07577100
O        9.15820800      25.41681700      19.78991800
H        9.48165700      26.31735200      19.71154700
H        9.24668000      25.05383800      18.90501100
O        3.40286000      16.36175400      32.54374400
H        4.28662800      16.00589200      32.66224400
H        3.38205600      17.14047300      33.10571000
O       26.90914100       3.96548200       5.83386500
H       27.85968400       3.87332200       5.73537800
H       26.56151600       3.80536000       4.95286500
O       31.08594400      36.22631400      33.06553100
H       31.02494000      36.99149100      33.64216500
H       31.95022400      36.30612900      32.65407900
O        3.60604000      22.68106800       2.35710500
H        3.26521600      21.92268200       1.87708900
H        2.92181800      23.34886400       2.26473300
O       41.38590100      40.04071200      15.67802800
H       40.42897800      40.07928000      15.74537600
H       41.63393500      40.89448000      15.31443200
O       16.76051400      23.33418600       6.66662200
H       16.47109600      24.21443000       6.41536200
H       16.04206000      22.99134200       7.20413800
O       33.09787700       8.15742900      15.41634400
H       33.46487100       7.45789300      14.87073500
H       33.83233500       8.44063500      15.96680700
O       30.93787100       8.53617800      21.66306100
H       30.90560500       9.46855300      21.43643300
H       31.47305700       8.50289500      22.45999900
O       45.00024400      15.43170000       4.17041000
H       44.99717400      15.19866100       3.23906300
H       44.92909600      16.38958300       4.17675000
O       31.63852600      29.63700100       6.87477700
H       32.10063000      29.19227300       7.58920100
H       30.95682900      29.01504300       6.60813300
O       42.00179100      30.82751400      38.01538700
H       42.85797300      30.54584700      37.68472000
H       41.92057600      31.73837400      37.72148200
O        5.32851900      16.21999000      36.91270200
H        5.97741500      15.68429700      36.45043400
H        5.79546600      17.03312500      37.12106200
O        0.01013000       6.61514700      36.89726400
H        0.88528900       6.96706700      36.71845300
H       -0.00031400       5.76426600      36.45169200
O       26.02751500      15.87214300      11.47789500
H       26.15337600      16.75330800      11.83766000
H       26.10330200      15.29086400      12.23882500
O       23.53439400      24.74650200       1.15753500
H       23.55545100      25.70216400       1.06813800
H       23.90702100      24.42171800       0.33394200
O       33.04734300       5.08758700      36.55842400
H       33.17448600       4.34401000      35.96457900
H       32.11783600       5.04595500      36.79701400
O       41.72771700      17.56741800      26.51664900
H       41.30245400      17.97768400      27.27332500
H       41.09694400      17.67647400      25.80049600
O        3.57563200      43.23960600       3.31311500
H        3.73463700      42.69770100       2.53672500
H        3.07739300      43.99090300       2.98152300
O       20.49949200       3.60399900       4.57821200
H       20.59758400       2.65761000       4.44995300
H       19.60487600       3.79302600       4.28397600
O       41.19100900      44.04418400      30.33553400
H       42.07849000      43.75909300      30.10569600
H       41.21745000      45.00032600      30.24758900
O       18.03983300      37.93149000       5.83446700
H       17.86148700      38.46567000       5.05692700
H       18.81315100      37.41404200       5.59599800
O        4.65338800       4.54734600       8.02147400
H        5.53268500       4.77573700       8.33195500
H        4.80857300       3.98808500       7.25610700
O        3.86489800      25.82836600      32.95694300
H        4.22335500      25.44253200      32.15421900
H        2.92039300      25.88684900      32.79222900
O        0.46247300      32.37290100      31.28702400
H        1.06464800      33.02683200      31.64963000
H       -0.00198700      32.02589300      32.05286000
O        9.97623000      21.52339300       9.18296100
H        9.17312400      21.17043600       9.57304700
H        9.80287800      21.52222600       8.23819100
O       14.03640700       5.65815900      20.81309000
H       13.90034800       4.88374800      21.36399800
H       14.88615500       6.00553900      21.09575400
O       13.64378500      14.62626200      26.53458700
H       13.66431700      13.68108300      26.70173500
H       12.89133500      14.74876600      25.95024500
O       28.09602900      24.31180800       9.91553000
H       27.33568500      24.40588400      10.49410700
H       28.29888100      25.20950300       9.64050600
O       41.31336000      17.59159400      22.70820300
H       40.36323600      17.60946700      22.57156800
H       41.67546200      17.39686700      21.84009900
O        5.85266400      26.23650100      15.79719800
H        6.34628600      25.69036700      16.41347700
H        6.20759900      27.11995500      15.92436700
O       34.72093200      19.02725700      29.72838800
H       34.71960800      19.63799700      28.98763200
H       34.84906700      18.16456700      29.32590700
O       10.45265300       8.33825500      12.26744200
H       10.31909800       9.25049800      11.99967200
H       11.12134600       8.38712100      12.95526800
O       23.78933200      37.72521500      11.30811100
H       22.90367100      37.47879000      11.58488600
H       24.33480700      36.97543900      11.55897900
O       37.75640200       6.99273400      15.17229700
H       37.59235500       7.83657600      14.74481100
H       38.70914200       6.96721600      15.29178900
O       43.69056500      39.94967200      44.41037600
H       43.23346900      40.72394300      44.74696700
H       43.42106600      39.23939500      44.99818500
O       20.79173100      39.25199200       1.25760300
H       20.34087300      38.47549900       0.91773200
H       21.59614100      38.90666900       1.65297400
O       32.05217100      33.28595500      29.76130700
H       31.45197000      33.64126400      29.10157900
H       31.47634700      32.97232200      30.46323500
O       17.88064300       0.82001500       6.43389200
H       16.96187000       0.87994100       6.16188300
H       17.86645100       0.23299400       7.19405500
O       20.88883600      11.73034000      26.78349200
H       21.65843700      11.21519600      26.53038000
H       21.12712400      12.63589000      26.56938700
O       23.86692800      14.82757500      12.85756100
H       23.09528800      14.40859300      12.46929500
H       24.08967600      14.26934500      13.60683000
O       22.52161000      30.46878700       9.17961500
H       23.28695400      29.89721700       9.08327900
H       22.88876000      31.35589500       9.20931700
O       30.67487600      43.40046800      36.18726300
H       30.72626300      42.97247900      35.32941100
H       29.78007200      43.22391200      36.48858700
O       32.93026600      21.72765200      37.42023200
H       33.11070600      22.59838500      37.78216000
H       32.83851500      21.87636900      36.47571800
O        6.02523800      17.27214900       7.92582700
H        5.32833700      17.10758200       8.56533600
H        6.66489900      16.57351800       8.08516700
O       34.53749500      26.18280300      26.50919100
H       34.06086400      25.90351300      25.72398800
H       33.99141600      25.88105700      27.23952600
O       35.77058900      15.86650900      11.84320700
H       36.32273500      15.30906000      12.39647900
H       35.70485000      16.69315100      12.32795800
O       17.58893400      28.02278700      25.70206300
H       18.14052600      28.75298800      25.41175700
H       17.66275400      27.37360700      24.99796300
O       28.74372900       1.97976900       6.60813700
H       28.90877000       1.95656900       5.66264800
H       28.43341200       1.09523800       6.81778000
O        2.93208200      35.57216200      28.23577000
H        3.63008400      34.92290400      28.34971000
H        2.65120000      35.46271000      27.32375700
O       12.59644400       0.65361000      14.39297900
H       12.24060600       1.50822700      14.13854900
H       13.31790900       0.50278500      13.77703800
O       31.50510700       2.20104400       4.85415900
H       31.15519500       1.32506800       5.03291000
H       30.72554600       2.75199300       4.74747600
O        8.64638800      34.14465300      16.37657900
H        8.49620300      34.34111700      15.44890900
H        8.44357200      34.96665400      16.83025600
O       33.89059900      17.42488400      25.54146100
H       34.61853000      18.04265300      25.64247000
H       33.12317900      17.90643900      25.86054300
O       38.43642900       7.75617300      40.25709600
H       38.56683700       7.82526000      39.30844200
H       38.38093100       6.81151500      40.42196900
O       42.89298300      18.58521900       2.75023600
H       42.10061100      18.11412000       2.48202400
H       43.13667600      18.18410100       3.58830500
O       44.99066800      39.24667100       2.97539600
H       44.92740600      40.19803200       3.08779900
H       44.50629700      38.88561900       3.72216800
O       18.67816700       7.08463600      13.75501800
H       18.55899700       7.20547600      12.81007300
H       17.96852600       7.59585900      14.15213600
O       23.72258700       0.80070000      15.97813000
H       24.51223500       1.33807800      15.88114300
H       23.14048200       1.32961500      16.52953200
O       15.98268300       3.14039200      26.16440200
H       16.68810600       3.64435400      26.57686600
H       16.39922300       2.72425800      25.40547500
O        6.50266100      43.85806100      28.97539400
H        6.88238600      43.02398600      28.68929600
H        6.18654800      43.68329700      29.86543500
O        4.00947000      13.38629200      31.07304500
H        4.10223400      12.55603200      31.54610800
H        4.90089700      13.59674800      30.78372100
O        6.66235000      23.93705900      11.74012200
H        6.11853000      24.70673000      11.55684300
H        6.15208300      23.43084500      12.37731600
O       17.90405200      42.45113500      37.66710300
H       17.11547700      41.96685000      37.92272300
H       17.61495400      43.01249300      36.94326400
O       11.73067400      38.89059200       4.28165300
H       11.63211100      38.98089400       3.33093900
H       11.02114800      38.29671500       4.53957800
O       25.26592500      32.29244400       5.56700900
H       26.05370600      31.77130100       5.73887100
H       24.94143400      31.96346800       4.72491500
O        3.95542700      18.72930800      14.74456300
H        3.42552400      19.52980200      14.75627500
H        4.77113400      18.97684400      15.18726900
O       32.09865300       7.24355600      43.23210800
H       31.66108100       7.17254600      42.38051300
H       32.44187300       8.14051200      43.24976100
O       15.80886400       0.63777100      38.95963100
H       16.74923500       0.44727700      38.92587000
H       15.75052900       1.46580000      39.44296100
O       38.41836900      18.99510900      40.78850700
H       39.19273200      18.53270700      41.11755400
H       38.38589700      19.80384300      41.30574700
O       44.09564400      10.43626900      29.99488700
H       43.40514400      11.02567400      30.30719500
H       44.24022900       9.83000900      30.72576800
O        5.94195600      35.56617600      10.87929800
H        5.86890000      35.67297500       9.92799200
H        5.49987900      34.73284500      11.06031900
O       17.47892300      41.17615700       6.17728200
H       16.69626900      41.48518000       5.71502500
H       17.93205200      40.62328800       5.53568100
O       28.90981900      31.35445800       6.16387900
H       28.78668600      30.79376300       6.93341400
H       29.73832900      31.05518500       5.78093000
O       14.55751300      39.12504000      27.43244700
H       13.86095900      38.71759100      27.95256600
H       14.20181400      39.98323500      27.18827000
O       10.42638700      20.63531600      18.20640200
H       10.49885100      21.51751000      17.83463800
H       11.27352100      20.48645100      18.63400500
O       35.66165700      42.17035800      11.66313100
H       36.45520100      42.70934600      11.62433200
H       35.85512100      41.41996700      11.09556900
O       38.38696900      10.19836200      39.95457200
H       37.59267400       9.83720400      40.35505500
H       38.31510200      11.14587300      40.09492400
O       42.54246500       9.88329000      19.02551100
H       42.68778700       9.73223900      18.08860700
H       41.96599400       9.16428100      19.29634200
O       29.70338100      37.12203300      12.62358700
H       29.56652200      36.17250200      12.58637300
H       30.64944600      37.22153500      12.75664000
O       11.38767800      41.67498500       3.14165900
H       12.06351000      41.12994300       3.55142000
H       11.36605100      42.47146400       3.67812300
O       31.71930900      11.45528800      38.44320300
H       30.98535800      11.37615900      37.82938000
H       32.46211400      11.06140100      37.97872800
O        7.50755700       3.81861400      32.10921500
H        7.66846600       4.76316700      32.04878500
H        6.69553900       3.68294100      31.61437900
O        0.84369000      25.78686200      19.41922100
H        1.67296300      25.98379300      18.97735000
H        0.83203000      24.82888700      19.48843500
O       18.47195400      15.87625900      44.24622100
H       18.82663500      15.24393300      44.87557800
H       18.25086200      16.64440300      44.77887000
O       41.42839400      34.89865600      27.89790000
H       42.30690500      34.59257100      27.66071600
H       41.28423700      34.54866800      28.78071900
O       27.33242900      37.06347800      36.55940300
H       26.73948200      37.55315100      37.13417200
H       27.81038900      37.74212400      36.07604500
O       38.06435200      20.75860800      35.19864500
H       38.06636200      21.28341500      36.00257100
H       38.88637000      20.99161600      34.75974200
O       17.92322500      13.33113000      26.24771500
H       17.44432200      13.12507000      25.44154100
H       17.26249600      13.26300900      26.94157300
O       12.56957200      12.89276600      38.01115100
H       13.17128500      12.66078100      37.29992100
H       12.09816900      13.66268600      37.68305800
O        0.23290300      32.97847700      12.73266000
H        0.49469100      33.86908000      12.97764700
H       -0.00144000      32.56123500      13.56550700
O       30.70828300      34.49531100      36.63666600
H       30.02144700      35.14749300      36.47969400
H       30.50324500      34.13715300      37.50403300
O       23.18486100      19.90679000      34.45866600
H       22.62699700      20.67619600      34.59477800
H       22.57806400      19.16303000      34.49417600
O       20.75318000      33.96064900      22.52225600
H       20.94677600      34.77512700      22.99222500
H       21.27101800      33.29294000      22.97903900
O       13.21270200       9.17754300      23.29760800
H       12.89558300       9.09860100      22.39487400
H       13.89848500       9.84853100      23.25159800
O       29.75232100      27.61062800       3.30813300
H       29.08164900      28.03442900       2.76747000
H       29.43568500      27.71816400       4.20858800
O        5.00389200      38.79369500      37.62878900
H        4.06593200      38.85665400      37.43387400
H        5.31374100      39.70259800      37.60573800
O       21.86757600       1.30927200      25.43787000
H       21.97492500       2.25143500      25.28776900
H       21.09916700       1.24511400      26.01064600
O       13.11662500       3.89283300      10.20262700
H       13.90030100       3.51873200      10.61204700
H       12.66815300       3.13830000       9.81250500
O       24.04088900      26.60601900       3.26899900
H       23.28749100      27.01762300       2.83923300
H       23.69676300      25.77696300       3.61088200
O       26.31944400      33.96823100      10.03898400
H       25.44950000      34.31097600      10.25681100
H       26.80854800      34.73622900       9.73304300
O       12.72873000      20.90927600       7.75816900
H       12.04059900      20.94341500       7.08956200
H       12.75240900      21.79811500       8.12155000
O       20.57762300      39.35102000      27.23015000
H       19.80970100      38.80865500      27.42472600
H       20.39761800      39.71576200      26.35997600
O       17.32014700      21.66602500      32.76182800
H       16.54972100      21.39036500      33.26400400
H       17.98743900      21.84643900      33.42877200
O       22.18846800       1.29538500      22.68836500
H       22.34961300       0.36807900      22.49899500
H       22.80717000       1.50600700      23.39227400
O       36.36570500      28.20623800      39.45647000
H       36.80152000      27.97673200      38.63238500
H       36.17384600      27.36001000      39.86845300
O       29.68655500       2.77610400      30.48182800
H       28.75314300       2.57048800      30.57232100
H       30.12681700       2.14267400      31.05417200
O        7.91877800      32.87419200      44.82524200
H        8.30633200      33.01536000      43.95829400
H        7.24092900      33.55101400      44.89647100
O        7.38692800      17.98631800      26.55329300
H        6.81717000      17.32217300      26.15831000
H        7.49419600      18.64807500      25.86538900
O        4.93107600       0.38076100       1.69964200
H        5.77482900       0.00492700       1.43781400
H        4.34060000       0.17146000       0.97151100
O       30.48676200      38.29058400       4.32351800
H       30.88102900      37.63126300       4.89934300
H       31.11294200      38.38100200       3.60077000
O       10.54313100      18.02750300       4.20925800
H        9.88946200      17.49289300       3.75249200
H       10.86254900      17.46110200       4.91622600
O       26.91578300      26.86279700       0.60396100
H       27.37500900      26.02582800       0.70554600
H       26.19389300      26.66706300       0.00129700
O       22.56297500      13.97719700       8.08426900
H       23.35731800      13.53910500       8.39862500
H       22.19747600      13.37105400       7.43492800
O        9.13351800      30.32986100       9.20844800
H        8.64446100      31.14680300       9.08534700
H        9.91495900      30.59180200       9.70178200
O       13.17916800      38.54980700       6.65317800
H       13.73870500      39.32988700       6.64230300
H       13.22065200      38.21407500       5.75417600
O       42.48183600       0.69308000      42.89435000
H       41.55249900       0.92486600      42.96017800
H       42.71986600       0.40825700      43.78027300
O       18.83582400       7.19174800      40.34515700
H       18.44759500       6.94538900      41.18795600
H       18.13597800       7.03654800      39.70580600
O       27.30227500      40.31513700      27.76946600
H       28.00023900      40.54961400      28.38557600
H       27.76783200      40.01126700      26.98616400
O        6.00833900      24.94896500      33.81797900
H        6.18893400      25.88721700      33.91175500
H        5.26982400      24.78790200      34.41068100
O       40.92269200      12.80269400       1.57993600
H       41.10623000      12.73290500       0.64016600
H       41.46748800      12.12054200       1.98057200
O       35.07690700      11.61315400      14.96454000
H       35.82206500      11.21565400      14.50796900
H       34.36923200      10.97052000      14.87041700
O        1.20215600      21.30161300       7.32319000
H        0.67635700      20.80073900       6.69518900
H        2.09978600      21.23739200       6.98736700
O       36.55361700       2.28126900       5.09307800
H       35.92751100       2.97206600       5.32224000
H       37.08388100       2.66391400       4.38948400
O       17.64446000      30.75064000      30.99981300
H       17.94494700      31.64670600      30.83099800
H       18.40813500      30.31114400      31.38228500
O        8.86732900      23.50695800      24.54319900
H        9.03628700      23.97455800      25.36449500
H        9.71393000      23.11594900      24.31293700
O       44.99658500      11.00749400       3.35979900
H       44.99706700      10.05113600       3.44408600
H       44.16361200      11.20816100       2.92559700
O       36.94784800       9.16109100      25.61705200
H       37.05680700       8.64808200      26.42121300
H       37.59766000       8.79577900      25.01130200
O       33.81681900      32.07692300      16.08160500
H       34.37226800      31.34808500      15.79525400
H       34.28360600      32.45157900      16.83286000
O       14.71237200      10.46583400      21.17045600
H       14.91466400       9.54957300      20.96730700
H       15.38428700      10.72289400      21.80692400
O       18.88327200      43.47907800       9.72922800
H       18.24758400      43.71553100       9.04973100
H       19.26281700      42.65152300       9.42305900
O       29.47146900      38.17482100      31.07483900
H       29.58643800      39.11720400      31.21774700
H       29.86212900      38.01510500      30.21198400
O       26.97550000      27.39271600       2.73634400
H       27.13609400      27.14027800       3.64859900
H       26.04490900      27.20047400       2.59604200
O       28.94115900      29.12118700      38.79290200
H       29.11417800      29.57623000      37.96542100
H       29.34513700      29.68022300      39.46142500
O        6.11922000      14.75863900      43.11434700
H        6.92433800      14.24286300      43.02782900
H        6.31454300      15.39049900      43.81094200
O        4.64967500      39.35811200       9.14162700
H        4.15439900      38.64344700       8.73458900
H        4.48669200      40.11509000       8.57324000
O        7.28491100      26.74497500       0.04878400
H        6.87221900      25.87949000       0.00036300
H        7.90692200      26.67211900       0.77709600
O        7.90524000      32.90863200       7.01708900
H        7.04893400      33.29926300       6.82768800
H        8.47610500      33.23441800       6.31664700
O       12.47862700       8.13635000       4.42405500
H       12.75630100       9.01589600       4.69055200
H       12.71842300       7.57555000       5.16610800
O       28.43424200      32.97642900      40.40309100
H       28.93707600      33.31391300      41.14806600
H       28.43528500      32.02386600      40.52664100
O       41.60675800      15.56435300       0.79035800
H       40.95199500      15.81976000       0.13631100
H       42.38859000      15.35149600       0.27453600
O        2.40146000      31.09920000      18.09453100
H        3.00485500      30.64863100      17.49902500
H        2.34952000      30.52363400      18.86177900
O       17.67516300      30.80151200      12.73682800
H       17.41483000      30.62272000      11.83019400
H       16.84622600      30.95603100      13.19686100
O       43.05127500      39.34636500      11.80722100
H       43.02960800      38.41003600      11.59616900
H       43.79368100      39.68750600      11.30214700
O       28.32490100      30.10760100      44.31042000
H       29.23656200      30.29649100      44.07607500
H       28.11716400      30.74815700      44.99538400
O       35.67014000       2.94966800      26.35095900
H       36.60456800       2.93051000      26.57051000
H       35.31746000       3.67498300      26.87266500
O       37.59855200      10.50227800      37.16134000
H       38.07475000      11.22953500      36.75383700
H       37.01703200      10.92516700      37.79824000
O        8.95160900      35.69829100      19.01362100
H        8.72357200      36.62370800      19.12906600
H        8.27877700      35.22345600      19.50806000
O       13.51898100       8.11159100      14.51795500
H       12.59573400       8.21511500      14.76007800
H       13.90417300       7.62341800      15.25004600
O       17.51179900      18.47534600       7.84993600
H       17.67440100      19.23869600       8.40902500
H       16.88032400      17.94736700       8.34503200
O       36.67829100      38.73360700      19.42778500
H       35.81491300      38.54671800      19.80378400
H       37.11163900      37.87727700      19.38841000
O       28.99364400       6.38760100      26.24106400
H       29.23320900       7.22415300      26.64666800
H       28.08891700       6.51647600      25.94525900
O       27.75934500      34.96137100      39.09063400
H       27.07628800      34.32841800      39.32414700
H       27.45560600      35.34604500      38.26455300
O       42.21678000      33.52960400      10.43623100
H       42.76821700      34.31532000      10.45334600
H       41.87219700      33.46063100      11.33018100
O        6.68313700      35.27313500      13.50066100
H        7.41438900      35.89522400      13.50149100
H        6.19631300      35.47634700      14.30337600
O       40.53585300       8.84978500      38.10777900
H       39.92440100       9.41327200      38.58770900
H       40.47441700       9.15174900      37.19800700
O       29.46930300      24.22722600       5.56731700
H       29.64803000      25.10058400       5.92372600
H       28.53331600      24.08902700       5.73306500
O       39.34461200      35.34071800      38.76711100
H       38.75345700      34.64155400      38.47826800
H       40.10137700      34.87668500      39.13402100
O       10.12827000      23.58471600       0.00269500
H       10.56582700      24.40491100       0.24258900
H        9.27125300      23.63687200       0.43332600
O       22.62882800      24.86247200      37.29115100
H       23.01645500      24.02603300      37.55918100
H       22.39944700      25.29470600      38.11771000
O       26.72232800       8.25889200      23.99820600
H       26.45707900       9.13957200      23.72294200
H       26.02967100       7.97907100      24.60200200
O       40.40825600       3.70032800      42.79604700
H       41.04200100       4.31944600      42.42620300
H       39.93658700       4.20989100      43.45976100
O       36.48004200      20.10922900       7.53934700
H       37.25515800      20.10375300       8.10581800
H       36.81989200      20.34531600       6.67250900
O       28.76791100      41.72139100       9.32249900
H       28.94238500      40.81159300       9.07040500
H       29.14553000      41.80170100      10.20204200
O       33.22260000      38.86043100      25.37312500
H       32.41276100      38.41205100      25.62776300
H       33.84820100      38.63459500      26.06613600
O       13.80806500      24.78978800       5.58873600
H       14.27001200      24.03823100       5.20993100
H       14.39489300      25.10663300       6.28002700
O       40.49648800      41.03317100      41.99695400
H       39.98806700      41.14537100      41.19032900
H       40.29930200      41.81815400      42.51421700
O       23.73392500      40.41539600      36.68980200
H       23.67637800      40.37048800      37.64708800
H       23.29025200      41.23645700      36.46252500
O       30.55050800       9.12470500       0.90251500
H       31.14074400       9.02026700       0.15255500
H       31.12129400       9.03348000       1.66966800
O       41.87052800      28.67077800      38.44575600
H       41.46725400      27.94709800      38.93091700
H       42.81330700      28.49287700      38.49222600
O        6.50132400      33.01920900      42.36915600
H        7.14475400      33.37310900      41.75070800
H        6.63361900      32.06851100      42.33290200
O       41.48166100      26.19703100      37.25598600
H       40.54529300      26.34852300      37.10769400
H       41.50999100      25.58629400      37.99682400
O       22.27209100       4.38769900      21.79040200
H       23.13418100       4.64317700      21.45386400
H       22.37865500       3.46771100      22.04517300
O       11.94155200       4.89032700      27.99042400
H       11.09205500       4.48252200      27.80664700
H       12.35503800       4.30294200      28.62811500
O       35.20283600      12.37375000      36.39724700
H       36.06002900      12.01927600      36.14967000
H       35.39625200      12.99173100      37.10670600
O       43.78349500      17.86731400      22.28748500
H       43.67894300      18.74688600      22.65781800
H       44.26971300      18.00853700      21.47121900
O       34.95957100      40.15809700      29.49114400
H       35.06496300      40.54612000      28.61933200
H       34.12356800      40.50868200      29.80868400
O       33.36967800      21.83530600      40.78911300
H       33.47883600      21.65958000      39.85160000
H       33.79687900      21.09203100      41.22233800
O       33.94229000       8.78197300       4.11556200
H       33.66181500       9.39701500       3.43381300
H       33.75173500       7.91530100       3.74785200
O       20.76249400      28.49741900      35.62028200
H       21.22292400      28.47072700      36.46231300
H       20.66918500      29.43411600      35.42914300
O       44.28622500      16.97512300       2.15647800
H       44.18469500      16.81428100       1.21544300
H       44.99829500      17.61729600       2.21314300
O       35.12300600      11.57547400      39.70136600
H       34.42708100      12.10213400      40.10141900
H       35.60563000      12.19699300      39.15052000
O        8.80176300       6.68306000      33.12084000
H        8.89952900       7.61912700      33.31043200
H        9.22367600       6.24398900      33.86370500
O       26.00903300       5.38550100      27.98292800
H       25.21915100       5.09648700      27.52002300
H       26.44440400       5.97785900      27.36469900
O        1.95576800       3.22230100       6.77259700
H        1.46129200       4.04289800       6.71063700
H        2.11869500       2.97257900       5.85950600
O       29.32005500      15.46887700      32.13097400
H       29.65454400      15.54550900      33.02761800
H       29.62519100      16.26775900      31.69357200
O       17.56231500      34.86613400      27.62111700
H       18.30145300      35.18870300      28.14202900
H       16.78792000      35.08202300      28.14680300
O       10.54641400      27.87776000      21.38069600
H        9.71256000      28.17326300      21.75364600
H       11.19807000      28.09430900      22.05233000
O       23.98573900       7.37260300      40.94059800
H       23.28754200       6.72299600      40.82988600
H       23.65102400       8.15934400      40.50282500
O        3.34446800      28.95808500      31.72657300
H        3.58409500      28.04278300      31.56370600
H        3.37651700      29.37079800      30.85980700
O        4.43561700      28.38131700      19.64543000
H        4.80464400      29.13646400      20.10943100
H        3.52807400      28.63557900      19.46007200
O       30.50325300      23.84419600      42.00194500
H       29.64038700      23.45326100      42.15801300
H       30.31429800      24.65665300      41.52565500
O       41.42295700       3.39740100      39.77349200
H       41.82179600       4.23589500      40.01758200
H       41.75207000       3.22575100      38.88756700
O       39.44330600      42.31297300      20.68097100
H       40.39688400      42.36244700      20.78079500
H       39.15625600      43.22960500      20.67562500
O       30.75795900      19.37268000      38.16161000
H       31.53571100      18.81228500      38.21436700
H       30.93371500      20.08359900      38.78317700
O       43.12760000      40.99272800      41.86252100
H       42.59298600      40.92224300      42.65684100
H       42.53162300      40.74474700      41.15121400
O        1.77960700      34.49213200      22.17539600
H        1.20172000      35.07329600      21.67537700
H        1.66887000      34.77274900      23.08733600
O       40.11000900      27.82027700      32.30674500
H       39.16382800      27.70881900      32.18823900
H       40.34895000      27.15460600      32.95669200
O       42.57352200      12.86181900      19.73564600
H       42.00918800      12.09676200      19.86958400
H       42.37667900      13.43648700      20.47972400
O       14.87862000      28.27521800      16.64508000
H       14.01499100      28.40795700      16.24727200
H       15.32368600      27.66570400      16.05089900
O        7.80936900       4.60677500      28.26150100
H        7.75248600       5.10016200      29.08312100
H        7.29036600       3.81473300      28.42258800
O        8.52468200      14.43308300      12.89796900
H        9.33962100      14.40960400      12.39097000
H        8.13988300      13.56215100      12.77128200
O       35.06069200       6.68408300      34.57921900
H       34.32534100       6.13152600      34.30414400
H       35.67067400       6.07536100      35.00351000
O       42.63401900      15.50459400      23.14829600
H       42.05233800      14.75858500      22.98445600
H       42.22342800      15.97067300      23.88098100
O       18.03947100      35.98942600      22.96970300
H       18.93099800      35.64752600      22.86965700
H       17.87626700      35.95656400      23.91570800
O       29.24163400      22.64345900       2.48687400
H       29.07068300      21.71567700       2.30876700
H       29.26370000      22.70211800       3.44536900
O        7.07209700      42.13938200      22.57432900
H        7.95516500      42.47511000      22.74521600
H        6.97888000      41.39647500      23.17602800
O       25.93941800       8.09526800      26.91273000
H       26.87238000       8.18360500      26.70415500
H       25.64826200       8.99361600      27.08834700
O       32.84659700      33.90697100      41.48266900
H       33.07785900      33.17569400      42.06014300
H       32.24812700      33.52148400      40.83778500
O       13.20883800      41.73205200      36.83098500
H       14.09352800      42.09379700      36.74049600
H       12.92293200      42.01654400      37.70274400
O       33.49654700      23.12564800       3.19456300
H       33.60661700      22.96431300       4.13455300
H       33.14677400      22.29995400       2.85028000
O       42.56713200      24.04545100      42.24329900
H       43.25247800      24.56162600      41.81249800
H       42.92215200      23.15334100      42.27054100
O       42.25254300      40.29895200      29.00095900
H       41.91177500      39.87553900      28.20955300
H       42.44810500      39.57049700      29.59573000
O       14.65558400      31.20729200      20.83003200
H       15.36079500      31.33166500      20.19055200
H       14.54425700      32.07190500      21.23338300
O       11.28454200      39.53143200      29.72416400
H       10.80533000      38.72392900      29.92421400
H       11.75131300      39.33566100      28.90780600
O       37.24152600       0.52146600      21.78733000
H       36.53590600       1.05314900      22.16301400
H       36.81266800       0.00968200      21.09682200
O        9.72863700      21.19176700      15.60380800
H        9.55473900      20.37606900      16.07933000
H        8.97867300      21.28682400      15.01122000
O       28.03429600      40.66306800       5.33189400
H       28.78223700      41.17081300       5.00862100
H       28.14960700      40.64945100       6.28539300
O       24.91216300       1.21739500      44.26792600
H       25.33138300       2.03704800      43.99562400
H       24.26773500       1.03865700      43.57842800
O       34.60403500      42.57899400      34.10779700
H       34.04395900      42.45854400      34.87820700
H       35.15143900      43.33719400      34.32716600
O       16.23737900      34.20879400      30.84728500
H       16.42674300      35.14976700      30.86818100
H       15.46214400      34.10913800      31.40560400
O        7.91925900      26.51207200      21.38766800
H        7.30598500      26.07812300      20.78991500
H        7.68710200      27.44255100      21.33330500
O       37.77492600      30.86874800      35.76377200
H       37.92908000      30.18114700      36.41581900
H       38.64801600      31.22618000      35.58322000
O       37.33213500       6.40536600       5.79972400
H       37.20982200       7.06808900       6.48350900
H       38.03714000       6.75703000       5.25023200
O       37.62670000      16.78511300      29.38483500
H       37.03357500      16.03018100      29.38683200
H       38.38445000      16.49435100      29.89856200
O        5.97201800      37.90317700      15.98148800
H        6.64476700      38.47756900      16.35459300
H        6.42648400      37.42657500      15.28223600
O       10.56648700      30.83147900       6.66425300
H       10.06461500      31.17883600       7.40532800
H       11.19107600      30.22121800       7.06439400
O       17.30974700      42.20258700      40.73483500
H       16.42874400      41.98453400      40.42176500
H       17.42587500      41.65872600      41.51801500
O        5.74557900      25.14252400       4.61152900
H        5.74963800      24.45461400       5.28122300
H        4.96384400      24.95789200       4.08480200
O       12.29989200      16.72604400      30.78032500
H       11.97523800      17.00978800      29.92252900
H       11.51739200      16.70712700      31.33708100
O       41.13841600       7.20615500       7.84795400
H       40.26625200       7.41524100       7.50541000
H       40.98336200       6.96759200       8.76538900
O       15.55466700      32.22869300       1.01102400
H       15.08351700      32.90116000       0.51350000
H       15.10961900      32.20602700       1.86194200
O       44.21280400      25.49988700      16.69289800
H       44.99494000      24.94997700      16.77999800
H       44.35539800      26.21753500      17.31522500
O       10.90602900       9.66556500      44.24323900
H       11.81027700       9.41358300      44.04182800
H       10.98790000      10.28396800      44.97366100
O       17.36833600      25.28051400      27.88042800
H       17.71530300      26.17027000      27.97877600
H       16.41678100      25.38565400      27.95872400
O       39.12849500      31.61439600      26.23026500
H       39.32987500      31.32502400      25.33727200
H       38.17914600      31.49305100      26.31183600
O       26.34756500      37.27372000      17.38660600
H       26.24563400      38.09160700      16.89426900
H       25.75567600      36.65663900      16.94897500
O        6.02708900      14.83226400      39.74179200
H        6.90943400      14.60410900      40.04368300
H        5.73333000      15.51080200      40.35492700
O       12.98957400      37.18996700      21.48486400
H       12.89832400      36.77763200      20.62267000
H       13.92097900      37.41744700      21.54299600
O        6.62244600      16.65990100      15.64666400
H        6.84615800      15.98591700      16.29274700
H        5.96641300      17.20510700      16.08826800
O       23.60543800      37.19181000      16.29568000
H       24.11343200      38.00334700      16.36692000
H       23.44262100      36.93175500      17.20590200
O       16.04669800      40.72209500      23.30129400
H       15.33005200      40.15504600      23.59557000
H       15.68790800      41.18372100      22.53918300
O       14.23268600      12.71493500       3.02838700
H       14.80875300      13.05503400       3.71701200
H       14.11937500      11.78697800       3.24906300
O       23.88204400      12.62747400       4.98029100
H       23.13907700      12.19451100       4.55336400
H       24.29349300      11.93462600       5.50308400
O        7.98871200      18.55486700       5.95307400
H        7.04234200      18.40636000       5.88939200
H        8.28047900      18.62813900       5.04085500
O       14.69299100      30.74370200      36.11606700
H       13.87563600      31.16941000      36.38519400
H       14.52035300      29.80518800      36.22574700
O       10.55206300      15.88617900      22.48860100
H       11.03402500      16.71325900      22.56192100
H       11.16319400      15.22382700      22.82094100
O        8.90261700      17.21781800      38.90800200
H        9.47270700      16.47627400      39.12441700
H        8.36054500      16.89800500      38.18238500
O       37.25968900      19.10324600      28.57041100
H       38.17715500      18.82052100      28.56344100
H       37.12548100      19.49870700      27.70540200
O       19.68953900      33.40687400       6.70643700
H       20.01709100      34.25303400       6.39267400
H       19.33551400      33.59690800       7.57890200
O        3.53930400      15.27102700      10.67176600
H        3.37059600      16.17018500      10.38060000
H        2.68069700      14.94729900      10.95572900
O        3.01500000      36.38728500      38.26620300
H        2.90194900      37.31784400      38.47357500
H        3.77525600      36.36438300      37.67957900
O        2.52641500      21.54691000      39.57011500
H        3.38918400      21.26084400      39.87918000
H        2.71928100      22.13618600      38.83649500
O       11.18035500      13.13147100      40.14726600
H       10.65437700      12.92196300      40.92262300
H       11.37238300      12.27754700      39.75156400
O       40.45698400      24.74844300      32.31521600
H       40.07982900      25.01089100      31.47224500
H       39.83931000      24.09915900      32.66097500
O       27.37017800      13.32978300      18.84459800
H       26.92190500      13.53848300      19.66753300
H       28.10059600      12.76420000      19.10774800
O       27.99594300      40.69004200      31.72362700
H       27.34355000      41.29146700      32.09022800
H       28.82688900      40.97311700      32.11354700
O       42.30298600      10.43232300      39.72344200
H       42.93898700       9.84993100      40.14539900
H       42.35922500      10.21083300      38.79047800
O        7.63996900      14.03039600       4.13712400
H        8.18598500      13.71139200       3.41474700
H        6.99049600      14.59687200       3.71293800
O       21.55267100      25.02839100       7.49629900
H       22.02687400      25.48635800       6.79835700
H       20.87088200      25.64817500       7.76772900
O       19.22318800      23.00889500      35.61704200
H       19.28534000      23.78405200      36.18006400
H       18.35335400      23.07532800      35.21502700
O       44.43704900      34.84019800      36.61582100
H       44.27524100      35.24748100      37.47002500
H       43.94133100      34.01800700      36.64596000
O       44.21656300       1.06746900      41.50171000
H       43.87441500       0.57139800      40.75433200
H       44.84698700       0.47192900      41.91467500
O       29.62044400      41.68254100      23.59840800
H       29.03138000      41.20929100      23.00615500
H       29.61419900      41.16298600      24.40628500
O       11.62439800      37.17258200      25.17337000
H       11.02317600      37.73435600      24.67873100
H       11.36323200      37.29260200      26.08990100
O       17.88482000      33.58150900      34.51586900
H       17.45010600      33.78546500      33.68451400
H       17.78136000      32.63142900      34.61223000
O       29.63502100       4.71053100       2.89154100
H       29.89877200       3.82212500       3.14233100
H       28.98578000       4.57908500       2.19594700
O       33.71742900      11.05251100      35.19824600
H       34.00397100      10.58055700      35.98366200
H       34.49635700      11.07588700      34.63666900
O       37.21372600      15.66213600       6.19670100
H       36.49521300      15.92629200       5.61731800
H       37.35019200      14.73220800       5.99857800
O       20.96900800      44.94244700      28.40198700
H       20.09163000      44.99842500      28.01624200
H       20.90703400      44.21956300      29.03146300
O       36.77653800      19.48308000      31.53531000
H       36.57570500      20.41574000      31.42789600
H       37.60280100      19.47196500      32.02501200
O       41.15898700       5.71030800      24.80489800
H       40.56858700       5.14772100      25.31150200
H       40.68667400       6.54311200      24.72744400
O       33.60897200       8.82879100      13.14022000
H       34.52328700       8.96208700      13.40095800
H       33.65076300       8.14821600      12.46367400
O       34.56815300      36.34568400      13.02295900
H       35.35552300      36.14398000      13.53392700
H       34.89861400      36.80645500      12.24763600
O        8.50254200       0.57314300       6.60496000
H        8.05933400       1.08979300       5.92793400
H        9.43659400       0.66168900       6.39917400
O        1.06663100      26.97203700      40.72229700
H        0.62536800      26.15308800      40.48495000
H        0.65486200      27.63552900      40.16295300
O       28.29180400      41.81037900      34.07224900
H       28.22744800      40.86426200      34.22207400
H       27.39179300      42.12982900      34.17507600
O       20.28619300      20.66022900      33.86382900
H       20.48274000      21.31301700      33.18784000
H       19.81506900      21.15249700      34.54084900
O       39.81572200      27.92705200      35.15452900
H       40.56194200      28.43473300      34.82720500
H       39.45126500      28.46698200      35.86042400
O       24.54149600      28.77884200       0.42539600
H       25.25759200      28.49265700       0.99726200
H       23.85204100      28.12386700       0.56067900
O       13.81853300      42.67878500      23.53943200
H       14.05011700      41.88969100      24.03483500
H       13.85049700      42.40127900      22.62040400
O       18.72828400      31.04129900       8.54006600
H       18.06082100      31.31385700       7.90608700
H       19.51848400      31.51836800       8.27429900
O       14.37967300      12.80965500      17.49102000
H       14.43723000      12.00944400      18.01834800
H       13.47596200      12.81626000      17.16558900
O        1.25062100       9.90948200      15.37116400
H        0.46422500       9.36496600      15.45367800
H        1.06305900      10.48809700      14.62774800
O       35.46483500       3.51998800      42.57234500
H       35.47971900       3.48032400      43.53147500
H       35.44201800       2.60033700      42.29600400
O        2.44578400      21.14653900       4.64411500
H        3.05048900      20.49468300       5.00624700
H        1.90528300      20.65143100       4.02333400
O        9.83715700      26.46794500      33.58372700
H       10.35725200      26.30870200      32.79261000
H       10.48870300      26.66144800      34.26246500
O       16.01986900       7.87277100      26.41831500
H       15.61484800       8.15408100      27.24205500
H       16.51648700       8.63995500      26.12260900
O       27.26879700      15.55358200      14.08901700
H       27.51722300      16.38894200      13.68629600
H       26.71800900      15.80315000      14.83533600
O        0.51510600      42.64538000      27.29583600
H        0.89125200      42.50570000      28.16803400
H        0.85668400      41.91803200      26.76959300
O       42.99787900      40.69173400       5.09671200
H       42.39765900      39.96580900       4.91098600
H       42.99112200      40.76767800       6.05422400
O       27.43680100      32.01191000      43.39724100
H       26.92488000      32.76934400      43.10406000
H       28.09968000      31.89262600      42.71240200
O        1.61472400      27.88315300       9.56295300
H        1.32887300      27.07759300      10.00008800
H        2.41620500      27.63046700       9.09774400
O        3.88600300      32.73115400      37.20809700
H        3.93243200      32.21223900      36.40168800
H        4.58725500      33.38083500      37.11427200
O       25.31895300      10.63456500      39.45791800
H       25.24961200      10.25701100      38.57793500
H       26.01854900      11.28840200      39.38239400
O       28.64888200       7.32187600      39.22482600
H       27.80537300       6.93855700      38.97325900
H       28.96437300       6.75823200      39.93575000
O       34.76689700      29.18852500      15.97819700
H       35.48915100      28.71912300      16.40214800
H       34.87679300      29.00036300      15.04269700
O        2.71442400      44.76098400      22.70807500
H        3.10215400      44.00239200      23.15071200
H        1.96270000      44.99867700      23.25676000
O       39.57542000      39.29943100      25.31395300
H       39.69801500      39.35009500      24.36309700
H       39.39964500      40.20541300      25.58030400
O        2.43049800      38.87386600      18.93688000
H        2.61989300      39.78156500      18.68800900
H        1.79203200      38.95053400      19.65041100
O       39.27674400      40.18641800      33.78655300
H       38.34053500      40.00919600      33.66895100
H       39.44317600      40.96010600      33.24217300
O       33.78290900      19.47508600       0.57394900
H       34.20548700      20.30599900       0.34430400
H       33.19607700      19.69890000       1.30070700
O       12.92134100      29.09223700       2.45156800
H       13.81689600      29.33583200       2.69726500
H       13.03408100      28.39972200       1.79555400
O        8.58613100       6.75584500      41.51845400
H        8.57946900       6.33394300      40.65608500
H        8.06718400       7.55495200      41.39695300
O       44.96353900      16.53792200      24.72825400
H       44.39318900      16.55028500      23.95606600
H       44.51667500      15.95303400      25.34539300
O       33.97097200      32.83656600      23.89204600
H       34.09536300      32.80244900      24.84340700
H       33.02656300      32.71034300      23.77038900
O        8.64362400      15.44061800       2.15777300
H        9.50451800      15.20205500       2.50944600
H        8.45197700      14.75615300       1.51169200
O       13.99422800      31.50983100       6.64752700
H       14.27870600      31.75211700       7.53188800
H       13.98075700      32.34052400       6.16543700
O        4.04720500       1.04433200      18.15082200
H        3.99923300       1.92407200      18.53224200
H        4.31089800       1.19369200      17.23934000
O        9.60727300      11.96402700      24.25437900
H        9.80691600      11.07481900      24.55633600
H       10.46255100      12.33483000      24.02276300
O       29.36810500      37.18926700      37.57040800
H       29.78958100      38.04667400      37.66494100
H       28.74493000      37.14815900      38.30020600
O       42.73569900       3.23934900      17.62568700
H       42.35207000       4.08182000      17.88023800
H       42.16317700       2.58404000      18.03241900
O       42.36834800      32.81863500      31.75571100
H       41.52870200      32.70393300      31.30453200
H       42.50779000      31.98666100      32.21507800
O       42.34140200      16.49625200      19.94908300
H       42.59445600      16.18105700      19.07825500
H       41.61604400      15.92262300      20.20878900
O       31.44322800      37.91662200      43.12668300
H       31.76970700      38.53976400      43.78000500
H       32.18480700      37.78597800      42.53033200
O       16.28834000      31.01889200      34.50998900
H       16.59967400      30.24572300      34.98644200
H       15.53589100      30.70066700      34.00482200
O        3.77925900      26.14783700      38.29028300
H        4.14704500      26.89562700      37.81355500
H        2.83310000      26.20894800      38.13636500
O       26.98702500      19.11628200      37.45327200
H       26.05145100      18.98204500      37.28473300
H       27.20997700      18.44794500      38.10615900
O        3.51527600      28.54866200      41.17664600
H        4.02161500      29.25294600      41.58814300
H        4.13167300      28.13771800      40.56523600
O        1.34808500      17.06612800      23.12100100
H        0.99814000      17.91896700      23.38919500
H        2.11697000      17.28116200      22.58694300
O       29.26473600      36.83763500       6.28261300
H       28.31278300      36.93113000       6.36488200
H       29.43889000      35.93053600       6.54620900
O       37.64381000      23.11993700      30.61951100
H       38.17306300      23.30878800      31.39794000
H       37.73282700      23.90571800      30.07429000
O       39.35732000      34.81775700      21.53717300
H       39.37525300      33.86406000      21.64610300
H       38.45261600      35.01126800      21.27889700
O       26.98091400      17.75316600       9.22005100
H       26.27302000      17.65275400       8.57932700
H       26.92949700      16.95941000       9.75852000
O       28.55053100      11.09118600       9.04857700
H       29.16630500      11.46960100       9.68051800
H       28.01121700      10.49189900       9.57072300
O       31.64073100      21.58838000       0.76629100
H       31.97010700      22.45996600       0.99775300
H       32.24785700      21.27569100       0.09081700
O       16.07782800      23.00382400      38.53404700
H       16.57279000      22.38406200      39.07500200
H       15.62957400      22.45165900      37.88842800
O       25.80988800      40.20301700      22.04666400
H       25.82169600      41.16139100      22.10238000
H       25.10991500      39.93779500      22.64860800
O        5.92445900      31.15732000      17.49881000
H        5.19684100      30.55517000      17.67118500
H        6.04396600      31.12043400      16.54644500
O       42.43473400      24.40790700      18.32243100
H       42.47819700      25.31836200      18.02092200
H       43.22882800      24.00085500      17.96695100
O        5.88800600      26.96546600       2.71366100
H        6.60858100      26.42588500       3.04735300
H        5.50522600      26.44083900       2.00592600
O        9.02966200      41.08173800      21.22396000
H        9.67823900      40.66050100      20.65507400
H        9.27109400      40.80024500      22.11002700
O       21.69808300      16.51343300       8.46315900
H       22.53098000      16.49856700       7.98588900
H       21.14438900      15.88257400       7.99616600
O       37.13426400      23.56923000      43.76383400
H       37.82631100      23.20209500      44.31881900
H       36.56099100      24.03748800      44.37598900
O       11.61305100      16.60385300      33.52996300
H       10.66837700      16.67121000      33.37255500
H       11.69052500      15.97110700      34.24848400
O       19.13293700      28.14504600       1.00523200
H       18.49449700      27.80620500       1.63713900
H       19.47909100      28.93984100       1.41889800
O       37.46291100      35.99643700      17.06535800
H       37.03699700      35.59578300      16.30391300
H       36.74028900      36.19238800      17.66707600
O        7.19823200       4.88545100      12.30025900
H        7.21244000       5.76907200      11.92510900
H        6.26666100       4.70439600      12.44870500
O       31.30541100      12.84043900      28.98040100
H       31.07486700      12.02841000      28.52303500
H       30.48317700      13.12761000      29.38550000
O       10.02764400      15.12450500      41.73010000
H       10.14728400      15.85827700      41.12265400
H        9.11250000      15.19596900      42.01302300
O       43.11355400      36.79931000      22.15183500
H       42.41184200      36.20075300      22.41839600
H       42.77629800      37.22407300      21.35906900
O       26.87981700      33.07757500      34.97323500
H       26.39584900      33.87529100      35.19939800
H       26.20377700      32.46663600      34.66931900
O       32.11339700      18.98052800      16.98583500
H       32.49735400      18.41070000      17.65635600
H       31.64402500      18.37915500      16.40215600
O       25.77095600      13.34753700      41.46044100
H       25.05844000      12.79383600      41.13262800
H       26.20132700      12.81044800      42.13048500
O       25.86864100       5.01761000       2.01013600
H       25.14830000       5.64201500       2.12394300
H       26.32728100       5.32348200       1.22354000
O       43.23722600      42.62587200      35.46640000
H       42.97319400      41.70772600      35.56137000
H       42.77661500      42.92618100      34.67881200
O       37.65363400       1.40307700      19.61852800
H       38.58425600       1.20902500      19.48432300
H       37.42546300       1.99005600      18.89324500
O        9.85295800      33.60655000      20.02498200
H       10.68440100      33.47290700      20.48603300
H        9.87424100      32.97031000      19.30568500
O        8.97800000      21.50292100      25.86690800
H        8.80575300      20.69747100      25.37364700
H        9.26004300      21.19669000      26.73253900
O       17.95872000      13.41976400      12.21285000
H       17.06233900      13.09005700      12.11528100
H       18.28772500      13.48590900      11.31283700
O       17.35889000      42.09105100       3.71974400
H       18.07200800      42.39916200       4.28388500
H       17.78834700      41.50568000       3.09081700
O        9.36594500      31.88103500      39.77075300
H        9.95794700      31.22396100      40.14426600
H        9.45717900      32.64128200      40.35070400
O       21.78777700      26.09029000       9.70763300
H       22.53276300      26.64507600       9.46487100
H       22.18933500      25.30412100      10.08622500
O       12.61761500      41.38059700       5.66135400
H       12.79303400      41.38698100       6.60523500
H       13.16282900      42.09040500       5.31270600
O        0.78431100      15.58246900      40.24383000
H        0.56452600      14.89530000      40.87724700
H        1.28034500      15.12611700      39.55948000
O        3.19286300       7.82728700      42.51150600
H        4.00795200       7.37019000      42.73154500
H        2.79240800       7.28471000      41.82748200
O       13.23838000      39.75660200      19.29841500
H       12.87627900      39.07640400      18.72575600
H       12.48217500      40.07551200      19.79750700
O       41.34299300      14.52665200       3.25914200
H       40.70236400      14.71006000       2.56799700
H       42.14192600      14.97368300       2.96843400
O       44.53018300      27.17781500      11.25895500
H       44.53845700      26.66340300      12.06953300
H       44.70374000      28.07788800      11.54598800
O       35.41053100      16.96538500      23.14693900
H       35.77893600      17.49426600      23.85847800
H       36.15150400      16.81267100      22.55509600
O       19.03548100      36.42502500      42.75777500
H       19.39641100      35.53749600      42.81897300
H       18.08371100      36.29557800      42.75328800
O       14.15230200      43.59273200      18.12697800
H       13.22719400      43.68430100      18.36679800
H       14.27228400      44.20897900      17.40000700
O       10.14721100      41.91453300      17.76537700
H        9.41204700      41.34508400      18.00409400
H       10.04202800      42.05651300      16.82122600
O       37.35019200      13.46456100      35.14945000
H       36.80926200      14.13333700      35.57589800
H       38.09847500      13.35044400      35.74079800
O        3.31768400      44.22595700      30.87858400
H        3.03268700      43.67367600      31.61035400
H        2.53630100      44.73302800      30.64414500
O       15.94261900       6.76659900      35.23055600
H       15.83481100       6.06390900      35.87579300
H       15.21230300       7.36538600      35.40587000
O       17.65276100       0.46642200      35.37021500
H       18.49537500       0.02533600      35.50124900
H       17.59668600       1.09371900      36.09547100
O        8.89965300       8.84391600      14.31891200
H        8.63503100       8.41198000      13.50335700
H        9.55893500       9.48665100      14.04526800
O       22.24982400       2.66807100      15.03509200
H       22.33844500       3.62377700      15.05739600
H       23.05140700       2.36433800      14.60167100
O        4.44495800      41.65459700      14.05915900
H        4.53077000      41.43333200      13.12888800
H        3.49719300      41.66723800      14.21479400
O       15.09247400      42.99815100       6.33717300
H       14.72061600      43.59076100       5.67970800
H       14.38013300      42.86414900       6.96745500
O       19.07304100       1.21405600      43.62568000
H       19.27615000       2.14385700      43.49942500
H       19.19301500       0.82360800      42.75631400
O       28.70968100       8.82187300       3.11222900
H       28.26288500       9.50183900       3.62188100
H       28.80235400       9.20323600       2.23552100
O       11.02969100      30.18086000       3.00119800
H       10.80734000      29.24726100       3.02721300
H       11.25828200      30.39689800       3.90878600
O       15.76640400      18.18184500      41.87386700
H       16.58794600      17.73765700      41.65140100
H       15.61873700      17.96167900      42.79710300
O        7.03504500      35.12935700       4.91102000
H        7.04203700      34.18299000       4.74957500
H        6.17796900      35.41983800       4.58902100
O       17.68249300      17.02619600      11.25563900
H       16.89117800      17.54331300      11.42337700
H       17.76887600      16.46452400      12.03004500
O       42.66497100      21.08148400       3.69672700
H       42.16586400      20.30852200       3.97086000
H       43.32432800      20.73648200       3.08938500
O        9.16780400      22.10262800      43.63308700
H        9.83852200      22.05308100      42.94795400
H        9.45616800      21.46939800      44.29528700
O       13.72539700      42.66353400      26.06142300
H       13.13272400      41.93158500      26.24774500
H       13.14730300      43.36579000      25.75274100
O       33.52073600      40.08503700      14.10737300
H       32.65335300      40.45185200      14.29397200
H       33.48742100      39.19688800      14.47168600
O       20.82739600       0.57786000      17.33856700
H       21.43096800       0.00624600      16.85827100
H       19.96481400       0.17513500      17.21048400
O       44.99904000       1.38617600      19.14800900
H       44.36231300       1.65975800      18.48358700
H       44.47553900       0.91199400      19.79896300
O       40.57307200      16.42685300      11.46203300
H       40.87337000      17.32298700      11.63082700
H       41.17091000      16.09846300      10.78572600
O       31.86674300      40.33545100      19.64219700
H       31.84529700      39.49000200      19.18779500
H       32.52230600      40.21760000      20.33428700
O        9.36241600       8.38636900       1.73541800
H        8.71694600       8.45716400       1.02825300
H       10.14067400       8.83366300       1.39353500
O       17.38168800       9.65144600      18.68232300
H       18.25761300       9.94017000      18.41564100
H       17.48062600       8.71025100      18.84665900
O        7.97319000      16.00915000      18.75124500
H        8.90732700      16.20545600      18.64839700
H        7.72829200      16.43962200      19.57426400
O        9.93643100      36.21964300       1.74752600
H       10.18383900      36.02034500       0.84154900
H        9.35838300      36.98328400       1.67434800
O        5.84806000      38.99359500      18.88055800
H        6.21502300      38.17071300      18.54900500
H        5.04416600      38.73000100      19.33543600
O       15.49679100      30.06828200      43.74100800
H       15.13935700      29.17866400      43.79145300
H       14.73213000      30.62295700      43.56701900
O       38.17761100      12.00275500      12.51125600
H       38.97442900      11.58703100      12.17364700
H       37.69107500      12.26012200      11.72405400
O        8.80842500      36.65644300       5.57647200
H        9.52230600      37.04171800       6.08995400
H        9.21690700      36.42063300       4.73970600
O       13.56142200       9.54370000      31.62962000
H       13.87986800       8.67335700      31.88026100
H       13.27625200       9.43992200      30.71827500
O       37.08286000       7.23398400      23.55631100
H       37.36913800       7.89377400      22.92035100
H       36.53086400       6.63540200      23.04676000
O       20.73296500       2.45417900       6.63895400
H       19.95114900       3.00507900       6.72261100
H       20.67642700       1.84586700       7.38017100
O       18.72151100      27.97313800      39.39000100
H       18.12006100      28.39876800      40.00548700
H       19.24110800      28.69476700      39.02680200
O        0.17638300      20.59717900       0.31692200
H        0.25334400      19.67432800       0.06364700
H        0.81697700      20.70443200       1.02457800
O       17.34293800      24.12172500      32.48781800
H       16.61842000      23.74011000      32.98898400
H       18.10619300      24.02849700      33.06348600
O       14.40714700      34.73683000      21.15807000
H       14.72640400      35.41985200      20.56369500
H       13.94204500      35.21844300      21.84681600
O        8.79429900      36.45596600       9.61409400
H        9.60251200      36.91894600       9.38136100
H        8.40515700      36.99094200      10.31052200
O       34.92426400      35.36782900       6.21710300
H       34.86664100      34.41410500       6.31099300
H       35.86736100      35.54856600       6.19376200
O        3.18652800      41.82871900      19.51078300
H        3.41649100      42.72137200      19.77913600
H        3.78647200      41.63563900      18.78591800
O       36.32596700      20.08716300      33.88786500
H       35.79853300      19.31242700      33.67972700
H       35.69089500      20.80722700      33.91673600
O       11.37664000      12.10242900      35.45860600
H       10.96073400      12.74608900      36.03692100
H       11.50413500      11.32961400      36.01461300
O        7.79517000      22.62384300      34.86660300
H        7.34943900      21.81412800      35.12623900
H        7.12974300      23.11679900      34.37993800
O       40.10321800      13.60067500      20.45447800
H       39.21814200      13.35028700      20.72956200
H       39.96670300      14.33817400      19.85439300
O       39.73132900      32.30639200       8.42322700
H       40.63080600      32.40696500       8.74346300
H       39.20934400      32.87345900       8.99647100
O       39.14399100      34.73971200      41.95401200
H       38.79394100      35.63300300      41.98897800
H       40.07745900      34.85683900      41.76020900
O       34.23439200      20.90028000      30.77831500
H       34.27998400      20.33285800      31.55141100
H       33.43423000      21.41568500      30.90769600
O       20.12917500      15.68457200      36.67088000
H       19.56666800      15.67343500      37.44881700
H       19.54105700      15.93810800      35.95500300
O        3.10442500       8.38684000       4.25105200
H        3.56761600       9.20157200       4.04275100
H        2.56976800       8.60601500       5.01835000
O       35.44388200      39.38576100      32.37002700
H       35.00355000      40.13280100      31.95800200
H       35.84800700      39.75331100      33.16011000
O       12.86683400      18.99635600      37.93585700
H       13.40410300      19.73553200      38.23028300
H       12.07792700      19.04260600      38.48186800
O       14.49321800      18.25077600       3.13510200
H       15.25500800      17.67127600       3.06039800
H       14.73884400      18.88072800       3.81735600
O        9.12917300       3.22953100      25.13338800
H        8.43423300       3.80962000      24.81357500
H        8.82314800       2.94516600      25.99833100
O       10.26341000       8.27208000      19.83523500
H       10.70032700       7.61407700      19.28946900
H       10.55815900       8.07520600      20.72798700
O       18.12312800      18.10057800      13.58165100
H       18.29244500      18.67093900      12.82816300
H       17.17855600      18.18284000      13.73546500
O        2.48729000      40.16130900      12.44456900
H        1.81630000      40.64607700      12.93087800
H        2.65439200      40.70022800      11.66721100
O       21.79283300       0.58850600      41.55971000
H       20.91280700       0.27182000      41.34294300
H       22.08935100       0.00572900      42.26333600
O       28.69096900      40.34606500      36.58505500
H       28.71303000      41.29457200      36.43817500
H       28.27250200      40.24747600      37.44401200
O       20.24879600      28.21274800      31.20356300
H       20.78328800      28.71524200      31.82287100
H       20.83565300      28.04787800      30.46122900
O        6.70750700      21.51206000       2.30470800
H        7.52060000      21.08194100       2.57966700
H        6.07454200      20.79439500       2.22131200
O        1.57419100       5.67702600      17.66731400
H        0.69937900       6.02129000      17.47260100
H        1.47777200       5.25092100      18.52275500
O       25.46291400      10.24035800      41.96568600
H       26.29090900      10.65473300      41.71182900
H       25.11627500      10.80609400      42.66025500
O       16.48476400      42.28376700      18.58081500
H       15.72110200      41.70196200      18.57383600
H       16.27877900      42.95544100      17.92578300
O       17.16466000      12.13411800       6.08490800
H       17.18147600      12.82560400       6.75070800
H       18.08640600      11.88790600       5.97352800
O       32.68123100      27.27307100       6.68106600
H       32.13046700      26.74882000       6.09493800
H       32.91495500      26.67009900       7.39130500
O       11.32044100      34.52582100      17.97556700
H       11.68984200      33.64766000      17.85681600
H       10.44137300      34.46848200      17.59269200
O       41.30885700      11.32528400      10.73410200
H       42.21816000      11.29308400      11.04046100
H       41.04247800      10.40396200      10.68071300
O       38.62664500      16.27281100       8.15764400
H       39.01423400      16.54358500       7.32207100
H       38.52104800      15.32172600       8.07441000
O       38.23006400      10.16458400      21.22281700
H       37.87129200      10.61701500      20.45580100
H       37.85247900       9.28252700      21.17758500
O       33.70143000       3.40461500      41.21633300
H       32.99789900       3.99766600      40.94236200
H       33.29165300       2.83590300      41.87306000
O        5.47869300      25.91793500      23.26324200
H        5.96715700      26.34966600      22.55844700
H        5.10524400      26.64167000      23.77254200
O       20.87682900      38.56445200      30.47250300
H       21.52934100      38.79028700      29.80545600
H       21.36879600      38.06193300      31.12678500
O       26.80658000       0.92082900      36.39179600
H       27.03675200       1.85279100      36.40567200
H       27.12726800       0.58349700      37.23203900
O       25.17839700      13.15908000      33.94894000
H       24.47017000      13.22086400      33.30371000
H       24.88113000      13.70375200      34.68215700
O       34.67639300       4.63990100      11.04183100
H       34.65245100       5.02753600      11.91983500
H       34.86875000       5.37945600      10.45985100
O       31.21858800      20.96023100      30.13069900
H       30.94542700      21.49421400      29.38105200
H       31.86885600      20.35388200      29.76719500
O       13.16863700      22.49506400      41.95472300
H       12.79145100      23.29742400      41.58638400
H       14.10193300      22.69661100      42.05950600
O       18.08535200      33.56604800      22.08571900
H       18.25588300      32.62239700      22.03915800
H       18.72298900      33.95369800      21.48091500
O       26.25732100      37.54989100      14.07515600
H       25.39556200      37.65155100      13.66434900
H       26.12845800      36.86124800      14.73227600
O       17.39882100      28.39258100      30.98374900
H       17.43233000      28.39269000      31.94322900
H       18.13644400      27.83696200      30.71947400
O       13.22773800      32.37558300      14.19445800
H       12.34199200      32.15254800      14.49014900
H       13.09908600      33.11001000      13.58889500
O       37.16510000      19.56957800      16.07626900
H       38.01679300      19.77762100      15.68503800
H       37.38161500      19.19841300      16.93533800
O        9.65722900       1.37953100      19.62661700
H        9.83988500       1.58506100      18.70676900
H       10.41043400       0.85380400      19.90756900
O        0.88110500      28.51834100       3.34267600
H        1.52894200      28.61877500       2.64128700
H        0.04735000      28.76460900       2.93420700
O       16.72099600      33.08065900      12.61262700
H       17.61940600      33.40451700      12.71111500
H       16.59848400      33.00244400      11.66314500
O        7.28319000      32.76942300      20.93651300
H        7.20718200      31.85487900      20.65445700
H        7.67694800      33.21893000      20.18448900
O        5.97697500       3.76725700      34.51948500
H        6.88954200       3.74913000      34.22179600
H        6.03921600       3.85780600      35.47372200
O       44.14028500       6.98558800      15.89916100
H       43.26163900       6.63917900      15.72680500
H       44.69679000       6.56265700      15.24031800
O       40.73034800      30.58303700      35.28198100
H       41.66755600      30.54675400      35.07692200
H       40.69855200      30.66469100      36.23851800
O       42.86180200      35.76671600       2.50121600
H       42.05439300      36.26667000       2.36028300
H       42.56392800      34.93254200       2.87278900
O       33.47212100      13.69898400      35.23922100
H       34.38957800      13.92555700      35.06991900
H       33.00566400      14.53690400      35.18491200
O       30.19265000      14.62042400       6.64051200
H       31.00920400      14.14136800       6.80010400
H       30.06617800      15.14697700       7.43385200
O       36.38618100      42.64358600      18.08323500
H       35.50564600      42.98631800      18.25328700
H       36.86390800      43.38844000      17.70958800
O       16.23172400      25.90302800       0.00500900
H       17.02827900      25.36711600       0.00984000
H       15.51451100      25.26409900       0.00086200
O        8.49418400       4.88293000      20.40292800
H        8.30119600       5.74443900      20.78013200
H        9.13247400       5.06428900      19.70842400
O       35.18142700      35.10032200       3.23433000
H       35.63034300      35.71207700       3.82250900
H       34.50182200      34.69869200       3.78157000
O       23.92058600       6.08930800       8.87100900
H       23.13728800       5.57249600       9.07368100
H       23.63498900       6.69506000       8.18243000
O       44.14684500       1.25840300      24.35036500
H       44.99943300       1.69685500      24.40116300
H       44.14426900       0.84159000      23.48497400
O        4.76329900      21.24412200      28.41193200
H        4.67930600      22.06188900      27.91602200
H        4.06006400      20.68544700      28.07136600
O        1.76406900      37.89512700      24.26718400
H        2.16807200      37.14537700      24.71033400
H        1.85107200      37.69449000      23.33186700
O        3.60526600      24.21109500      16.93247400
H        2.97380700      24.90166700      17.14717100
H        4.45217000      24.66331500      16.90259700
O       28.30962800      41.54923700      19.83969300
H       28.07284800      41.15570800      20.68278000
H       29.16251600      41.16198300      19.62695300
O       35.76247000       7.92206000      30.86349600
H       35.92646300       8.64813600      31.46983300
H       36.55708300       7.38480700      30.91440200
O        9.96824300      17.92825300      30.36701200
H        9.27584200      17.31207500      30.11675100
H        9.86178400      18.66562500      29.76071900
O       36.73556100       7.11108200      33.21990400
H       36.49871900       8.00064500      33.49249900
H       37.62787200       7.19705300      32.87489300
O        8.84401000      42.75482400       9.27223600
H        8.32712600      42.29057400       9.93482800
H        9.35248300      43.39729200       9.77356800
O       43.73211700       8.63806100       2.32065800
H       43.13274600       8.99023600       2.98281600
H       43.15418900       8.26454800       1.65048700
O       34.89740700       6.61616800      29.31714600
H       34.07074300       6.41832300      29.76347500
H       34.74240200       6.36114500      28.40414100
O       34.04734400      25.44773700       5.83182000
H       33.29751200      24.84874700       5.80560600
H       33.93523700      26.00414500       5.05691100
O       39.72666000      24.26412300       3.78838900
H       39.44357200      24.30655900       4.70478700
H       38.97065700      24.58492000       3.29020200
O       14.41790000      22.55280900      39.89396400
H       14.23475500      23.45802300      39.63172500
H       13.95309500      22.01801200      39.24543400
O        7.52061200      39.38849900      21.42126700
H        6.86879700      38.87014600      20.94359200
H        8.36160100      38.98686300      21.18874100
O       38.15081300      39.34194200      10.89112400
H       37.28145400      38.95522600      10.76310100
H       38.55619300      38.79755300      11.57079300
O       21.91291700      14.50413700      33.93428000
H       22.77673200      14.24384600      34.26260500
H       22.10437200      15.10424900      33.20912300
O       30.47388600      33.73234400       9.27281300
H       29.69943000      34.24393500       9.02742100
H       30.43150000      33.68034700      10.23101000
O       44.50478700      17.81050200      26.52096100
H       44.99963500      18.35133400      27.14092100
H       44.00354100      17.20858100      27.07691500
O        6.92015500       1.10405400      27.94074400
H        7.56957100       0.41048100      27.80312200
H        7.26612200       1.61149000      28.67929500
O       37.41954800      40.31473900      29.11813400
H       38.26000400      40.73351200      29.31810300
H       37.49292600      40.06196800      28.19435700
O       42.55968600      12.79882600      34.38231500
H       42.20668800      13.10459600      35.22113700
H       41.94207400      12.12090000      34.09663400
O        9.48902300      31.83108500      28.51648900
H       10.23715300      31.82140600      29.11809900
H        9.02653800      31.00898900      28.69789200
O        4.44912200       6.93370100      29.78132100
H        4.86581700       6.10420900      29.53630500
H        4.99879600       7.27627000      30.49065000
O       27.96022500      24.68179400      32.08833400
H       28.52575400      25.40865500      32.35958200
H       28.29247600      24.43145100      31.22255100
O        2.07770600      26.98169400      24.58080400
H        1.36210400      27.56486400      24.84453000
H        2.11547100      26.32076600      25.27678500
O       28.60533700       6.01664700      32.52068900
H       27.77934300       5.68464100      32.88017500
H       29.07163700       6.37058200      33.28222400
O       43.25936000       9.22782600       5.42019400
H       42.83497000       8.37150800       5.32887900
H       44.19741400       9.03925400       5.33570600
O       11.25574500      13.33939600      10.81144300
H       10.31158500      13.16580500      10.82383200
H       11.45312700      13.51864600       9.88864800
O       33.12036200      32.48214900       8.87840400
H       33.82942600      31.87290700       8.65982100
H       33.49752800      33.05581800       9.55018700
O       17.06779200      28.12339700       3.56731800
H       16.17508400      27.91480000       3.85242300
H       16.94946200      28.77037400       2.86727400
O       39.77113200      37.57915200      40.85925300
H       40.37984400      36.98804900      41.30846600
H       39.46042000      37.07282200      40.10444900
O       33.05181100      15.47039300      33.12959200
H       32.53091700      14.70645200      32.87115800
H       32.77186500      16.16456600      32.52759800
O       15.65299800      16.90080900      30.62466300
H       15.55416900      17.33317400      31.47614300
H       14.97966800      16.21577700      30.62552100
O       38.67825500      41.64081400       2.72865000
H       37.98735000      42.24745800       2.45231900
H       38.50871200      40.84084300       2.22472100
O       34.09975600      12.37375100      28.41709800
H       34.95434600      12.45766300      28.84646900
H       33.46489600      12.43742800      29.13510800
O       26.72669200       3.23819400      22.37460400
H       27.15886600       3.61641300      23.14395500
H       26.86710600       3.88621200      21.67962300
O       29.02916800      44.04840700      15.55665000
H       29.48218200      43.62216300      16.28796300
H       29.03376000      44.98148900      15.78463800
O       11.20072400      35.95074600      14.92390000
H       11.42348400      36.88454900      14.93465000
H       10.49485800      35.86655900      15.56989400
O       29.31990900      14.91444000      13.02650800
H       29.53360500      15.29029500      13.88370800
H       30.13955400      14.50856700      12.73309500
O       24.43007600       9.07511600      16.48989500
H       23.79452400       9.07746200      15.77031600
H       24.01481600       8.54265900      17.17304200
O        7.23209700      33.32008900      30.01019900
H        7.20686800      34.26924500      29.86810200
H        7.77963100      32.98640100      29.29500600
O        8.15545200       2.18696800      17.42635700
H        7.77600600       2.86098300      17.99508400
H        7.45738100       1.53394100      17.33204200
O       11.61868500      43.55678000      14.13518400
H       11.14684300      42.78350700      14.45320600
H       11.04234700      43.92771100      13.46221600
O       11.01736700      13.10611900       7.66593100
H       10.17373700      13.47930500       7.93191000
H       11.32504500      13.68728800       6.96577500
O       21.05904900       6.73716600       7.53353000
H       21.03305300       5.99471100       8.14164900
H       20.98249900       7.51053700       8.09804800
O        3.18336200       0.82779000      33.16643900
H        2.86222400       0.90826900      34.06761400
H        2.40137200       0.60913500      32.65328800
O       10.20363900       4.76807500      38.49381800
H       10.88287300       5.30487900      38.90879400
H       10.57294700       4.53590600      37.63804200
O        6.57302600       9.53981100      11.60256200
H        7.44267600       9.32237600      11.25882400
H        6.37037600      10.39495400      11.21487200
O       21.21779500       9.12245300       6.21471800
H       20.91324600       9.51858000       7.03450900
H       21.73285900       9.81455400       5.79240700
O       27.25605600      35.39869000       4.52876800
H       26.88142600      34.92436700       3.78284900
H       27.07648000      36.32284800       4.33817600
O       22.40331100      15.48764800      38.74455900
H       21.95660600      15.09895900      37.98884700
H       22.83225500      16.27100500      38.39100500
O       38.70139400      41.41114300      10.38420800
H       38.91957100      41.18466500       9.47710800
H       39.46347900      41.90549800      10.69643000
O       19.48310300      41.25457400      11.72674300
H       19.57453600      40.97552600      10.81268800
H       20.27874300      41.76359900      11.90136500
O        9.24484100      15.85322500      15.55449400
H        9.53979400      16.63253000      15.07761700
H        9.24733800      16.12271600      16.47645300
O       13.42381000      43.32918800       2.16789500
H       13.61902200      42.53239400       2.66663000
H       14.09276500      43.95763000       2.45109500
O       26.13510400      20.33447600       0.71033100
H       26.49399700      19.59686200       1.20917700
H       25.55895800      19.92473200       0.06009500
O       14.91708600       6.97691300       6.51850900
H       15.51455500       7.18549800       7.24048500
H       14.04217300       7.14844400       6.87592600
O       13.56937400      30.79500300      32.07447900
H       13.73155400      30.23299500      32.83577400
H       12.82621300      30.38217300      31.62734900
O       21.81639800      27.86198800       1.36286700
H       21.51459400      28.25024900       0.53831100
H       21.70819100      26.91619900       1.23474100
O       26.18273500      28.95303200      43.53396300
H       26.89799900      28.46767300      43.95175500
H       26.35448200      28.86759000      42.59277000
O        0.77522500      40.04948600      30.25712000
H        0.00070300      39.52066000      30.46250600
H        0.50709100      40.58277900      29.50456100
O       24.41456100      32.27774100      42.71963600
H       25.11032500      31.64242800      42.53520600
H       24.76518900      32.81437500      43.43498600
O        4.15126000      19.43642100      33.12022600
H        3.59967600      19.19149600      33.86687900
H        3.84752500      20.31472000      32.87737200
O       30.41246400      32.15020300       2.00423600
H       30.77347100      32.89525400       2.49034000
H       31.07589400      31.95678300       1.33708500
O       35.27987300      25.94092500      30.77013400
H       35.87808500      25.30158900      30.37628600
H       34.45610700      25.45961300      30.88145100
O       12.79601800       0.24067600      41.03815700
H       11.86238400       0.13339800      41.23448300
H       12.90046500       1.18296100      40.88378300
O       41.92895000      27.20783400       9.08724300
H       41.88328600      27.58234400       8.20441700
H       42.68064800      27.64643600       9.49371500
O       25.71495500      26.95735600      40.94128400
H       26.66563500      26.83788700      40.88078800
H       25.53307600      26.94852300      41.88440900
O       11.26333100      37.79408700      12.67877800
H       12.16829000      37.60184600      12.42222900
H       11.34773600      38.43953500      13.38511700
O       31.33217000       6.08102800      33.90778600
H       31.00244500       6.94585600      34.16288900
H       31.94836300       6.26196800      33.19349700
O       38.68294100       6.82110500      30.83005300
H       38.31123800       6.03300800      30.42698400
H       39.36317100       6.48846900      31.42105500
O       29.54586600      33.66885400      44.30410200
H       28.59237700      33.69173300      44.19427600
H       29.69053800      33.01970400      44.99715000
O       42.96784300      24.04718400       1.98866800
H       42.97634000      24.62348500       2.75647700
H       43.72028000      24.33547800       1.46582200
O       42.45429500      38.43804000      31.74837900
H       43.22409000      39.01035400      31.78835300
H       42.75326900      37.67043400      31.25437700
O       37.45896700      13.15510200      39.84303200
H       38.35247900      13.33262100      39.53996800
H       37.41362900      13.57042800      40.70795400
O       28.15337000      19.83384700      14.33378400
H       27.57612100      19.49551500      15.02228900
H       28.01091600      19.24179100      13.59093900
O       14.90964600      43.34848300      39.46085800
H       15.70458100      43.43535600      38.92958100
H       15.03067200      43.97842500      40.17581800
O       12.35104700      18.41967700      42.40270600
H       13.15469400      18.11196800      42.82837300
H       11.94101300      18.99408000      43.05430100
O       33.90730000      37.42107800      18.81826600
H       33.71524600      38.34429600      18.99857000
H       34.38160200      37.43490400      17.98310800
O       39.18248500      10.61621000      42.71023900
H       39.50029200       9.71115000      42.75011400
H       39.86616500      11.12854400      43.14925800
O       38.44701500       2.14372700      31.90847200
H       39.37631000       2.18375100      32.14624100
H       38.35097900       1.29792400      31.46345800
O        9.62889900       1.36166300      31.34196000
H        9.01579200       0.71015800      30.99358400
H       10.05624800       0.91706200      32.07840100
O        2.24300800      25.30873200      29.34802400
H        1.57422800      25.95314700      29.59131000
H        3.07658600      25.76057800      29.50172800
O       13.75530200      23.29498300      34.57197800
H       13.46697000      22.84841200      33.77250000
H       14.35151200      23.98058000      34.26031900
O       11.39353200      20.34505700       3.45336400
H       11.98504500      19.59348100       3.53686000
H       11.52996700      20.84673700       4.26104200
O       15.14829600      28.23946400       6.05083300
H       14.90244900      27.41973100       5.61572000
H       14.73850400      28.92491600       5.51710400
O       17.71624900      18.12126500      36.94613400
H       18.35389600      17.78737500      36.31080000
H       17.35025200      18.90448200      36.52749400
O       13.11267500      20.56454500      34.30205200
H       12.16864100      20.49625300      34.14124400
H       13.51418100      20.36838000      33.45178400
O       29.66710600       3.78914300      33.16734500
H       30.18890200       4.52988600      32.84992700
H       29.07506300       4.17575200      33.81746900
O       10.99156400      19.72737200      31.59180200
H       10.55077500      20.54224000      31.33996700
H       10.53654600      19.44697900      32.38991200
O       11.73597500      13.87895900       1.86422000
H       12.14233900      13.55538000       1.05682300
H       12.02660100      14.79225700       1.92798600
O       22.63235200       5.62994400      25.61420200
H       22.24187800       4.90599300      26.10932900
H       22.25510200       6.41994100      26.00946000
O        8.64746200       8.26435700      36.36998000
H        8.99635700       7.68717500      35.68671000
H        7.85307100       7.81910300      36.67548400
O       29.41462000      13.89030600       2.83692600
H       30.30808800      14.21719200       2.96571500
H       29.52166500      13.11904200       2.27449000
O       29.87093300      40.57589600      27.23104600
H       30.08249700      39.93317000      27.91212600
H       29.97435100      41.42635900      27.66539500
O       33.49340800      26.33162700      33.29309800
H       33.56445500      26.98211300      33.99562600
H       34.38171900      26.27210700      32.93253800
O       23.82906500      23.28464700      34.71461600
H       23.20547100      22.76437500      34.20258900
H       23.57778000      23.12674500      35.62816200
O       35.77588300      24.20501000      28.23716600
H       34.83062600      24.05049800      28.17127800
H       35.95258700      24.88485900      27.58201500
O       24.58733600      26.67669500      37.33765900
H       24.63895300      25.71803900      37.34385300
H       23.90028000      26.88261100      37.97656100
O       35.10085300      42.65436000      42.25496900
H       35.54527300      43.49354800      42.39632000
H       35.75785500      42.10742500      41.81695800
O       33.66414200      17.89990800      37.10475200
H       33.17494000      17.18924600      37.52589900
H       34.58326200      17.71103600      37.31014800
O       23.00717300      41.34664600      19.22082200
H       23.61579600      42.03385300      18.93966400
H       23.53398200      40.77978000      19.78983600
O       33.12181300      42.66456400      31.88484500
H       32.71510600      43.48200800      32.18166100
H       33.85171200      42.94943900      31.32920500
O       21.37971200       9.50970900      14.70085300
H       21.71266000      10.25912200      15.20010300
H       22.10382200       9.27204100      14.11619900
O       12.36806700      10.70536700      16.09005200
H       11.61093800      10.48282500      16.63682000
H       11.99442100      10.86822500      15.22027700
O       33.54513300      42.96763700      26.34171400
H       32.82773400      42.43457000      25.99113800
H       33.76883700      42.54735100      27.17595500
O        4.29776100      13.98015800      20.06030600
H        4.61656200      14.83836800      19.77122900
H        3.35355300      14.00537300      19.88572900
O       16.86404000      23.89821400      29.51890600
H       15.94921900      23.63122400      29.63528100
H       17.23415800      23.23238100      28.93382400
O        7.87019300      12.06666200       9.13199200
H        8.70012500      12.52600800       9.28010800
H        7.61884300      11.74240400      10.00050900
O        2.73185900      32.39863400      40.00875200
H        3.19413600      31.62156100      40.33152600
H        2.02674700      32.53838800      40.64587700
O       30.99301800      30.68302300      23.09601200
H       31.79878900      30.89578500      23.57265800
H       31.15514900      29.80913700      22.73176100
O       25.79372300      38.80576600      33.90115400
H       24.97154800      38.34994000      34.09602900
H       26.42795200      38.42627200      34.51465100
O       13.82282500       1.40610800      38.38443000
H       12.91443700       1.35304500      38.69059900
H       13.92098400       2.31358700      38.08528400
O       16.51700800       9.98991900      41.99242100
H       15.94428100       9.74290900      42.72228000
H       16.40816900      10.94115500      41.91531100
O       23.76682300      37.82534800       0.78726700
H       24.58054600      37.35553200       0.98437800
H       23.37983400      37.33591700       0.05696600
O       41.16226800      38.57539800       7.82408000
H       40.62137800      39.24598900       7.40044000
H       40.86195700      37.74837800       7.43873300
O       36.20141900       4.89628200      33.22159400
H       36.98991100       4.41825000      33.48897000
H       35.47696800       4.39231200      33.60084000
O       26.87492300      10.38464900       6.94442000
H       26.47591500       9.51614200       6.85379700
H       26.35639500      10.81501200       7.62893400
O       36.85312000      34.80631700      29.76713800
H       37.81077900      34.76030400      29.71718400
H       36.67918100      35.59257400      30.29076600
O       34.91527900      25.77090800      18.81585300
H       35.64783000      26.22713200      18.39519400
H       34.76041200      26.26422700      19.62535600
O       43.58346500       2.39851000      37.99362000
H       44.00944900       2.77959900      38.76500400
H       44.14025400       2.66506900      37.25770200
O       18.29518600       4.56755400      22.96235500
H       18.12949400       5.41917000      23.37347900
H       18.72210600       4.78387200      22.12953600
O       41.84002700      26.52398400      23.13753700
H       42.44905200      27.02950300      22.59415500
H       42.02958200      26.80788400      24.03537500
O        6.17442900      27.54229000      18.59264800
H        6.17642500      26.59763300      18.42134900
H        6.75802100      27.64885400      19.34809900
O        2.95689000      16.47692400      19.88566600
H        3.32008400      16.38143900      20.76923700
H        3.39071500      17.25783700      19.53265900
O       13.09003700      44.32870300      21.02667700
H       13.70052500      44.99983200      21.34070800
H       13.64060300      43.72068400      20.52684500
O        3.96541700      10.06646100      29.41926800
H        4.41221600       9.26945700      29.12451300
H        4.64012800      10.55506300      29.89746700
O       37.02757500      37.21275200      27.55183400
H       37.53302400      37.54065800      26.80435500
H       36.13632100      37.53582400      27.39713000
O       30.61759300      12.47964900      16.91788800
H       30.65688800      11.53281600      16.76397500
H       31.31205400      12.64579700      17.56035300
O        8.66730500      37.61697000      16.29335900
H        8.53658800      36.87647300      15.69644800
H        9.36616500      37.32609400      16.88465100
O        3.37876000      36.18504700       5.02084400
H        2.94939000      37.03672000       5.13047600
H        3.42929100      36.06423900       4.06926900
O       28.64228100      15.74592000      44.05005900
H       28.15158700      16.16900400      43.34157800
H       29.06273100      16.47299200      44.51613900
O       32.34470800      10.23907000      29.45386600
H       33.25025400       9.97710100      29.63575200
H       32.26130200      10.16231900      28.50003500
O       37.63133300      16.48272700      13.85716100
H       37.48975000      17.38946500      14.13913000
H       38.03169500      16.56315200      12.98774500
O       44.22573000      30.06802900      14.59800500
H       43.93979700      29.22976100      14.22750000
H       44.86287800      30.40451700      13.96282000
O       36.93571400      34.84787600      32.38657700
H       37.61904800      34.40383000      31.87903200
H       37.41895000      35.42502700      32.98325300
O       31.13612500      15.44813600      19.09742100
H       30.80545000      14.54683900      19.09079800
H       30.42105300      15.96723200      18.72078600
O       24.14914500      13.72592500      17.88527700
H       24.46301100      14.36476300      17.24099500
H       24.95042800      13.36400200      18.27205600
O       13.05724100       3.85044800      39.40361400
H       12.77190300       4.64031100      39.86882700
H       12.24180900       3.38382700      39.20367100
O       18.64688300      22.77768700       0.78004100
H       17.95781800      22.14495100       0.99581600
H       18.17623300      23.60216700       0.63387800
O       12.45072100      29.16347300      29.69550100
H       13.18667000      29.62066800      29.28188700
H       12.01277700      28.71135400      28.96994200
O       29.98973000      35.11031600      39.41213600
H       30.87143600      34.76834400      39.57758800
H       29.61505700      35.23716600      40.28744800
O       34.96812900      27.94181900      24.91474400
H       34.01244000      27.97963500      24.99812700
H       35.12535600      27.22271200      24.29764800
O       40.58185000      42.97807800      34.61530600
H       40.79649500      43.90960900      34.70420100
H       39.71727700      42.97149300      34.19684200
O       26.81466500      36.95196300      40.85308300
H       26.73729900      37.89594600      40.69612200
H       27.04461100      36.88296200      41.78314000
O       10.45143300      15.42121700      24.89412500
H        9.66171500      15.14023200      24.42602500
H       10.54270400      14.78709400      25.60980600
O       14.50012100      40.65560800      29.33901900
H       13.55711400      40.51973700      29.22068700
H       14.73368700      40.08073100      30.07223500
O        1.80342900      37.26028700      34.48696900
H        2.42325900      36.64501100      34.08825600
H        0.95533300      37.02873300      34.09998300
O        5.56721100      29.92814900      -0.00048300
H        4.72288500      30.38388400       0.03333900
H        6.18416600      30.53830200       0.41148900
O       26.06143800      19.71813400       3.82218600
H       25.92928800      18.96722000       3.23875600
H       26.60665500      20.32291100       3.31265200
O       28.69076900      36.95249000      16.46281600
H       28.27296200      36.27951600      17.00528100
H       28.06493300      37.10720400      15.75075200
O       37.53318200      28.31813300      12.58900100
H       38.17470200      28.13209200      13.27861400
H       36.76446500      27.79558500      12.83119900
O       23.06944700      25.54589600      33.69802500
H       23.89859600      25.52691700      34.18163300
H       22.46232200      25.04196400      34.24583200
O       30.14842200       5.12950000       8.41003200
H       29.85147400       4.24550100       8.63826900
H       31.05989500       5.01032200       8.13136600
O        9.67535500      26.27616500      23.09595300
H        9.25777400      25.47642400      23.42423000
H       10.14822200      26.62700600      23.85486700
O       39.24119500      25.32482400      17.35967600
H       38.36189200      25.68408300      17.49926300
H       39.08886300      24.40580800      17.12548400
O        8.74392700       1.82549300      13.73344800
H        8.77446200       2.78487800      13.71412500
H        8.00391700       1.62208000      14.31107300
O       30.65553500      19.05524900       0.38750300
H       30.18969200      18.23262200       0.22017100
H       31.52741400      18.91678100       0.00896100
O       14.80268800       7.00710200      12.92247500
H       15.19719900       6.68654000      13.73692300
H       15.47550900       7.57549700      12.53922300
O        0.93964400      36.58250800      20.08362300
H        1.69786800      36.12404400      19.71398500
H        1.30524500      37.11063600      20.79780600
O       15.12257400      34.82594300      38.72659700
H       14.58651000      35.61938700      38.65726600
H       15.43725000      34.82934300      39.63412600
O        8.58567300      23.97583500       8.14876100
H        8.41941800      23.15412500       7.68091800
H        7.74494100      24.43963100       8.12221000
O        5.36310000      31.32865700      38.03906600
H        5.79298600      30.55782500      38.41687900
H        6.06253400      31.78143000      37.56112200
O       15.76142800      41.96153600       8.46309500
H       16.68170900      42.11727700       8.68793400
H       15.79722000      41.35931400       7.71564000
O        2.61147100      31.55383100      13.15211000
H        1.70771200      31.35946600      12.89294200
H        2.79370700      30.93511500      13.86388400
O       31.45235100      10.54924800      24.45319700
H       32.01650400      10.86784400      23.74471000
H       31.20481100      11.34206500      24.93569900
O       35.62765500       1.16104500       3.44687300
H       36.47973900       0.73000000       3.54625800
H       35.24346600       0.75280100       2.66688700
O        0.00046000      26.95691000      22.06757300
H        0.15415000      27.68615600      21.46234200
H        0.44616000      27.22051500      22.87658800
O       40.36621300       2.31229200      22.45793100
H       40.55507500       2.27709200      21.51728300
H       39.40828000       2.36322700      22.50704500
O        1.76677700       8.79534200      29.49803600
H        1.60685200       7.92654700      29.87399300
H        1.38562100       9.40472000      30.13523400
O       33.54124700      10.00216600      25.73849900
H       33.82305100      10.49714600      24.96564300
H       33.06582300      10.64380500      26.27227300
O       26.10971700      30.92384500      29.75865200
H       26.79825400      31.13712100      29.12449400
H       26.58617100      30.70726800      30.56408900
O       39.30524300      25.90937700      11.91565400
H       38.71301500      26.11460000      12.64289100
H       39.00764400      26.47528700      11.19884000
O       33.56714200      36.63080200      44.60498300
H       32.63800500      36.75798300      44.81054000
H       33.77041300      37.32945400      43.97792000
O        6.48695900      20.77524700      25.87980200
H        5.58345500      21.00192100      26.11223700
H        6.73903100      21.43631700      25.23012000
O       24.70293100      43.65327600      42.32877000
H       23.97026800      43.97145500      42.86139700
H       24.97978500      44.42052200      41.82149500
O       21.72154300      41.36313700      13.75308200
H       21.35155900      42.24626600      13.82322400
H       22.22863800      41.25219000      14.56128200
O       44.94095600      43.13314800      37.39537500
H       44.00198100      43.33324400      37.39879500
H       44.99625500      42.25523900      37.00955300
O       17.16105300      30.09459400      38.25924900
H       17.86725700      30.57979600      37.82614300
H       17.28950600      30.27086600      39.19470100
O       31.28538600      19.86791900       9.51948900
H       30.64037800      20.13666400       8.86110800
H       31.03246500      18.97000100       9.74843600
O       40.52520400      14.32156200       8.52939900
H       40.87068800      15.21688300       8.50170300
H       41.29666500      13.76418700       8.39969500
O        2.20088600      27.50843300      42.98881600
H        3.00498200      27.97046600      43.23717100
H        2.49687100      26.82229300      42.38528700
O        1.36269400      36.75101600      13.63447300
H        1.03763600      36.17127800      12.94167700
H        1.94460400      37.36436700      13.17859800
O       12.63185400       1.06446000      35.90700600
H       13.52932200       1.26715900      35.63280100
H       12.43295400       1.72285800      36.57752300
O       38.38009200       3.90970900      21.22091700
H       37.77238400       4.32973400      21.83410100
H       39.23982400       4.26973800      21.45304100
O        1.99236200      28.31045500       5.23332800
H        2.86338600      28.66154900       5.03389200
H        1.62241500      28.93410200       5.86328500
O       41.64988900       5.65147400      28.57261900
H       41.44088700       6.50682300      28.95527000
H       42.60313100       5.57605900      28.66363300
O       37.74695000      25.55606500      15.09158400
H       37.35917900      25.35476300      14.23669500
H       38.54461200      26.04830000      14.88162700
O       37.16507100       3.83643800      36.00880100
H       38.09148200       3.66744800      35.82190400
H       37.12096800       3.88965700      36.96685400
O       12.73589800      25.76928600      32.10048400
H       12.52444400      25.23870600      31.32879900
H       12.93436600      25.12562900      32.78528900
O       38.24103200      30.59210900       7.74692600
H       37.81097600      31.39250900       7.43686600
H       38.23649900      30.67440400       8.70392600
O        3.17413800      23.47185000      31.04807400
H        2.62394500      24.23377000      31.24426300
H        3.80578400      23.79434100      30.40025900
O       31.79348900      13.41536500       0.62729000
H       32.42954800      13.78947900       0.01313100
H       31.79505100      14.02260900       1.37153000
O        8.31363100      12.67838100      35.46418100
H        8.95950500      11.97341900      35.55136500
H        8.81649100      13.48257700      35.61598000
O       25.19979800      21.36130100      18.94506900
H       24.98823200      20.97018600      19.79594700
H       25.41233800      20.61113700      18.38406800
O       41.78146000      29.04863300      20.35779900
H       42.23477400      28.61613000      21.08524200
H       41.74278600      28.37973200      19.66952700
O       12.09782200      10.27264400      25.29916800
H       12.25278800      10.80552300      24.51574500
H       12.05550900      10.91001900      26.01652700
O       27.06428800       4.36563900      10.26770300
H       26.75942300       5.27248300      10.34780400
H       26.79543900       3.95011800      11.09093100
O       16.35550000      34.46184200       6.08868000
H       15.68186600      34.47223900       5.40469600
H       16.69478900      35.36035400       6.10285200
O        7.70837900      27.16882600      11.17192000
H        7.62055700      27.80279500      10.45631200
H        8.20885400      27.63688400      11.84504000
O       22.56656900       2.28788600      35.19874900
H       21.68665100       2.56410400      34.93196700
H       22.41513900       1.68017000      35.92703000
O       41.49000200      21.79457000       8.11390000
H       40.86685800      21.29441000       7.58168300
H       42.22347000      21.97109300       7.51933700
O        5.37442800      37.02710800      21.30132800
H        5.60522400      36.16154800      20.95598200
H        5.94643200      37.13949600      22.06475700
O        4.31539800      32.32358900      42.20339300
H        3.81826600      33.10044100      41.93677300
H        3.77121500      31.91291900      42.88004500
O        2.26390800      30.73875800       4.02899000
H        3.12962900      30.42836500       3.75347500
H        2.43575000      31.58860200       4.44236300
O       43.47501500      34.27219800      40.70857600
H       42.76585400      33.88304700      41.22566100
H       43.55941500      33.69381300      39.94635000
O        7.97204500      10.03467100      31.87209300
H        7.03539900      10.21286900      31.75955600
H        8.03703400       9.64446600      32.74739700
