188

N      20.410659316446992     25.962878567353762     20.566208539304135
C      20.202773056446993     27.320682797353761     21.096490489304134
O      19.650986156446994     24.678015917353761     18.259874619304135
C      22.566216266446993     23.190355067353757     18.481759899304137
C      21.407638216446990     25.237153807353756     21.394995609304136
C      21.386664006446992     28.230670757353757     20.809666089304134
N      21.707226546446996     28.261147507353762     19.374129609304134
C      23.063150666446994     28.796935207353762     19.086483939304134
C      24.185545096446994     28.429991867353763     20.053017709304136
C      19.136988796446992     25.207861747353761     20.515774209304134
N      24.262387316446997     27.030027617353760     20.452123499304136
C      24.388615936446996     26.112281077353757     19.322478899304137
C      24.037444876446997     24.673119357353762     19.688346149304135
N      22.609180216446994     24.299207377353760     19.467487729304136
C      21.897507106446994     23.974483787353762     20.717498339304136
C      20.733851146446995     29.124604747353757     18.655592989304136
C      20.703995676446993     28.845031437353761     17.147563279304137
O      20.815919176446997     27.581100247353760     16.876998429304134
C      19.064445046446995     24.241923737353758     19.328750109304135
C      23.044136526446991     23.734104367353758     17.128068559304133
O      23.791731066446999     23.106662017353763     16.414445589304137
C      25.335432016446994     26.791959097353761     21.432357969304135
C      24.878007096447000     26.225429067353758     22.775352319304133
O      25.300307686446999     25.154033827353757     23.194712409304135
H      17.446391136446994     21.436734517353763     23.748076129304135
H      18.317148466446994     25.916990307353757     20.369852539304134
H      20.019282846446995     27.297656287353760     22.179870119304134
H      21.166097646446993     29.239293777353758     21.188487729304136
H      23.317721716446997     28.493777457353758     18.067295179304136
H      23.021322336446993     29.893147007353761     19.070104239304136
H      25.120146236446999     28.778551627353757     19.583147209304137
H      24.076454956446995     29.026471947353762     20.966382699304134
H      24.650191606446995     24.009909677353761     19.076226199304134
H      24.308870636446997     24.480711197353756     20.730611139304134
H      23.739751906446998     26.444947287353756     18.509253179304135
H      25.404493836446996     26.136637527353756     18.895145799304135
H      21.528247086446996     22.864714407353759     18.374092529304136
H      23.180928076446996     22.341539147353757     18.792341349304134
H      21.056537956446995     23.319352047353760     20.480340589304134
H      22.535391066446991     23.421495607353762     21.414816869304133
Lu     21.291944256446996     25.982429867353758     18.168491049304137
O      18.470284496446993     23.183443857353758     19.430830019304135
H      22.254926406446991     25.902529847353762     21.558371699304136
H      19.297334556446994     27.717919787353757     20.637283209304137
O      20.546016796446992     29.748219827353758     16.357597429304136
H      14.721808866446995     21.810359987353756     18.344228259304135
H      19.890513586446993     20.137968187353756     20.619393279304134
H      22.256472016446992     27.847881087353763     21.336925659304136
O      22.572834526446997     24.928058117353757     16.886086909304133
H      18.688578266446992     16.540296687353759     20.607209219304135
H      20.938433916446996     30.183016307353761     18.844492739304137
H      19.730396706446992     28.905256177353763     19.028892199304135
H      25.878161016446995     27.721410497353759     21.641281579304135
N      23.999013186446994     27.000742467353760     23.462850879304135
C      23.766619986446997     26.955245177353760     24.911228969304133
H      23.839137286446999     27.910831717353759     23.059164479304137
H      27.447897676446999     27.062310007353759     24.418078759304137
H      24.548674166447000     29.712287857353758     26.119700329304134
C      25.079622106446998     27.073819277353756     25.724039819304135
C      25.910891816446998     28.255238037353763     25.322386699304133
H      24.786987946446999     27.143469047353761     26.775013459304134
H      25.649045496446995     26.152153217353757     25.597494159304134
H      28.059085696446999     31.302882457353761     24.241140079304135
C      27.117628166446998     28.070094417353758     24.646909099304136
C      25.483627956446995     29.557526287353760     25.590035229304135
H      28.833896366446993     28.998577497353757     23.753351179304133
C      26.251193326446995     30.648235927353760     25.201146259304135
H      25.908859566446999     31.652254337353760     25.418425899304133
C      27.893134306446996     29.161510027353756     24.266056619304138
C      27.459791656446995     30.452721097353759     24.541273109304136
C      22.989561536446992     25.777136127353756     25.513067089304137
H      23.141678516446994     27.821046057353762     25.128510379304135
O      22.271547736446990     26.002033537353761     26.478364199304135
N      23.237810646446995     24.537355017353761     25.044583019304135
C      22.861170816446993     23.376840437353756     25.839654429304133
C      21.483703176446994     22.798871957353761     25.522242959304137
S      21.272431686446993     22.349844337353758     23.767653229304138
N      24.711895876446995     22.113309477353759     26.763330539304135
C      23.956798396446999     22.337662217353760     25.664177839304134
O      24.138736206447000     21.783151107353760     24.589926579304134
H      13.563820306446996     23.002566367353758     22.180682409304133
H      20.739774736446996     23.558340077353762     25.754070819304133
H      21.298754116446993     21.924900807353758     26.149395839304134
C      25.743780566447001     21.091687737353759     26.800679459304135
C      25.081268886446999     19.808075397353761     27.313833879304134
O      29.600713766446994     26.101440607353759     25.769749939304134
C      26.893246596447000     21.515952037353756     27.719828219304134
O      24.759950286446994     19.687484397353757     28.490923459304135
H      27.546827076446995     26.137361057353758     27.495167419304135
N      24.827053756447000     18.883589567353759     26.376789279304134
H      29.009929776446995     21.662693657353756     26.012142909304135
H      29.177816426446995     26.909901257353759     26.077686699304135
C      27.870857136447000     25.154534437353760     27.170022739304134
C      28.932108226446999     25.028152027353762     26.276973339304135
H      26.403788496447000     24.134823007353759     28.341253329304134
H      26.090614596446997     20.965911427353760     25.774667749304136
C      27.617455986446998     22.742880427353761     27.240084479304134
H      26.480507476446995     21.666449507353761     28.720643719304135
H      27.580915586446999     20.669281377353762     27.793594399304133
C      28.684970746446993     22.642515527353758     26.345627229304135
H      30.176295276446993     23.679065157353762     25.181053779304136
C      27.225812246446999     24.018223687353760     27.642714199304134
C      29.344240766446994     23.763776167353761     25.867849169304137
C      24.122732026446997     17.665141577353758     26.683730139304135
C      24.918680756446996     16.708568187353759     27.632192099304135
H      25.111102176446998     19.012024287353761     25.415943969304134
H      26.927411176446995     18.066405597353761     29.270836759304135
C      23.779540036446996     17.003944337353758     25.351259179304137
H      29.302285746446998     17.720558077353758     28.559953349304134
C      26.403163396446999     16.784825797353758     27.545035479304133
H      23.196801626446991     17.923697157353757     27.205356589304134
O      24.542873296446999     17.047082077353760     24.402973499304135
H      24.622995596446998     16.972444037353760     28.646778679304134
H      24.576012836446999     15.685390817353760     27.451503879304134
C      27.206863116446996     17.467156117353760     28.420442469304135
C      28.611058266446996     16.528467927353759     26.947938149304136
C      27.283505806446996     16.171504847353759     26.592893019304135
N      28.528092696446997     17.322612267353758     28.062521819304134
H      30.723582456446998     16.385416077353760     26.506118099304135
C      29.482292446446998     15.288329777353757     25.125494379304136
H      30.318824256446995     14.940684437353760     24.533332919304137
H      26.080788036446997     15.083087697353761     25.174655199304134
H      28.035397506446998     14.291213157353759     23.888269429304135
C      29.717651416446998     16.098587877353758     26.223580999304133
C      27.081607426447000     15.352797257353760     25.479303109304134
C      28.178862076446997     14.919284577353759     24.758354599304134
N      22.596027126446991     16.335659507353760     25.355942389304133
O      21.799821216446993     18.232103797353759     23.586757329304135
H      21.972837546446996     16.571627817353757     26.110172949304136
C      21.956633006446992     15.872413997353760     24.135484139304133
C      22.758453646446995     14.764332927353758     23.444076209304136
C      22.713134816446996     13.459112247353758     24.233606289304134
C      21.585423796446996     17.084010027353759     23.245131539304133
N      20.935817756446994     16.746468367353760     22.113372209304135
C      23.626777826446997     12.365196527353758     23.686864779304138
H      22.980204446446990     13.661896677353758     25.276080809304133
H      21.680672146446994     13.097522727353757     24.251197959304136
C      25.091614446446997     12.590342247353760     24.033346409304137
H      23.330996106446996     11.389264347353759     24.078905969304135
H      23.520815186446995     12.304867597353757     22.596553409304136
N      25.919339866446997     11.539279567353757     23.446154859304137
H      25.390572826446999     13.606001617353758     23.728289889304136
H      25.214535846446999     12.540652237353758     25.119883469304135
H      25.907290486446996     11.620971337353758     22.436213239304134
H      26.886231126446994     11.652415347353760     23.724533629304133
C      20.374533396446992     17.715128047353758     21.206401369304135
H      20.826814656446992     15.780588097353760     21.856520509304133
C      19.418421776446994     18.663136587353758     21.950392659304136
H      18.445760566446992     18.564457497353757     19.261064769304134
C      19.585504776446992     16.954508307353759     20.128127709304135
O      18.742883126446994     18.285607537353759     22.888120159304137
C      16.930339776446992     20.262045727353758     21.422845049304136
N      19.362360136446995     19.922123437353761     21.447429879304135
N      15.874354156446994     21.028962227353759     21.801008979304136
S      19.308128046446992     22.849113117353760     23.500604259304133
H      18.430617816446993     21.723103967353758     21.195708689304134
C      18.311102696446994     20.835815977353761     21.826994299304133
H      18.954231486446993     24.664638297353761     21.445272529304134
O      16.807635346446993     19.254274847353759     20.755923869304134
C      18.426194276446992     21.266548637353758     23.299945689304135
H      23.780493746447000     15.115350157353758     23.302980129304135
C      14.519912516446993     20.760206137353762     21.366843209304136
H      14.463961556446993     19.707484757353761     21.084424009304136
C      19.179482136446993     17.821396107353760     18.955223649304134
O      20.441447996446993     15.879137987353758     19.709810309304135
H      21.175241236446993     18.293067047353759     20.729596459304133
H      20.030260086446994     15.455964597353757     18.950477389304133
H      20.052627346446993     18.302200467353760     18.509596509304135
H      18.706471346446992     17.205504877353761     18.187142359304133
H      16.002420596446992     21.891661187353762     22.305827399304135
C      13.529623576446994     21.101139387353761     22.488358979304135
H      26.068271506446997     26.082310547353757     21.045811409304136
H      12.944130916446994     20.468930807353757     24.445323429304135
C      14.253135546446995     21.632233897353757     20.146094559304135
O      13.757090896446993     22.431126117353756     22.937618319304136
O      13.628369176446995     22.669149797353761     20.171779199304133
C      13.663561176446994     20.180501417353760     23.680265829304133
O      14.837987076446993     21.153517297353758     19.046388889304133
H      20.978726616446991     24.987667347353756     22.372462259304136
H      12.520879406446994     21.020337397353757     22.065773939304137
H      13.475608126446993     19.144682287353760     23.398271699304136
H      14.664569626446994     20.245428167353758     24.106256599304135
H      23.926116316447001     24.426374847353756     24.302978409304135
H      22.807961646446991     23.715170167353762     26.877894339304135
H      24.405621936446998     22.480584587353761     27.650295119304133
H      20.997453416446994     15.445398107353761     24.448777979304133
H      22.352580626446994     14.592289537353759     22.444170449304135
H      18.919163646446993     20.492241777353762     23.882665829304138
