(written by ASE)

9029 atoms
6 atom types

0.0                      45  xlo xhi
0.0                      45  ylo yhi
0.0                      45  zlo zhi

Atoms # atomic

     1   4      20.106086000000001      26.510636000000002               19.959384
     2   1      19.898199999999999                27.86844               20.489666
     3   5      19.346412999999998               25.225773                17.65305
     4   1      22.261642999999999      23.738112000000001      17.874935000000001
     5   1      21.103065000000001      25.784911000000001      20.788170999999998
     6   1      21.082090999999998      28.778428000000002      20.202840999999999
     7   4      21.402653000000001      28.808904999999999               18.767305
     8   1      22.758576999999999      29.344692999999999      18.479659000000002
     9   1               23.880972      28.977748999999999      19.446193000000001
    10   1      18.832415000000001      25.755618999999999               19.908949
    11   4      23.957813999999999      27.577784999999999      19.845299000000001
    12   1               24.084042               26.660038      18.715654000000001
    13   1      23.732870999999999      25.220877000000002      19.081520999999999
    14   4      22.304607000000001      24.846965000000001      18.860662999999999
    15   1               21.592934      24.522241000000001      20.110673999999999
    16   1               20.429278               29.672362      18.048767999999999
    17   1      20.399422000000001               29.392789      16.540738999999999
    18   5               20.511346      28.128858000000001      16.270174000000001
    19   1      18.759872000000001      24.789681000000002      18.721924999999999
    20   1               22.739563               24.281862      16.521243999999999
    21   5      23.487158000000001      23.654419000000001      15.807620999999999
    22   1               25.030859               27.339717               20.825533
    23   1      24.573433999999999      26.773185999999999      22.168527999999998
    24   5      24.995733999999999               25.701791               22.587888
    25   2      17.141818000000001      21.984491999999999               23.141251
    26   2      18.012574999999998               26.464748      19.763027999999998
    27   2      19.714708999999999      27.845414000000002               21.573045
    28   2      20.861523999999999      29.787051000000002      20.581662999999999
    29   2      23.013148000000001               29.041535      17.460470000000001
    30   2               22.716749               30.440904      18.463280000000001
    31   2      24.815573000000001      29.326308999999998               18.976322
    32   2               23.771881      29.574228999999999               20.359558
    33   2      24.345618000000002      24.557666999999999      18.469401000000001
    34   2      24.004297000000001      25.028469000000001      20.123785999999999
    35   2      23.435178000000001      26.992705000000001               17.902428
    36   2      25.099920000000001      26.684394999999999               18.288321
    37   2      21.223673999999999      23.412472000000001      17.767268000000001
    38   2               22.876355      22.889296999999999      18.185517000000001
    39   2      20.751964000000001      23.867108999999999      19.873515999999999
    40   2      22.230817999999999      23.969252999999998      20.807991999999999
    41   3               20.987371      26.530187000000002      17.561665999999999
    42   5      18.165711000000002      23.731200999999999               18.824005
    43   2               21.950353      26.450286999999999      20.951547000000001
    44   2      18.992761000000002               28.265677      20.030457999999999
    45   5               20.241443      30.295977000000001      15.750773000000001
    46   2               14.417235               22.358117      17.737404000000002
    47   2      19.585940000000001      20.685725999999999      20.012568999999999
    48   2      21.951899000000001      28.395638000000002      20.730101000000001
    49   5      22.268260999999999      25.475815999999998      16.279261999999999
    50   2      18.384004999999998               17.088054               20.000384
    51   2      20.633859999999999               30.730774      18.237667999999999
    52   2      19.425823000000001               29.453014      18.422066999999998
    53   2      25.573588000000001      28.269168000000001               21.034457
    54   4                23.69444      27.548500000000001               22.856026
    55   1      23.462046999999998               27.503003      24.304404000000002
    56   2               23.534564               28.458589                22.45234
    57   2               27.143324      27.610067000000001      23.811254000000002
    58   2      24.244101000000001      30.260045000000002      25.512875999999999
    59   1      24.775048999999999      27.621576999999998      25.117215000000002
    60   1      25.606318000000002      28.802994999999999      24.715561999999998
    61   2      24.482413999999999               27.691226      26.168189000000002
    62   2               25.344472               26.699911               24.990669
    63   2      27.754511999999998      31.850639999999999      23.634315000000001
    64   1      26.813054999999999      28.617851999999999               24.040084
    65   1      25.179054000000001      30.105284000000001      24.983211000000001
    66   2      28.529323000000002      29.546334999999999      23.146526000000001
    67   1      25.946619999999999      31.195993000000001      24.594321999999998
    68   2      25.604285999999998      32.200012000000001               24.811601
    69   1      27.588560999999999      29.709267000000001      23.659231999999999
    70   1      27.155218000000001      31.000478999999999               23.934448
    71   1      22.684988000000001               26.324894      24.906241999999999
    72   2      22.837105000000001               28.368803      24.521685999999999
    73   5               21.966974      26.549790999999999      25.871538999999999
    74   4      22.933236999999998      25.085111999999999      24.437757999999999
    75   1               22.556597               23.924598                25.23283
    76   1      21.179130000000001               23.346629      24.915417999999999
    77   6               20.967858      22.897601999999999               23.160829
    78   4      24.407322000000001      22.661066999999999               26.156506
    79   1      23.652225000000001                22.88542      25.057352999999999
    80   5               23.834163      22.330908999999998      23.983101999999999
    81   2               13.259247               23.550324      21.573858000000001
    82   2      20.435200999999999      24.106096999999998      25.147245999999999
    83   2      20.994181000000001      22.472657999999999      25.542570999999999
    84   1               25.439207      21.639444999999998      26.193854999999999
    85   1               24.776695      20.355833000000001      26.707008999999999
    86   5      29.296140000000001      26.649197999999998      25.162925000000001
    87   1               26.588673      22.063708999999999      27.113002999999999
    88   5      24.455376999999999               20.235242      27.884098999999999
    89   2      27.242253999999999      26.685117999999999      26.888342999999999
    90   4      24.522480000000002      19.431346999999999      25.769964999999999
    91   2      28.705355999999998      22.210450999999999      25.405318000000001
    92   2      28.873242999999999               27.457659               25.470862
    93   1               27.566284               25.702292               26.563198
    94   1      28.627535000000002      25.575908999999999      25.670148999999999
    95   2      26.099215000000001      24.682580000000002      27.734428999999999
    96   2      25.786041000000001               21.513669      25.167843000000001
    97   1      27.312882999999999      23.290638000000001                26.63326
    98   2      26.175934000000002      22.214206999999998      28.113818999999999
    99   2               27.276342               21.217039      27.186769999999999
   100   1      28.380396999999999      23.190273000000001      25.738803000000001
   101   2      29.871721999999998               24.226823      24.574228999999999
   102   1               26.921239      24.565981000000001      27.035889000000001
   103   1      29.039667000000001      24.311534000000002      25.261023999999999
   104   1      23.818159000000001               18.212899               26.076905
   105   1      24.614107000000001      17.256326000000001      27.025366999999999
   106   2      24.806529000000001      19.559781999999998      24.809118999999999
   107   2      26.622838000000002      18.614163000000001               28.664012
   108   1      23.474966999999999      17.551701999999999      24.744433999999998
   109   2               28.997712      18.268315000000001      27.953129000000001
   110   1      26.098590000000002               17.332583      26.938210999999999
   111   2      22.892227999999999      18.471454999999999      26.598531999999999
   112   5      24.238299999999999               17.594839               23.796149
   113   2      24.318422000000002               17.520201      28.039954000000002
   114   2      24.271439000000001               16.233148      26.844678999999999
   115   1      26.902290000000001      18.014914000000001      27.813618000000002
   116   1      28.306484999999999      17.076225000000001               26.341113
   117   1               26.978932      16.719262000000001               25.986068
   118   4               28.223519      17.870370000000001      27.455697000000001
   119   2      30.419008999999999               16.933173               25.899293
   120   1               29.177719      15.836086999999999                24.51867
   121   2      30.014251000000002      15.488441999999999      23.926507999999998
   122   2      25.776215000000001      15.630845000000001      24.567830000000001
   123   2      27.730823999999998      14.838971000000001      23.281445000000001
   124   1      29.413077999999999               16.646345      25.616755999999999
   125   1               26.777034      15.900555000000001      24.872478000000001
   126   1      27.874289000000001      15.467041999999999      24.151530000000001
   127   4      22.291454000000002      16.883417000000001      24.749117999999999
   128   5               21.495248               18.779861      22.979932999999999
   129   2      21.668264000000001      17.119385000000001      25.503347999999999
   130   1      21.652059999999999               16.420171      23.528659000000001
   131   1      22.453880000000002                15.31209      22.837250999999998
   132   1      22.408560999999999      14.006869999999999      23.626781999999999
   133   1      21.280850000000001               17.631767      22.638307000000001
   134   4      20.631243999999999      17.294225999999998      21.506547000000001
   135   1      23.322203999999999      12.912953999999999                23.08004
   136   2      22.675630999999999               14.209654      24.669256000000001
   137   2               21.376099                13.64528      23.644373000000002
   138   1      24.787040999999999                 13.1381      23.426521999999999
   139   2      23.026423000000001      11.937022000000001      23.472080999999999
   140   2      23.216242000000001               12.852625      21.989729000000001
   141   4      25.614765999999999               12.087037                22.83933
   142   2      25.085999000000001      14.153759000000001      23.121465000000001
   143   2               24.909962                13.08841      24.513058999999998
   144   2      25.602716999999998      12.168729000000001      21.829388999999999
   145   2      26.581658000000001      12.200172999999999      23.117709000000001
   146   1      20.069959999999998      18.262885000000001               20.599577
   147   2      20.522241000000001               16.328346               21.249696
   148   1      19.113848000000001               19.210894      21.343568000000001
   149   2      18.141186999999999      19.112214999999999      18.654240000000001
   150   1      19.280930999999999      17.502265999999999               19.521303
   151   5      18.438310000000001      18.833365000000001               22.281295
   152   1      16.625765999999999      20.809802999999999      20.816020000000002
   153   4      19.057787000000001      20.469881000000001               20.840605
   154   4      15.569781000000001      21.576720000000002               21.194184
   155   6      19.003554999999999      23.396871000000001                22.89378
   156   2               18.126044               22.270861               20.588884
   157   1               18.006529      21.383572999999998                21.22017
   158   2      18.649657999999999      25.212395999999998               20.838448
   159   5               16.503062      19.802032000000001               20.149099
   160   1      18.121621000000001      21.814305999999998      22.693121000000001
   161   2      23.475919999999999      15.663107999999999      22.696155000000001
   162   1               14.215339      21.307963999999998      20.760017999999999
   163   2               14.159388      20.255241999999999      20.477599000000001
   164   1      18.874908999999999      18.369154000000002      18.348399000000001
   165   5               20.136875      16.426894999999998      19.102986000000001
   166   2      20.870667999999998      18.840824000000001      20.122772000000001
   167   2      19.725687000000001               16.003722               18.343653
   168   2               19.748054      18.849958000000001      17.902771999999999
   169   2      18.401897999999999      17.753261999999999      17.580317999999998
   170   2      15.697846999999999      22.439419000000001      21.699003000000001
   171   1                13.22505      21.648897000000002      21.881533999999998
   172   2      25.763698000000002      26.630068000000001      20.438987000000001
   173   2               12.639557      21.016687999999998      23.838498999999999
   174   1      13.948562000000001      22.179991000000001      19.539269999999998
   175   5               13.452517      22.978884000000001      22.330794000000001
   176   5               13.323796      23.216906999999999               19.564954
   177   1               13.358988      20.728259000000001      23.073440999999999
   178   5               14.533414      21.701274999999999      18.439564000000001
   179   2               20.674153               25.535425      21.765637999999999
   180   2      12.216305999999999               21.568095               21.458949
   181   2               13.171035      19.692440000000001      22.791447000000002
   182   2      14.359996000000001      20.793185999999999      23.499431999999999
   183   2      23.621542999999999      24.974132000000001               23.696154
   184   2      22.503388000000001      24.262927999999999      26.271070000000002
   185   2      24.101047999999999      23.028341999999999      27.043469999999999
   186   2      20.692879999999999      15.993156000000001               23.841953
   187   2      22.048006999999998      15.140046999999999               21.837346
   188   2                18.61459      21.039999000000002               23.275841
   189   5      35.455863000000001      40.352772000000002      21.031369000000002
   190   2      34.805849000000002      39.740659999999998               21.384252
   191   2               35.114846      40.589503000000001      20.165165999999999
   192   5      16.856114999999999      39.908620999999997      20.637277999999998
   193   2               16.211513               39.223616      20.444970000000001
   194   2               16.403119               40.728634      20.425108999999999
   195   5      34.760528999999998      42.769240000000003      29.275386999999998
   196   2      35.437325999999999      42.711269000000001      28.596924999999999
   197   2      34.275872999999997               43.570321               29.060865
   198   5      34.034202999999998               27.122083      15.810822999999999
   199   2      33.866545000000002      27.042332999999999               14.868881
   200   2      33.238525000000003      27.530750000000001      16.160865999999999
   201   5      37.569755999999998      12.460884999999999      43.604269000000002
   202   2      36.655842999999997               12.286899      43.841369999999998
   203   2               38.081325                12.02181      44.288485999999999
   204   5      32.984051999999998      40.001001000000002               35.820231
   205   2      33.818624999999997      40.346966000000002                35.49539
   206   2      33.233888999999998      39.399726999999999      36.526412999999998
   207   5               38.940852      13.253486000000001      29.202079999999999
   208   2      38.209896000000001               13.832741      29.429881000000002
   209   2      39.704878999999998               13.834792               29.170638
   210   5      37.816535000000002      37.509290999999997      37.065522000000001
   211   2      37.962404999999997      37.960760999999998      36.230882999999999
   212   2               36.869377      37.576385999999999      37.210540999999999
   213   5               41.880443      33.095151000000001      34.290205999999998
   214   2      41.174475999999999      32.465862999999999      34.124881000000002
   215   2      41.863114000000003      33.228482999999997      35.241292000000001
   216   5      13.952799000000001      12.634062999999999      30.615971999999999
   217   2      14.670538000000001      12.041558999999999      30.380354000000001
   218   2               14.291302      13.133141999999999      31.363620000000001
   219   5      18.272038999999999     0.99401499999999998      32.424335999999997
   220   2                 19.2254     0.96922399999999997      32.313828999999998
   221   2      18.144864999999999      1.2529079999999999      33.340547000000001
   222   5      28.101082000000002      37.651358999999999               33.340328
   223   2      28.944233000000001      37.318705999999999      33.023843999999997
   224   2      27.572963000000001      36.862357000000003      33.485957999999997
   225   5      38.981160000000003      23.537603000000001      22.124424000000001
   226   2      38.042717000000003      23.399909000000001      21.975795000000002
   227   2               39.233587      24.190087999999999               21.466255
   228   5      9.4728560000000002      6.1514490000000004      5.8055659999999998
   229   2      9.3851859999999991      7.0731469999999996      6.0595569999999999
   230   2               10.118639      6.1604489999999998                5.094563
   231   5      27.567011000000001      2.0449839999999999     0.68182100000000001
   232   2               28.453522      2.3563320000000001                0.484626
   233   2      27.082000000000001      2.8399260000000002     0.91734899999999997
   234   5      12.981909999999999      6.2048610000000002      17.350895000000001
   235   2      13.125097999999999      6.9276780000000002      17.966328000000001
   236   2               12.288876                6.522831               16.766738
   237   5      8.2106480000000008      33.335971000000001               11.661147
   238   2      8.5077619999999996      34.125836999999997               12.118926
   239   2      7.3053229999999996      33.533391000000002      11.408056999999999
   240   5      25.148185999999999                1.595486               38.182572
   241   2      25.603321999999999      2.3851840000000002      38.484155000000001
   242   2      24.216066999999999                1.804198      38.283743000000001
   243   5      20.988779000000001      19.167611999999998      31.316842999999999
   244   2      21.261424999999999      20.052144999999999               31.571776
   245   2      20.059557000000002      19.260096999999998      31.091819000000001
   246   5      21.403676000000001      32.077551999999997      11.286740999999999
   247   2               22.103344               31.420645      11.260987999999999
   248   2      21.349716999999998      32.403899000000003                10.38495
   249   5      5.7931270000000001      21.234529999999999      16.621811000000001
   250   2      5.5161220000000002                20.98603      15.736802000000001
   251   2      5.7742069999999996               22.194872      16.616731999999999
   252   5      34.669649999999997               28.994985      37.358899000000001
   253   2               35.313046               29.422559      37.928941000000002
   254   2      33.825980999999999                 29.1556      37.789093999999999
   255   5      39.810383999999999      36.452418999999999      31.439278999999999
   256   2      39.253172999999997      36.567207000000003      32.212625000000003
   257   2      40.354052000000003      37.243996000000003      31.417511000000001
   258   5      23.428661000000002               19.003159                4.294454
   259   2      23.994472999999999               18.243893      4.1360299999999999
   260   2               23.928601               19.549581      4.9061110000000001
   261   5               19.982087      36.507421000000001               34.087218
   262   2               20.431818      37.257829999999998      34.482633999999997
   263   2                19.89302      36.744048999999997      33.160549000000003
   264   5               37.429513      36.533881000000001      39.272849999999998
   265   2      37.205984000000001               37.457805               39.407477
   266   2      37.423670000000001      36.156033999999998      40.155935999999997
   267   5      34.104252000000002                8.296538      27.563521000000001
   268   2      34.595168000000001      8.3433060000000001      26.739785999999999
   269   2      33.200532000000003      8.5064019999999996               27.314743
   270   5      36.720427000000001      10.666085000000001      4.6734169999999997
   271   2      36.508006000000002      9.9268249999999991      4.0988759999999997
   272   2      36.789990000000003               10.275779      5.5483250000000002
   273   5      26.193086999999998      39.240453000000002      31.639109000000001
   274   2      25.703043999999998      40.019298999999997      31.365279999999998
   275   2                25.52515      38.555016999999999               31.720831
   276   5      33.223508000000002               44.828291      39.064349999999997
   277   2      32.364257000000002               44.436118      39.236432000000001
   278   2      33.850541999999997      44.196724000000003      39.425725999999997
   279   5      25.716740000000001      35.349566000000003      19.721125000000001
   280   2      25.133894999999999               34.615195      19.927804999999999
   281   2               25.385686               35.688907      18.885725000000001
   282   5      28.414840000000002               13.516527      7.4614310000000001
   283   2      29.013075000000001               12.903027      7.8943940000000001
   284   2      27.908245000000001               12.968743      6.8565040000000002
   285   5      23.398834000000001      17.101749000000002      34.165675999999998
   286   2               24.154944               16.679596      33.751176999999998
   287   2      22.755638999999999      17.187380999999998               33.457431
   288   5      12.614433999999999      24.262910000000002                7.370571
   289   2               12.136403      24.466505999999999      8.1778870000000001
   290   2               11.943353      23.916512999999998      6.7770219999999997
   291   5      20.338643999999999      23.858523999999999      33.686613000000001
   292   2      21.095555999999998      23.304110000000001               33.890169
   293   2      20.325493000000002      24.511914000000001               34.390566
   294   5                4.050306               13.572801               12.607923
   295   2                3.592597      14.374822999999999                12.87058
   296   2      4.6631859999999996      13.860317999999999      11.926488000000001
   297   5      9.6205700000000007      41.483938000000002      33.022212000000003
   298   2      9.8577659999999998      41.668191999999998      32.110337999999999
   299   2      8.6714000000000002               41.338735      32.997005999999999
   300   5               27.208354      42.914867999999998      36.364825000000003
   301   2      26.508994999999999      43.363200999999997      35.883557000000003
   302   2      27.270886999999998      43.393368000000002      37.195348000000003
   303   5               15.687051               27.151723      29.826236000000002
   304   2      16.125457000000001               27.308833      28.986688000000001
   305   2      14.787083000000001               27.456744               29.686017
   306   5               10.504863               22.278375      38.905182000000003
   307   2               10.556424               21.444737      39.378588000000001
   308   2      9.9525570000000005               22.086088      38.143194000000001
   309   5      8.5476279999999996               12.249464      40.778418000000002
   310   2      8.2287020000000002               12.149953      39.878357999999999
   311   2      8.4705290000000009               13.190286      40.956046000000001
   312   5      36.409190000000002      32.911808000000001      20.295294999999999
   313   2      36.363711000000002      33.467801000000001      21.076657999999998
   314   2      37.349175000000002      32.829599000000002      20.115542000000001
   315   5      26.449809999999999      35.588892000000001      12.119700999999999
   316   2      25.647863000000001      35.589500999999998               12.647532
   317   2      26.467009999999998      36.458047999999998      11.711150999999999
   318   5                28.53425      8.4584810000000008      20.405947999999999
   319   2      28.219087999999999      7.5561809999999996               20.315109
   320   2      28.765671999999999                8.721387      19.511538999999999
   321   5      9.7682819999999992               14.668858      44.734475000000003
   322   2               10.368641               13.923244      44.807645999999998
   323   2      9.1352659999999997                14.40035      44.063775999999997
   324   5                8.927047      37.827934999999997               42.010458
   325   2      8.5989500000000003      38.242429000000001      41.209040000000002
   326   2      8.4285460000000008      38.246645000000001      42.716729999999998
   327   5      34.958714000000001                1.239473               18.012518
   328   2      34.949339999999999     0.28090700000000002               18.065334
   329   2      34.558362000000002      1.4353089999999999               17.161631
   330   5      40.929872000000003      7.1353970000000002      33.293658000000001
   331   2      40.183008000000001      7.3724179999999997      33.848401000000003
   332   2               40.838735      7.6958019999999996      32.518878999999998
   333   5      37.450465999999999               29.212729               15.513525
   334   2      38.170489000000003      29.530975000000002      14.963969000000001
   335   2      37.407277000000001      28.271215000000002      15.328245000000001
   336   5      15.343398000000001               12.541095               28.315552
   337   2               14.506492               12.126296      28.093613000000001
   338   2                15.15227               13.482403      28.308395999999998
   339   5               28.918153      30.490894999999998      3.2224689999999998
   340   2      28.020669000000002      30.353604000000001      2.9103810000000001
   341   2               29.009653      29.882767000000001                3.960337
   342   5               15.203362               29.817826                30.68845
   343   2      15.893497999999999      29.702698999999999      30.031044000000001
   344   2               15.677906      29.913180000000001      31.518122999999999
   345   5      38.561559000000003      27.579377000000001      19.402591000000001
   346   2      39.470269000000002      27.827373000000001               19.588248
   347   2      38.481448999999998      27.663682000000001      18.449114999999999
   348   5     0.82190099999999999      38.115389999999998      32.039138000000001
   349   2   0.0070619999999999997      37.616917000000001      32.135516000000003
   350   2     0.78590099999999996      38.769314000000001      32.741796999999998
   351   5      4.9312420000000001               23.531457      15.078277999999999
   352   2      3.9911020000000001      23.439858999999998               14.906603
   353   2      5.2673769999999998      24.009395000000001      14.315893000000001
   354   5      30.008593000000001      17.431032999999999               14.025388
   355   2      29.281555999999998               17.336012      14.645156999999999
   356   2               30.622349      18.023523000000001               14.466865
   357   5      7.0622030000000002               28.007379      7.8375979999999998
   358   2                6.172542               27.772866      7.5633109999999997
   359   2      7.6327590000000001      27.485361999999999                7.267855
   360   5               11.933092      10.159103999999999                8.375947
   361   2      11.924628999999999      9.6440800000000007                 7.56576
   362   2               11.686845      11.044945999999999      8.0979410000000005
   363   5                6.675306      42.677155999999997                 3.96746
   364   2      6.4138080000000004      43.304656999999999      3.2895310000000002
   365   2      6.3397160000000001      43.055008999999998                4.784313
   366   5      16.617661999999999                  5.6917      5.9741330000000001
   367   2      17.109538000000001      5.9323370000000004      5.1855409999999997
   368   2               16.982122      4.8412920000000002      6.2322360000000003
   369   5                34.85239               14.977617      6.7250180000000004
   370   2      35.153675999999997               14.448252      7.4671269999999996
   371   2      33.894267999999997               14.924405      6.7675879999999999
   372   5      44.989336999999999      10.346666000000001               10.721226
   373   2      44.872743999999997      9.3942300000000003      10.752796999999999
   374   2      44.168222999999998      10.675096999999999      10.346330999999999
   375   5      23.924997000000001      40.880288999999998      8.7241800000000005
   376   2      23.461815000000001      41.163777000000003      9.5159009999999995
   377   2               23.397174      40.152023999999997      8.3870240000000003
   378   5      41.413921999999999                0.004751               23.700028
   379   2      41.917234999999998     0.73181499999999999      24.073896999999999
   380   2      41.316409999999998     0.23438899999999999               22.772451
   381   5      15.850645999999999      22.166077999999999      27.166468999999999
   382   2               16.139156      21.617619000000001      27.899736000000001
   383   2               15.484695      22.949695999999999               27.584398
   384   5      36.539619999999999      44.124223999999998      1.9066799999999999
   385   2               37.159675               44.791069      1.6024210000000001
   386   2      36.173704000000001      43.753059999999998      1.0998429999999999
   387   5      8.4138500000000001      7.7543150000000001      18.242543000000001
   388   2      8.5133469999999996      8.6920780000000004               18.422615
   389   2      9.1776979999999995      7.5325790000000001      17.704015999999999
   390   5      36.055216999999999      41.574013999999998      5.3639289999999997
   391   2      36.481442999999999      40.736885999999998      5.1657510000000002
   392   2      36.649892999999999      42.003424000000003      5.9840980000000004
   393   5      44.244314000000003      8.2519399999999994      35.271960999999997
   394   2      44.756281000000001      8.6592120000000001      34.569291999999997
   395   2      44.558008999999998      8.6783730000000006      36.073455000000003
   396   5      39.039304999999999      37.976824000000001      20.438649999999999
   397   2      39.232985999999997               37.055301               20.251548
   398   2      38.497011999999998      37.950369999999999               21.231026
   399   5      8.0537010000000002                5.506043      8.5924160000000001
   400   2      7.4965250000000001      5.8471070000000003                9.295947
   401   2      8.0467220000000008                6.197883      7.9261200000000001
   402   5      5.0483840000000004      6.3259290000000004      35.176152999999999
   403   2                5.285882      7.2412510000000001      35.010305000000002
   404   2      4.8841609999999998      5.9602899999999996               34.303238
   405   5      39.662647999999997      19.829461999999999      9.7809779999999993
   406   2               40.038097      19.078302999999998      9.3156569999999999
   407   2               40.237679      20.563821999999998      9.5514200000000002
   408   5               17.716116               13.841372      4.6532910000000003
   409   2               16.888102               13.975731      4.1863169999999998
   410   2      17.873304999999998               14.674636      5.1045170000000004
   411   5      39.490470000000002      33.614051000000003      6.4510160000000001
   412   2      38.991455999999999      34.130724000000001      5.8140229999999997
   413   2      39.174939000000002               32.715131      6.3284320000000003
   414   5      41.748545999999997      23.907682000000001               13.016541
   415   2      42.694313999999999      24.037866000000001               12.915053
   416   2      41.568961999999999      23.088664000000001               12.547926
   417   5      32.356048999999999      3.3068759999999999      32.685898999999999
   418   2      32.311236999999998      4.0867959999999997      33.243968000000002
   419   2      33.087032000000001      2.7980119999999999      33.045568000000003
   420   5      43.458843000000002      44.796517000000001      14.529534999999999
   421   2      43.349896000000001      43.851472999999999               14.658944
   422   2      44.296041000000002      45.000349999999997               14.954027
   423   5      19.794550999999998      43.855096000000003      14.470534000000001
   424   2      18.939955999999999               44.287464               14.537245
   425   2      20.000934999999998      43.594546999999999               15.371734
   426   5      42.262329999999999      23.898596000000001      4.7209479999999999
   427   2               41.631712      24.614536000000001      4.8280700000000003
   428   2               42.016292      23.261137000000002      5.3960429999999997
   429   5               26.622474      26.586777999999999                9.083907
   430   2      26.375540999999998      27.423694000000001      9.4843069999999994
   431   2      26.780688999999999      26.801428000000001      8.1611200000000004
   432   5               26.572353      8.0370259999999991      36.517766000000002
   433   2      27.426877999999999      8.4281600000000001      36.714047000000001
   434   2      26.302455999999999      7.6270889999999998      37.343446999999998
   435   5      7.9113329999999999      4.1341640000000002      45.000216999999999
   436   2      8.7928759999999997      3.7802039999999999      44.861227999999997
   437   2      7.3330039999999999      3.3712309999999999      44.922043000000002
   438   5      37.155498000000001      40.709791000000003               17.366228
   439   2      37.971660999999997               40.318669      17.686582000000001
   440   2      36.471834000000001      40.318863999999998      17.916156000000001
   441   5      6.6810419999999997      35.856158000000001               18.047065
   442   2      6.9215949999999999      36.470671000000003      17.349761000000001
   443   2      5.7561039999999997      36.045912000000001      18.223486000000001
   444   5      36.644826000000002      22.963695999999999               37.842295
   445   2      35.888916000000002               22.523958      37.446119000000003
   446   2               36.955945                22.34759               38.510323
   447   5               15.013347      37.569626999999997      39.585330999999996
   448   2      15.930326000000001      37.524343000000002               39.304575
   449   2      15.012259999999999      38.219982999999999      40.292211000000002
   450   5      31.847767000000001      43.345773000000001      28.415797999999999
   451   2      32.129181000000003      44.006262999999997      29.053201000000001
   452   2      31.030419999999999      42.996259999999999               28.779702
   453   5               34.169331               17.647295      20.515357999999999
   454   2               34.684075      16.995598999999999      20.033636000000001
   455   2      34.725929999999998      17.887409000000002               21.260465
   456   5      16.277021999999999               15.371589      32.185395999999997
   457   2      16.720144000000001      14.546170999999999               31.975507
   458   2               15.958034               15.249385      33.083145999999999
   459   5     0.61327799999999999      39.972239000000002               10.010363
   460   2                 1.37046      40.273882999999998      9.5030049999999999
   461   2     0.25525900000000001               39.245075      9.4949060000000003
   462   5      35.092184000000003      2.0750470000000001      9.3246830000000003
   463   2               34.837297                1.959112      10.243005999999999
   464   2               35.493693      2.9472079999999998      9.2969639999999991
   465   5      26.548179000000001      29.523288999999998      33.486472999999997
   466   2      25.711221999999999      29.754149999999999      33.896265999999997
   467   2      26.528500000000001               29.969697      32.636194000000003
   468   5                16.55209      11.277896999999999               36.045907
   469   2      15.669627999999999               11.293545      35.668095999999998
   470   2      16.706358999999999                10.35275      36.253141999999997
   471   5      6.1137420000000002      22.256201999999998      18.936174999999999
   472   2      6.2854049999999999      21.327739999999999               18.762349
   473   2      5.1727480000000003      22.293348000000002      19.125361999999999
   474   5      15.525556999999999               22.078032      35.100039000000002
   475   2      15.168919000000001               21.671906      35.893509999999999
   476   2               15.895515      22.910717000000002      35.404029000000001
   477   5                17.61449      37.938350999999997               40.818697
   478   2      18.516162999999999      38.170229999999997      40.584296999999999
   479   2               17.274687      38.720095000000001      41.261474999999997
   480   5      38.947960000000002      4.5216700000000003      40.352218000000001
   481   2      39.802745999999999      4.8692029999999997      40.617333000000002
   482   2      39.150598000000002      3.9041359999999998      39.644947000000002
   483   5      44.809235000000001               23.427014      25.319185999999998
   484   2      44.591903000000002      22.527041000000001                25.06514
   485   2      44.001282000000003               23.765155      25.713539999999998
   486   5      7.3386639999999996      44.961438999999999      22.392994999999999
   487   2      6.9269030000000003      44.241244000000002      21.909777999999999
   488   2      6.8550180000000003      44.999566999999999      23.222014999999999
   489   5      35.835268999999997      36.466349999999998      20.504052999999999
   490   2      36.121029999999998      35.640858000000001      20.902335000000001
   491   2      35.571648000000003      36.222551000000003      19.613150000000001
   492   5      6.3625080000000001      34.169702999999998               16.065272
   493   2      6.0717559999999997      33.327072000000001      15.708674999999999
   494   2      5.5479880000000001      34.634380999999998               16.273294
   495   5      8.6322500000000009      2.8058299999999998      36.313487000000002
   496   2      8.2467109999999995                2.163262      36.913646999999997
   497   2      8.8055889999999994      2.3080590000000001      35.510480999999999
   498   5      40.443829999999998      8.8505760000000002               24.489663
   499   2      39.897315999999996      8.5513159999999999      25.220068000000001
   500   2      41.340985000000003      8.6418130000000009      24.762011000000001
   501   5      17.476168999999999      35.984760000000001               12.849857
   502   2               17.963998      35.436166999999998      13.468559000000001
   503   2               17.987783      35.941428000000002      12.038059000000001
   504   5      29.212972000000001      41.976211999999997                1.978172
   505   2      29.251467000000002      42.222537000000003      2.9053010000000001
   506   2      30.133040000000001      41.918942999999999      1.7082850000000001
   507   5      38.983134999999997               10.787969      6.6829159999999996
   508   2      38.876179999999998               10.924868      5.7386999999999997
   509   2      39.108924000000002      9.8400320000000008      6.7736619999999998
   510   5      9.2076609999999999      22.889963999999999               10.957151
   511   2      8.4203050000000008      23.068207000000001      10.437511000000001
   512   2      8.9683720000000005      23.151413000000002      11.849914999999999
   513   5      26.521256999999999               10.360483      44.623032000000002
   514   2               26.910148               11.011872               44.034661
   515   2                26.78492      9.5152509999999992      44.250596999999999
   516   5               38.662264     0.57824799999999998      23.473762000000001
   517   2      39.130515000000003                0.058774               22.816029
   518   2      37.964592000000003  -0.0040220000000000004      23.784980000000001
   519   5      31.502687999999999                28.67061      35.326278000000002
   520   2      32.442003999999997      28.868628000000001      35.312161000000003
   521   2               31.404394                27.93721      34.713819999999998
   522   5      21.940764999999999      33.382688999999999               26.049087
   523   2      21.737459999999999      33.176577999999999               25.133713
   524   2      21.713892000000001      32.582579000000003               26.529705
   525   5      2.0855480000000002      22.847643999999999      28.311350000000001
   526   2                1.878946      22.456627000000001      29.163492999999999
   527   2      2.9290929999999999      23.286138000000001               28.448449
   528   5      28.200306999999999      19.947151999999999               17.900948
   529   2      27.896322000000001      19.080307000000001      18.180050000000001
   530   2      27.613303999999999               20.184507      17.178637999999999
   531   5      41.239638999999997               13.507749               11.983309
   532   2      40.700845000000001               14.302158      12.001785999999999
   533   2      40.803167000000002               12.909345               12.594903
   534   5      8.2567330000000005      30.060870000000001      5.6012019999999998
   535   2      8.9001629999999992      29.520721000000002      6.0659200000000002
   536   2      8.3721060000000005               30.939971      5.9706770000000002
   537   5      19.482316999999998      39.258600999999999      34.873102000000003
   538   2               19.775551               39.169542      35.782941000000001
   539   2      18.966408999999999      40.068814000000003      34.867089999999997
   540   5      29.578689000000001      12.682060999999999      5.1728550000000002
   541   2      29.352253000000001      11.868975000000001                5.630395
   542   2      28.743967999999999               12.994539      4.8147469999999997
   543   5      36.422339999999998               44.743043      14.949522999999999
   544   2      35.529390999999997      44.598956000000001               14.627644
   545   2               36.526004               44.104042               15.659151
   546   5      7.7783629999999997      4.8674879999999998      42.298748000000003
   547   2      7.7622960000000001      3.9422169999999999      42.043134000000002
   548   2      8.4241569999999992      4.9075490000000004               43.008668
   549   5      32.160203000000003      36.771374999999999      35.512756000000003
   550   2      31.846952000000002      35.877491999999997               35.355998
   551   2               32.174923      36.854503999999999      36.469580999999998
   552   5      27.288581000000001      40.124057999999998      23.787936999999999
   553   2      26.915165999999999      39.654535000000003      24.537493999999999
   554   2      27.037157000000001      41.039999999999999      23.931038000000001
   555   5      5.4076969999999998      10.107043000000001      19.570606000000002
   556   2      4.7499580000000003      9.6221219999999992      20.074546999999999
   557   2      4.9238419999999996               10.450322               18.815168
   558   5      35.509748999999999               21.364497      4.0922260000000001
   559   2      35.649787000000003      22.245007999999999                3.736116
   560   2               35.655144               21.463317      5.0365450000000003
   561   5      23.961387999999999               15.984228      9.7682819999999992
   562   2      24.536698000000001      16.746321999999999      9.6684990000000006
   563   2               23.482388      16.152232000000001               10.583743
   564   5               30.243064      4.7590430000000001      16.443100000000001
   565   2                30.81269      5.4934519999999996               16.202486
   566   2      29.896259000000001      4.9990829999999997      17.306087999999999
   567   5      37.006341999999997      36.088534000000003      35.618471999999997
   568   2      36.504061999999998      36.245745999999997      34.815525000000001
   569   2      36.373745999999997      35.689466000000003      36.221141000000003
   570   5               28.849207      18.051629999999999      42.440092999999997
   571   2               29.113671               18.966341      42.317265999999996
   572   2      27.926220000000001               18.032612      42.174810000000001
   573   5      18.015094000000001      7.0754539999999997               28.219583
   574   2               18.434638      7.1604520000000003      27.360233000000001
   575   2      18.147756999999999      6.1549110000000002      28.459675000000001
   576   5      5.6394590000000004      9.3082580000000004      22.667179999999998
   577   2      4.8369910000000003      9.5996240000000004      23.106355000000001
   578   2      5.7911330000000003      9.9677980000000002      21.985531000000002
   579   5   0.0093530000000000002      25.337582999999999      42.881101999999998
   580   2     0.41760799999999998      26.193370000000002               42.730497
   581   2     0.50267300000000004               24.964053      43.615780999999998
   582   5               36.736176      41.259374999999999               25.980331
   583   2      37.438882999999997               41.603316      25.423884000000001
   584   2      36.344273999999999      42.040244000000001               26.379451
   585   5      33.543832000000002      17.244965000000001      8.2491190000000003
   586   2      34.274934000000002               16.644641      8.0853319999999993
   587   2      33.359549999999999      17.635888000000001      7.3912950000000004
   588   5               27.553604      23.821532000000001      41.250369999999997
   589   2               26.897738               23.135541      41.105524000000003
   590   2               27.045945      24.636759000000001      41.268507999999997
   591   5      41.513731999999997                  1.3187      27.774975000000001
   592   2      41.007587999999998      2.1297280000000001      27.686786000000001
   593   2      40.902983999999996     0.69965999999999995               28.182921
   594   5      30.752178000000001               29.391448                1.889489
   595   2      30.090147000000002      29.925629000000001      1.4444140000000001
   596   2      31.578887999999999      29.853193999999998      1.7282930000000001
   597   5      41.559204999999999               18.981057      20.319389999999999
   598   2      41.464734999999997      19.502859000000001      19.519062999999999
   599   2      42.504989000000002      18.970338999999999      20.486781000000001
   600   5      4.5200709999999997      42.527481000000002      9.5024300000000004
   601   2                4.152285      41.776243000000001                9.973706
   602   2      3.8170039999999998      42.804372000000001      8.9094110000000004
   603   5      3.3878710000000001      5.6828250000000002      19.536518999999998
   604   2      3.5863109999999998                6.499371      19.072192999999999
   605   2      4.0967520000000004      5.0861850000000004               19.283237
   606   5      38.041642000000003      24.288063000000001               27.931383
   607   2               38.438544      25.141708999999999      28.119748000000001
   608   2      38.590119999999999               23.918616      27.234732000000001
   609   5      4.4091990000000001      3.1407949999999998      4.7847080000000002
   610   2      4.1583350000000001      2.3633709999999999      5.2890930000000003
   611   2      3.6153490000000001      3.3752390000000001                 4.29739
   612   5      7.8105849999999997     0.45553399999999999      3.2460930000000001
   613   2      7.9277889999999998                 1.38717                3.446199
   614   2      8.1514589999999991  0.00063500000000000004      4.0203749999999996
   615   5      44.565544000000003      39.034196000000001      19.394670000000001
   616   2      43.656877999999999      38.853360000000002      19.142980000000001
   617   2      44.709384999999997      38.492015000000002               20.174408
   618   5               17.892906      37.431423000000002      34.202159000000002
   619   2               17.729657      36.497763999999997      34.049334000000002
   620   2      18.218637999999999      37.471882999999998      35.104878999999997
   621   5      9.8709880000000005      7.2045000000000003      38.459485999999998
   622   2      9.0506239999999991      6.7765209999999998      38.203434000000001
   623   2               10.269422      7.4732070000000004      37.627808000000002
   624   5      36.070596000000002                1.228539      7.4992729999999996
   625   2      36.324382999999997      2.1438079999999999      7.3592709999999997
   626   2      36.320790000000002                0.784524      6.6850889999999996
   627   5               29.663878               26.753688      10.497491999999999
   628   2      28.833835000000001      27.235261999999999               10.468537
   629   2               30.328695      27.410972999999998      10.276954999999999
   630   5      5.2278200000000004      14.250462000000001                1.179289
   631   2      5.8167280000000003      13.681730999999999     0.67783400000000005
   632   2      4.4269889999999998      13.730676000000001      1.2848059999999999
   633   5               17.723309               12.753579      14.571179000000001
   634   2                17.10004      13.482189999999999               14.522319
   635   2      18.562975000000002               13.140169               14.310124
   636   5      35.788556999999997      4.8522129999999999      6.9471679999999996
   637   2      34.974984999999997                4.422968      6.6722619999999999
   638   2      36.088259999999998      4.3356399999999997      7.6994800000000003
   639   5      29.308593999999999      22.063714999999998      33.709364999999998
   640   2      28.740822999999999      22.305817000000001                32.97401
   641   2               28.715425               21.652815      34.343362999999997
   642   5      25.536715999999998      33.739370999999998      2.5107360000000001
   643   2      25.284770999999999      33.244200999999997                1.727757
   644   2      25.906953999999999      33.078820999999998                3.101702
   645   5      9.0109890000000004      29.415296000000001               37.743133
   646   2      8.2306319999999999               29.761882      38.182048999999999
   647   2      9.0432400000000008      28.492457000000002               38.007652
   648   5      41.137394999999998               29.538428      1.7932220000000001
   649   2      40.791547000000001      30.292546000000002                1.310087
   650   2      40.936042999999998      29.731411999999999                2.712383
   651   5      2.0047679999999999      4.9608410000000003      30.876114000000001
   652   2      2.8991099999999999      4.6152819999999997      30.826439000000001
   653   2                1.747439      4.8256730000000001      31.791620999999999
   654   5      2.8953570000000002      5.3809290000000001      3.7509549999999998
   655   2                3.669702      5.2791569999999997      3.1926019999999999
   656   2                3.061957      6.1877040000000001      4.2449199999999996
   657   5      39.561672999999999      17.384277999999998      2.3059949999999998
   658   2      38.747320999999999      17.836749000000001      2.0739930000000002
   659   2      40.162686000000001      17.590748000000001      1.5857209999999999
   660   5      9.9949259999999995      9.1729909999999997                5.831499
   661   2               10.879474      8.7997770000000006      5.8281549999999998
   662   2      10.131112999999999                10.10754      6.0067519999999996
   663   5               24.502606      2.4634809999999998               17.828187
   664   2      24.246293999999999      3.3224309999999999               17.484334
   665   2      23.813358000000001                2.244354               18.460296
   666   5      30.340219999999999               10.330135               34.657874
   667   2      29.814035000000001      9.7238349999999993      35.184424999999997
   668   2      31.204650000000001               10.321118      35.076587000000004
   669   5      31.422070000000001      9.5996799999999993               10.246782
   670   2               31.269423      8.6852529999999994               10.496276
   671   2      30.653369999999999      9.8348809999999993      9.7210219999999996
   672   5      22.473116000000001      40.468794000000003               11.351016
   673   2      22.605758000000002      39.581201999999998               11.009971
   674   2      22.980727000000002      40.489320999999997               12.166216
   675   5      9.2116530000000001               15.108905      32.834547999999998
   676   2      8.3319519999999994               15.313215      33.160291999999998
   677   2      9.1907639999999997               15.371362      31.910793999999999
   678   5      4.3546379999999996      5.8956359999999997      37.430343000000001
   679   2                3.430091      5.9317140000000004      37.686540999999998
   680   2      4.4211049999999998      5.1056660000000003      36.887965999999999
   681   5      39.911650999999999               11.348277               20.141575
   682   2      40.363396000000002      10.605048999999999               19.735049
   683   2      40.273733999999997      11.390257999999999               21.030268
   684   5                 13.6104      18.636057999999998      32.102339000000001
   685   2      13.261203999999999      18.676562000000001               31.208949
   686   2               13.429211               17.737254      32.388635000000001
   687   5                6.491422                14.44525      10.847141000000001
   688   2      5.8648119999999997      15.038790000000001                10.42667
   689   2      7.0457039999999997               15.021692               11.379239
   690   5      12.993301000000001      35.078226000000001                10.90062
   691   2               13.909176               35.168799               11.173921
   692   2      12.903446000000001      35.686425999999997      10.162608000000001
   693   5                28.38062      40.224831000000002               15.784932
   694   2      28.782267000000001                39.37191      15.966400999999999
   695   2               27.747964               40.046281      15.084568000000001
   696   5               40.095084      36.807960999999999      9.8923020000000008
   697   2      39.503580999999997      37.358420000000002      9.3737999999999992
   698   2      40.939298999999998      37.264682999999998      9.8555799999999998
   699   5               34.667966      16.124593999999998      16.667387999999999
   700   2      35.295684000000001      15.434678999999999                16.89479
   701   2      34.234150999999997      16.335471999999999               17.498037
   702   5      6.5071760000000003      30.233505000000001      8.7849599999999999
   703   2      6.9649869999999998      29.603860999999998      9.3468160000000005
   704   2      6.9894959999999999      30.206893999999998      7.9547179999999997
   705   5               26.235595               26.674011      34.817084999999999
   706   2      26.581461000000001      27.564081000000002      34.916466999999997
   707   2               25.402345      26.687283000000001      35.294746000000004
   708   5               13.798714               25.576221      38.754885000000002
   709   2               14.334228               26.099836      39.355531999999997
   710   2      13.060394000000001      25.277944999999999      39.292060999999997
   711   5      18.473555000000001      11.754369000000001      41.009824000000002
   712   2               19.294407               11.324861               41.261716
   713   2      18.131019999999999               11.212968               40.294145
   714   5      20.378316999999999      38.850763999999998      3.4903580000000001
   715   2      21.114263999999999      38.519815000000001      4.0105310000000003
   716   2      19.737207000000001      39.142943000000002      4.1432359999999999
   717   5      25.436178999999999      44.165754999999997      6.9864269999999999
   718   2      25.451789999999999      43.470784000000002                6.324236
   719   2               26.026605      43.851505000000003      7.6758360000000003
   720   5               10.988591                3.184542      4.0170320000000004
   721   2               11.319811      2.7131479999999999      4.7850200000000003
   722   2               10.697756      4.0315690000000002      4.3643099999999997
   723   5      3.7080869999999999      26.034161999999998      11.172352999999999
   724   2      4.6143460000000003               26.161873               10.882337
   725   2      3.2018949999999999      25.983540000000001               10.357583
   726   5      35.497081000000001      2.9280110000000001               13.609729
   727   2      36.070613999999999      2.6868029999999998      14.340896000000001
   728   2      35.994140999999999      3.5925060000000002      13.125972000000001
   729   5                28.09844      34.668897999999999                1.100875
   730   2      28.740106000000001      35.284725999999999                0.739286
   731   2      27.583985999999999      35.195497000000003                1.717862
   732   5               17.611317      2.7044489999999999      16.012194999999998
   733   2      18.113081999999999      3.4867309999999998      16.253011000000001
   734   2               18.138776      2.2840340000000001               15.328324
   735   5               17.974038               22.233411               10.187597
   736   2      18.871973000000001               22.007987               10.441805
   737   2               17.631007      22.727208000000001               10.936688
   738   5      36.093316000000002               31.071403               13.418488
   739   2               35.772185               30.585863               12.655042
   740   2      36.277228999999998                30.39256      14.072698000000001
   741   5               20.999948      44.558812000000003               11.874058
   742   2      20.935258000000001                44.63926               10.919559
   743   2      20.211753000000002      44.997396000000002      12.204262999999999
   744   5                33.51258      37.601815000000002      33.980279000000003
   745   2      33.086905999999999      38.425986000000002      34.227803999999999
   746   2      34.260272000000001      37.872126000000002      33.441270000000003
   747   5               10.479367      38.661574999999999     0.80812300000000004
   748   2               10.348006      39.415939999999999                1.387262
   749   2      10.837222000000001      39.040038000000003                0.001062
   750   5      10.896731000000001               28.922888               24.447153
   751   2      11.557620999999999               28.228721      24.391639000000001
   752   2      11.208664000000001      29.493068000000001      25.154426000000001
   753   5      6.6861449999999998      2.7494890000000001      1.9915609999999999
   754   2      7.4538799999999998      3.2355999999999998      2.3014060000000001
   755   2      5.9384690000000004      3.2154889999999998      2.3742700000000001
   756   5      17.941075999999999      21.090005999999999      30.568425000000001
   757   2      17.643941000000002               20.928303               29.669933
   758   2               17.881736      22.043181000000001      30.671275000000001
   759   5      20.427267000000001      27.835910999999999      3.0702790000000002
   760   2      20.158564999999999      26.955718000000001      2.7968109999999999
   761   2      21.180143000000001               27.686705      3.6478220000000001
   762   5      14.410062999999999      6.3034889999999999      9.5087550000000007
   763   2               13.704207      5.7453149999999997      9.1741879999999991
   764   2      14.277139999999999      7.1462199999999996      9.0674170000000007
   765   5               14.541879      33.996808000000001      27.608008999999999
   766   2               14.646948      34.488760999999997               26.790288
   767   2                13.67018      33.599643999999998      27.536999999999999
   768   5      19.870290000000001      8.7494350000000001      9.9170049999999996
   769   2               18.953681      8.5671979999999994               10.136872
   770   2      19.832391000000001      9.5406220000000008      9.3736560000000004
   771   5               19.281005      40.836713000000003      31.660101999999998
   772   2               19.013192                39.91751      31.588909000000001
   773   2      19.715464999999998      40.892954000000003      32.514926000000003
   774   5      22.210719000000001      5.2228770000000004      32.109081000000003
   775   2      21.810375000000001      5.2973030000000003               32.978513
   776   2      21.476033000000001      5.3248389999999999      31.498768999999999
   777   5               14.524759      4.0444849999999999      41.113151000000002
   778   2      15.295934000000001      4.3133759999999999      41.617840999999999
   779   2               13.885239      3.7783199999999999      41.778593000000001
   780   5      32.943027999999998               23.495953               30.086026
   781   2      32.478696999999997      23.211200000000002      29.295432999999999
   782   2      32.550713000000002      24.346288999999999               30.299709
   783   5               38.063896               13.603816               17.129953
   784   2      38.157212000000001               14.010797      17.994465999999999
   785   2               38.612831      14.140942000000001               16.553058
   786   5      34.532896000000001      17.255065999999999               31.457255
   787   2      35.274909999999998      17.854831000000001      31.564126999999999
   788   2               34.939028      16.396515000000001      31.313763000000002
   789   5      19.219532999999998      39.800719999999998                7.481757
   790   2               18.577237      39.098553000000003      7.6088069999999997
   791   2      20.067706999999999      39.349924999999999      7.4765249999999996
   792   5      42.581901999999999      42.978008000000003      8.3923819999999996
   793   2      43.203862999999998      43.655129000000002      8.1159839999999992
   794   2      42.229733000000003      42.627813000000003      7.5701999999999998
   795   5      35.939366999999997      40.170122999999997      24.241607999999999
   796   2      35.222693999999997      39.533822999999998               24.298413
   797   2      35.729425999999997      40.697133000000001      23.466477000000001
   798   5      33.001865000000002      25.217109000000001      16.363468999999998
   799   2      33.045157000000003      24.273077000000001      16.194192000000001
   800   2      33.614229000000002      25.357379000000002      17.090088999999999
   801   5      23.617543999999999      39.191141999999999      26.143906999999999
   802   2               22.687452      39.399630000000002      26.258735000000001
   803   2      23.640115000000002      38.233572000000002               26.071852
   804   5      13.797245999999999               15.637454      24.107963999999999
   805   2      13.998220999999999      15.026740999999999      23.394967999999999
   806   2      14.565924000000001      15.594625000000001               24.682371
   807   5      22.534997000000001               30.130633                1.448218
   808   2      23.451523000000002      30.298531000000001                1.679551
   809   2      22.510788999999999                30.21706     0.49187799999999998
   810   5     0.95375900000000002      42.544266999999998      40.968836000000003
   811   2      1.1391659999999999      43.429893999999997      41.289791999999998
   812   2      1.8173220000000001      42.183157999999999      40.753196000000003
   813   5                1.599272      16.318263999999999               12.295506
   814   2     0.84330099999999997      16.525991000000001      12.849657000000001
   815   2      2.0967410000000002               17.138873               12.253463
   816   5      31.561260000000001                 0.44821               14.110495
   817   2               30.779245   0.0060549999999999996      14.449134000000001
   818   2      32.293652000000002   0.0015219999999999999      14.542598999999999
   819   5      20.210982999999999               10.110742                3.323172
   820   2      20.184944000000002      10.198999000000001      4.2788170000000001
   821   2      19.984801999999998      9.1911570000000005      3.1624020000000002
   822   5      22.336808999999999      32.303928999999997      1.1603060000000001
   823   2               21.697402      32.979742000000002      1.3972880000000001
   824   2      23.189661000000001      32.717843000000002                1.315094
   825   5      37.357840000000003      11.576124999999999      25.421012999999999
   826   2      38.093013999999997      12.115038999999999      25.119655999999999
   827   2      37.053697999999997               11.123949      24.630016000000001
   828   5      22.348579999999998      44.448062999999998               14.947806
   829   2               22.527096      43.527686000000003               15.154598
   830   2      21.886925999999999      44.418097000000003      14.106009999999999
   831   5      35.924897999999999      33.328220000000002               15.633929
   832   2      35.547350999999999      34.199091000000003               15.489822
   833   2      36.836592000000003               33.412557      15.343508999999999
   834   5      23.497548999999999      40.883138000000002                0.330789
   835   2      23.218243999999999               40.037098     0.68846300000000005
   836   2      22.919958999999999               41.523336     0.75408299999999995
   837   5      37.377583000000001               10.855506      30.169163000000001
   838   2      36.786051999999998               10.116572               30.008568
   839   2      38.228530999999997      10.555732000000001      29.839518000000002
   840   5      30.134965999999999      36.741813999999998               41.814712
   841   2      29.230567000000001      36.985463000000003      41.603946000000001
   842   2               30.049377      35.953271999999998      42.356485999999997
   843   5               14.772726               15.559184      16.649933999999998
   844   2               15.109111      16.436171999999999      16.848586999999998
   845   2      13.857409000000001      15.583507000000001      16.940183999999999
   846   5      43.717168999999998      34.277329999999999                34.46857
   847   2      44.281861999999997      34.963431999999997      34.105099000000003
   848   2               44.146929      33.456229999999998               34.216096
   849   5      11.715711000000001      32.413184999999999      40.719893999999996
   850   2               11.618859               33.365029      40.640282999999997
   851   2      11.940685999999999      32.121394000000002      39.832827999999999
   852   5      7.2159069999999996      33.086514000000001               24.614345
   853   2      7.8334400000000004      32.429445000000001      24.284742999999999
   854   2      7.7122570000000001      33.566369000000002      25.282191000000001
   855   5      7.9926199999999996      20.932801000000001      23.164421999999998
   856   2      8.5819189999999992               20.532674      22.520721000000002
   857   2      7.1161799999999999               20.819654      22.788001000000001
   858   5      40.660742999999997                1.147359               37.839233
   859   2      41.604422999999997                1.319836      37.801223999999998
   860   2      40.257921000000003      2.0190480000000002      37.816105999999998
   861   5      26.705881000000002      34.155132999999999      32.071415999999999
   862   2      26.896533000000002      34.084352000000003      33.009695000000001
   863   2      25.792055999999999      34.448833999999998      32.035288000000001
   864   5      32.352356999999998      5.6491930000000004                 13.5206
   865   2      33.307352999999999      5.7463290000000002               13.504092
   866   2      32.122241000000002      5.4021809999999997               12.621338
   867   5      6.2574870000000002      6.7409809999999997      3.0876130000000002
   868   2      7.0023980000000003      6.9607260000000002      3.6520109999999999
   869   2      6.6533480000000003      6.3020810000000003      2.3304450000000001
   870   5               14.181899      10.710933000000001      37.591088999999997
   871   2      14.890413000000001               11.341687               37.739013
   872   2               14.516396      9.8870760000000004      37.954427000000003
   873   5      39.657449999999997      30.398555000000002      43.458407999999999
   874   2      39.114322999999999      31.139119000000001      43.738238000000003
   875   2      39.994289000000002               30.026947      44.277608000000001
   876   5      7.0385499999999999      10.963488999999999      14.034827999999999
   877   2      7.2754830000000004                10.14263               13.596902
   878   2      7.7607699999999999      11.123995000000001               14.647427
   879   5               11.552351      38.307279000000001               32.950882
   880   2                 12.0273      39.117941000000002      33.148300999999996
   881   2      10.924224000000001      38.217300000000002      33.671993999999998
   882   5      18.539380999999999               27.875809      35.891981000000001
   883   2      18.860918999999999      27.101506000000001      36.359732999999999
   884   2      18.442226999999999      28.543873000000001               36.575277
   885   5      29.661449000000001      2.0306670000000002      9.8247929999999997
   886   2      29.157378000000001      1.4298500000000001               10.378558
   887   2      29.095071999999998      2.1863450000000002      9.0647780000000004
   888   5      3.0833590000000002      39.716532000000001      28.868214999999999
   889   2      2.5441009999999999      40.182501000000002               28.224943
   890   2      3.5593530000000002      39.061971999999997      28.350892000000002
   891   5      17.654983000000001      39.179710999999998      26.171942000000001
   892   2               16.829507      38.689585999999998      26.181515999999998
   893   2               17.472984               39.942442      25.617180999999999
   894   5      21.972667000000001      7.1897419999999999      4.6127120000000001
   895   2      21.313386999999999      7.8307349999999998      4.3366660000000001
   896   2               21.600977      6.7909069999999998      5.4035460000000004
   897   5      42.067773000000003               17.227667      9.1140720000000002
   898   2      42.952800000000003      17.457854999999999      8.8217300000000005
   899   2      41.843006000000003      17.908802000000001      9.7529590000000006
   900   5      26.672744000000002      43.928274000000002      30.358661000000001
   901   2      26.805105000000001      43.398299000000002      31.148174000000001
   902   2      25.718278000000002               43.989193      30.269632000000001
   903   5               11.894133      43.212133999999999      35.853687999999998
   904   2      11.383648000000001      43.993127000000001      35.627460999999997
   905   2      12.713423000000001      43.312235999999999      35.362377000000002
   906   5      30.550909000000001      36.380878000000003                15.42022
   907   2      30.770077000000001      37.234259000000002               15.801575
   908   2               31.157107      36.287283000000002               14.681027
   909   5               14.937567      29.745467999999999               14.714551
   910   2               15.829105               29.635265               15.053283
   911   2               14.961402      29.339984999999999               13.844116
   912   5      26.650625000000002      42.808495999999998      1.5377989999999999
   913   2               26.525672                43.55874     0.95192699999999997
   914   2                25.77252      42.430759999999999                 1.63208
   915   5      42.709862000000001      31.525977999999999      28.820568999999999
   916   2      41.832267999999999               31.639519               29.192943
   917   2               43.209958      31.092376999999999      29.516656000000001
   918   5      25.954311000000001      30.230599000000002      13.617209000000001
   919   2                 25.1706               30.141012      13.069947000000001
   920   2      26.431266999999998               30.969756      13.231460999999999
   921   5      25.891808000000001      37.199924000000003      43.631698999999998
   922   2      24.947012000000001      37.126842000000003      43.477607999999996
   923   2               26.036693               36.725178      44.454053999999999
   924   5      9.4228670000000001      27.406639999999999      8.5680169999999993
   925   2      9.7972699999999993               27.891662      7.8288950000000002
   926   2      9.4892000000000003               28.013541      9.3095789999999994
   927   5      32.248967999999998      2.9697119999999999      7.0210189999999999
   928   2      32.805548999999999      2.3773789999999999      7.5319830000000003
   929   2               31.392142      2.9234390000000001      7.4527020000000004
   930   5      35.816985000000003               13.382066               11.460174
   931   2      35.070236999999999      12.779832000000001               11.422682
   932   2      36.051118000000002               13.529116      10.540281999999999
   933   5      7.0677399999999997      6.5680110000000003               14.210488
   934   2      6.1956110000000004      6.1939710000000003      14.064849000000001
   935   2                7.195074                 6.51302               15.160964
   936   5      2.2221350000000002                5.332967      12.432869999999999
   937   2                1.728963      4.5099419999999997               12.466571
   938   2                3.128682      5.0611579999999998               12.268756
   939   5      26.112314000000001               14.249758      44.017448000000002
   940   2               25.395788               14.853897      44.225611000000001
   941   2      26.557746999999999      14.656686000000001      43.270026000000001
   942   5      4.8681580000000002                8.160717               14.205083
   943   2      5.6071660000000003      8.6386409999999998               14.588725
   944   2      4.6301399999999999      7.5132469999999998      14.873494000000001
   945   5      42.945224000000003      20.694168000000001      13.598242000000001
   946   2      42.076698999999998      20.320855999999999               13.765656
   947   2      43.532355000000003      20.200704000000002      14.176526000000001
   948   5      26.465655999999999      5.3310919999999999      8.1555820000000008
   949   2               27.145602      4.7105730000000001      7.8829010000000004
   950   2      25.711262000000001      5.1171309999999997      7.6008279999999999
   951   5      2.6072039999999999      10.593398000000001      2.1863990000000002
   952   2      1.8000700000000001               10.360557                1.721592
   953   2                2.523584               11.535862                2.351966
   954   5      35.625501999999997      16.874846000000002      27.721706999999999
   955   2      36.120393999999997               16.130976               27.370331
   956   2      36.014400000000002               17.642706      27.295335999999999
   957   5      8.2706800000000005      27.139506000000001      28.641210000000001
   958   2      8.7439140000000002      27.876139999999999      28.247326999999999
   959   2      8.2319859999999991               27.353845      29.576733999999998
   960   5      44.520794000000002      36.826692000000001                24.29006
   961   2      44.581347000000001      37.737827000000003      23.993594000000002
   962   2      44.462777000000003      36.890591999999998               25.246717
   963   5      31.852762999999999      44.366377999999997      26.329059999999998
   964   2      32.344611999999998      44.623868000000002      25.545791000000001
   965   2      32.118011000000003      45.003382000000002      26.997274999999998
   966   5      36.434432999999999      6.0565889999999998      17.225670000000001
   967   2      37.349997000000002      6.2498399999999998      17.440429000000002
   968   2      36.486581999999999      5.3757169999999999      16.550142999999998
   969   5               21.863553      16.932777999999999      35.751058999999998
   970   2      21.511717999999998               16.353434      35.071134000000001
   971   2      22.503540000000001               16.390297      36.218791000000003
   972   5      1.3902239999999999      26.495429000000001      15.096268999999999
   973   2     0.55666099999999996      26.863451999999999      15.398688999999999
   974   2                1.136012               25.806068               14.477561
   975   5      31.862549000000001      26.198046000000001      41.719588000000002
   976   2      31.466958000000002      26.619212999999998      40.952874000000001
   977   2      32.683121999999997      26.677707999999999               41.858252
   978   5      17.502541999999998      21.925291999999999      36.880437000000001
   979   2               18.376935      21.830349999999999      37.265337000000002
   980   2      17.352602000000001      21.094902999999999      36.421509999999998
   981   5      32.947724999999998      33.274996999999999      34.847352000000001
   982   2      33.090516999999998      32.624550999999997      35.538913000000001
   983   2               32.042271      33.567570000000003      34.978482999999997
   984   5      19.172115999999999      4.8438610000000004      13.153491000000001
   985   2      18.265561999999999      4.9448379999999998               13.452971
   986   2      19.703178999999999      5.1433090000000004               13.895747
   987   5      44.999445999999999               14.597057               11.696482
   988   2      44.271720000000002               15.021635      12.156777999999999
   989   2      44.953842999999999      14.947889999999999               10.803466
   990   5      10.356066999999999      17.468959000000002      42.987678000000002
   991   2      9.5345779999999998      17.061904999999999               43.272613
   992   2      10.983079999999999      16.742090000000001      42.953633000000004
   993   5               10.177007               14.211119      28.396025000000002
   994   2               11.054745               14.440799               28.082103
   995   2      10.333066000000001               13.562037      29.086663000000001
   996   5      27.514092999999999      14.453844999999999      39.841540000000002
   997   2      27.209993999999998      13.757173999999999      39.255113000000001
   998   2      28.240179000000001               14.865577      39.366230000000002
   999   5      21.145472000000002      41.559368999999997      28.314644000000001
  1000   2      21.640242000000001      42.358057000000002      28.117097999999999
  1001   2      21.798985999999999      40.856836999999999      28.269815000000001
  1002   5      24.137989999999999                1.072281      33.447901000000002
  1003   2      24.451910000000002      1.7017530000000001      34.101309999999998
  1004   2      24.875378999999999     0.97116499999999994      32.840715000000003
  1005   5      11.082599999999999      43.081104000000003      7.0959500000000002
  1006   2               10.753171      42.710133999999996      7.9178889999999997
  1007   2               10.464502      42.770490000000002      6.4295299999999997
  1008   5      37.964756000000001               11.473279      17.754231999999998
  1009   2      37.549975000000003      10.679862999999999      18.100891000000001
  1010   2      38.756664999999998      11.580636999999999      18.287144000000001
  1011   5      34.238728999999999      42.870775999999999      9.9748009999999994
  1012   2      33.816654999999997      43.022418999999999      9.1259289999999993
  1013   2               33.703319      43.366759999999999      10.599282000000001
  1014   5               32.195166                3.753199      23.632473000000001
  1015   2      32.064709000000001      2.8190789999999999               23.811709
  1016   2      32.937812000000001      4.0012949999999998      24.188859999999998
  1017   5               28.077624      42.804625000000001               12.607911
  1018   2               27.339824      43.361474999999999               12.348499
  1019   2      27.724620000000002               42.253273               13.310791
  1020   5      29.561378000000001      17.623297000000001      38.753917000000001
  1021   2      30.024678000000002      16.880908999999999      39.148806999999998
  1022   2      28.898479999999999      17.864688999999998      39.405790000000003
  1023   5      16.416060999999999               14.560914               22.152144
  1024   2      17.007930999999999               14.315011      22.866949000000002
  1025   2      15.970397999999999      15.349342999999999               22.472151
  1026   5      36.890985999999998      22.720151000000001      24.061440000000001
  1027   2      37.834378999999998      22.813739999999999      24.213021000000001
  1028   2      36.484296000000001               23.133474      24.827214000000001
  1029   5      43.238666000000002      13.585972999999999               10.850607
  1030   2      42.531334000000001      13.535156000000001      10.203442000000001
  1031   2      43.895856000000002      12.960490999999999               10.535145
  1032   5      4.1759510000000004      23.031120999999999      43.229416000000001
  1033   2      3.5794039999999998               23.725783               43.518034
  1034   2      4.5316150000000004      22.668330999999998      44.044601999999998
  1035   5      12.290535999999999      41.077630999999997      15.238906999999999
  1036   2      13.165233000000001      40.698202999999999                15.12637
  1037   2               11.881406      40.536150999999997      15.918653000000001
  1038   5      17.924800000000001      38.778844999999997     0.50353099999999995
  1039   2               18.180695      38.105500999999997                1.138236
  1040   2      17.076067999999999      38.479677000000002                 0.16768
  1041   5               28.864711      44.314326000000001      8.0758019999999995
  1042   2               29.036908                 45.0246      8.6983650000000008
  1043   2      29.442309999999999      43.601877000000002      8.3611760000000004
  1044   5      35.147522000000002      41.078738999999999      7.3052739999999998
  1045   2      34.682904999999998      41.907299999999999      7.4443539999999997
  1046   2      34.477781999999998               40.485605      6.9555860000000003
  1047   5               40.880181               24.901356      40.275025999999997
  1048   2      40.536597999999998               24.540011      41.095455000000001
  1049   2                40.70467      24.219124999999998      39.622034999999997
  1050   5               13.411652      32.540360999999997      17.062812000000001
  1051   2               13.944602      33.176245000000002      16.579758000000002
  1052   2               13.949055      32.308557999999998      17.824459999999998
  1053   5      1.5619130000000001      35.076233000000002      6.6038300000000003
  1054   2                1.861861               35.204881      7.5067180000000002
  1055   2     0.71889700000000001      34.624885999999996      6.6946690000000002
  1056   5                7.341259      42.045805000000001               11.924476
  1057   2      6.9065289999999999      41.900033999999998               12.767973
  1058   2      8.2301090000000006      42.324098999999997      12.159293999999999
  1059   5               13.479376      7.5463789999999999               27.534855
  1060   2               13.799085      6.7707579999999998      27.068031999999999
  1061   2      13.788057999999999      7.4260999999999999      28.436458999999999
  1062   5      34.199018000000002               23.942681      20.129369000000001
  1063   2      34.340539999999997      23.070153000000001               20.504057
  1064   2      34.065933000000001      23.780892000000001      19.191949000000001
  1065   5      13.946457000000001      41.579351000000003               17.264505
  1066   2      13.604347000000001      40.682467000000003               17.281395
  1067   2      14.624731000000001      41.563051000000002               16.584564
  1068   5      13.777507999999999      44.043458000000001      37.707501999999998
  1069   2               12.982139      44.482576999999999      37.397199999999998
  1070   2               14.495929      44.579633999999999      37.362498000000002
  1071   5      25.139970000000002      3.6197509999999999      35.787384000000003
  1072   2      25.685967999999999      3.2314310000000002      35.099764999999998
  1073   2      25.685082000000001      3.5772590000000002      36.577123999999998
  1074   5      21.263466000000001      39.653799999999997               20.562147
  1075   2      20.653006999999999      39.851751999999998      21.276205999999998
  1076   2      20.931273000000001      38.835498000000001      20.184426999999999
  1077   5      21.380075999999999      41.167264000000003      34.738641999999999
  1078   2      20.945226000000002      41.909888000000002      35.164248000000001
  1079   2               21.479426      40.516379000000001      35.438012999999998
  1080   5               42.002063      38.797747000000001      39.937264999999996
  1081   2      41.886691999999996      37.844893999999996      39.959332000000003
  1082   2      41.234597999999998               39.141655      40.401339999999998
  1083   5      20.130704999999999      38.705199999999998      10.379148000000001
  1084   2      20.580712999999999      38.707487999999998      9.5310839999999999
  1085   2      19.863503000000001      37.791168999999996      10.504816999999999
  1086   5      7.1629339999999999      35.454554999999999      7.7764930000000003
  1087   2      7.2566639999999998      36.368706000000003      8.0544609999999999
  1088   2      7.7425350000000002      35.376415000000001      7.0145220000000004
  1089   5               25.580931               31.418668  -0.0012459999999999999
  1090   2      26.315470999999999      31.969743000000001                 0.27892
  1091   2               25.433394      30.823889000000001     0.73842399999999997
  1092   5      30.309066000000001      10.507206999999999                3.102093
  1093   2      29.685635000000001               11.162386      3.4242710000000001
  1094   2      30.606446999999999               10.051548                3.893662
  1095   5               22.993465      39.707104000000001      24.092110000000002
  1096   2      23.618957999999999      38.991957999999997      23.954090999999998
  1097   2      23.531942999999998      40.502237999999998      24.071003000000001
  1098   5      17.676387999999999      17.070367000000001      32.331014000000003
  1099   2      18.452515999999999      17.635114000000002      32.310732999999999
  1100   2      17.479320000000001      16.969432999999999      33.265689999999999
  1101   5                4.589448      6.2736999999999998      1.4581459999999999
  1102   2      4.7928860000000002      7.2111799999999997                1.496496
  1103   2      4.6935200000000004      6.0448639999999996                0.531084
  1104   5               22.533096      23.717648000000001      39.673344999999998
  1105   2               23.086005      22.959161999999999      39.471564999999998
  1106   2      21.669066999999998               23.481966      39.326141999999997
  1107   5      39.843989999999998      28.099333000000001      9.8919339999999991
  1108   2      38.923532999999999      28.365894000000001      9.9505060000000007
  1109   2      40.333539999999999               28.925355      9.9178149999999992
  1110   5      38.398363000000003      41.271605999999998               12.653027
  1111   2      37.574919999999999      40.874699999999997      12.359545000000001
  1112   2      38.826113999999997      40.581446999999997               13.166205
  1113   5      6.0372640000000004      39.550733000000001               26.841006
  1114   2      5.8926220000000002      39.725321000000001      27.773917000000001
  1115   2      5.6158149999999996      40.288085000000002      26.392302000000001
  1116   5      9.7278350000000007               11.713227               42.677042
  1117   2      9.8176520000000007               12.632999      42.937190999999999
  1118   2      8.8022550000000006               11.510246      42.834335000000003
  1119   5               11.637442               31.091383      23.600944999999999
  1120   2      12.452859999999999      31.120322999999999                24.10689
  1121   2      11.925643000000001      31.078669000000001      22.684747000000002
  1122   5      33.588624000000003               29.433754      29.482894999999999
  1123   2      33.687807999999997      28.550747000000001      29.119320999999999
  1124   2               34.322153      29.522684999999999      30.096627999999999
  1125   5               21.589064      15.468324000000001               41.621274
  1126   2      20.835039999999999      14.874169999999999      41.633668999999998
  1127   2      21.279585000000001      16.255828999999999      42.075918000000001
  1128   5               12.298076      5.7271140000000003      7.4831960000000004
  1129   2               11.709844      4.9886200000000001      7.6573630000000001
  1130   2               12.101861      5.9797710000000004      6.5774889999999999
  1131   5      28.740531000000001                 8.50502      44.215519999999998
  1132   2      28.980429000000001      9.4188320000000001      44.386172000000002
  1133   2      29.093668000000001      8.3252170000000003      43.340530000000001
  1134   5               34.485816      4.6527839999999996      21.348555999999999
  1135   2      35.028160999999997      5.4165679999999998      21.138269999999999
  1136   2      34.134011000000001      4.8433140000000003      22.221810999999999
  1137   5      2.6450420000000001      43.668306000000001      5.8780590000000004
  1138   2      2.0532919999999999               43.656751                5.122134
  1139   2                3.524718      43.661208000000002      5.4923630000000001
  1140   5      43.013294999999999               40.525503      17.863745999999999
  1141   2      43.629831000000003      41.215302000000001      17.607258999999999
  1142   2      43.037517999999999               39.900838      17.134467000000001
  1143   5      32.594616000000002                15.50337      21.257760999999999
  1144   2      32.922367999999999      15.703806999999999      20.377915999999999
  1145   2               32.557699               14.543941               21.285612
  1146   5      20.264113999999999      39.991446000000003      18.429984000000001
  1147   2      19.705134000000001      40.618968000000002               18.894185
  1148   2                 21.0063      40.516778000000002      18.120422000000001
  1149   5      17.382916999999999      28.724371999999999      44.732154999999999
  1150   2      17.412009999999999      27.765854999999998      44.686067000000001
  1151   2      17.422122000000002      29.008455999999999      43.815421000000001
  1152   5      26.205580999999999      23.857413999999999               36.295676
  1153   2               25.825737      24.590952000000001      35.806426000000002
  1154   2      27.150601000000002      24.029198000000001      36.287416999999998
  1155   5      43.682130999999998      27.379660000000001      41.116349999999997
  1156   2      43.301839999999999      26.759892000000001      41.743240999999998
  1157   2      42.989097999999998      27.515750000000001      40.465330000000002
  1158   5      37.813678000000003      5.2667289999999998      26.966951999999999
  1159   2      38.020543000000004                4.412172      27.352520999999999
  1160   2      36.890467000000001      5.1958209999999996      26.711421999999999
  1161   5      31.668323999999998               27.071379               31.915239
  1162   2      32.518742000000003      27.447293999999999      31.676069999999999
  1163   2      31.299562000000002      27.696798000000001      32.544133000000002
  1164   5      21.569683000000001      8.8518319999999999      20.967496000000001
  1165   2      21.009464000000001      8.2319980000000008      21.440449999999998
  1166   2      22.243607000000001      8.3015100000000004      20.560538999999999
  1167   5               20.518217               30.026339                10.61416
  1168   2      19.604648000000001      30.257622999999999                10.43079
  1169   2               20.748611      29.399381999999999      9.9238800000000005
  1170   5               25.114953      7.2233130000000001               15.428678
  1171   2      25.064433000000001      6.9375739999999997      14.513514000000001
  1172   2      25.027456000000001      6.4128170000000004               15.936696
  1173   5                0.773613      40.598258999999999      43.213461000000002
  1174   2     0.99535499999999999               40.777718      42.296754999999997
  1175   2     0.97650999999999999      39.666634999999999      43.329869000000002
  1176   5      24.572044000000002      4.5798889999999997      13.768523999999999
  1177   2               24.434372      4.0608310000000003      14.564356999999999
  1178   2      23.716625000000001      4.5778930000000004      13.331607999999999
  1179   5      24.685518999999999                3.330273      40.284804000000001
  1180   2      24.339238000000002      2.4839600000000002      40.577325999999999
  1181   2      24.108575999999999      3.5865939999999998      39.560870999999999
  1182   5      41.341684999999998      21.696331000000001      19.420155999999999
  1183   2      41.546497000000002      22.614222999999999      19.227150999999999
  1184   2      40.574598999999999      21.739332000000001      19.996673000000001
  1185   5               39.725794               23.722583      36.409734999999998
  1186   2      39.205514999999998      23.496238000000002      37.184204000000001
  1187   2               39.486829               24.633333      36.219805999999998
  1188   5      4.1630229999999999               16.974249      24.939063000000001
  1189   2      3.4765280000000001      16.303108000000002      24.934619999999999
  1190   2      4.7804099999999998      16.679348000000001      25.613236000000001
  1191   5               33.190832               44.095098      20.510992999999999
  1192   2      32.355696999999999      43.684280000000001      20.275400999999999
  1193   2      33.116072000000003      44.993856999999998      20.180409000000001
  1194   5               23.193901      35.508006999999999      1.2648740000000001
  1195   2      23.848973000000001      34.810642000000001                1.185578
  1196   2               22.373542      35.098143999999998     0.97910200000000003
  1197   5      43.216830999999999      12.224869999999999      41.473531999999999
  1198   2      42.766437000000003               12.604293      40.715305000000001
  1199   2      43.851846000000002               11.613325               41.092205
  1200   5      29.739484999999998      25.377341999999999      19.580431999999998
  1201   2               29.655213      24.589068999999999               20.121955
  1202   2      29.143450999999999      25.224723999999998      18.842804000000001
  1203   5                3.715802      35.565891999999998      9.4973799999999997
  1204   2      2.9230070000000001      35.830632000000001      9.9697289999999992
  1205   2                3.598725      34.624993000000003                 9.34361
  1206   5               21.890487               15.050469               14.338758
  1207   2               21.954708      15.845942000000001               13.805068
  1208   2      22.423998000000001      15.240189000000001               15.114654
  1209   5      30.898603000000001               16.405082      9.0669959999999996
  1210   2      31.400666000000001      16.670659000000001      8.2929639999999996
  1211   2      31.407171999999999               16.742925      9.8085229999999992
  1212   5               25.560112      19.933191000000001      41.484549000000001
  1213   2      26.428218000000001      19.523240000000001      41.492095999999997
  1214   2      24.953302999999998      19.209855000000001      41.661211000000002
  1215   5      4.5555690000000002      35.138252000000001                26.28548
  1216   2      5.1844919999999997      34.431488000000002               26.122187
  1217   2      4.2094670000000001      35.355021999999998      25.416074999999999
  1218   5      36.938493999999999      23.964919999999999      17.026440000000001
  1219   2      37.099803999999999               23.872125      17.968295999999999
  1220   2      36.327815000000001      24.703430999999998      16.960750999999998
  1221   5      22.783636000000001      34.264896999999998      29.109048999999999
  1222   2      21.955773000000001      34.507067999999997               28.687479
  1223   2               22.743471      34.684693000000003      29.972066999999999
  1224   5   0.0024099999999999998      1.0162709999999999      27.474920999999998
  1225   2     0.42482599999999998                1.120957      26.619157999999999
  1226   2     0.18021599999999999     0.10432900000000001      27.718620999999999
  1227   5      44.399076000000001      43.597107000000001      23.086545999999998
  1228   2      43.571210999999998      43.720489000000001      23.556802999999999
  1229   2      44.160060000000001      43.672325999999998      22.159261999999998
  1230   5               43.446047                1.948529      4.3155390000000002
  1231   2               43.208396                1.018845      4.3461119999999998
  1232   2               44.381408                1.948464      4.0970420000000001
  1233   5      39.751975000000002               11.396321               28.303587
  1234   2      40.337721000000002               11.750059      27.630165000000002
  1235   2      38.930092000000002               11.223058               27.837615
  1236   5      12.184924000000001               15.470435      18.464179000000001
  1237   2      12.404121999999999               16.401097               18.377309
  1238   2      12.025700000000001                15.34967               19.403703
  1239   5      13.712642000000001      6.9216600000000001               23.189142
  1240   2               14.570224      6.4910569999999996               23.218463
  1241   2                13.53004      7.1518639999999998      24.103639000000001
  1242   5      35.091374000000002      34.089821999999998      44.944940000000003
  1243   2      36.023541000000002      33.916215000000001      44.794441999999997
  1244   2      34.920223999999997      34.904631000000002      44.465944999999998
  1245   5      7.2811209999999997      40.685504000000002      8.8539809999999992
  1246   2      7.1686300000000003               40.486863      7.9214510000000002
  1247   2      6.5367790000000001               41.253563      9.0682369999999999
  1248   5               14.044896      29.219494000000001      23.720064000000001
  1249   2      13.721489999999999               28.625366               24.401346
  1250   2      14.489406000000001               28.643597      23.092852000000001
  1251   5                41.35971      43.700104000000003               43.564926
  1252   2      41.300655999999996      43.772877999999999      42.609447000000003
  1253   2      41.878104999999998      42.904926000000003               43.711897
  1254   5      24.855440999999999      37.273547000000001               39.006881
  1255   2      24.578378000000001      36.469042000000002      39.451552999999997
  1256   2      24.774190999999998      37.069240999999998      38.071840999999999
  1257   5      44.004325999999999               37.739272      36.164777000000001
  1258   2      44.914723000000002      37.687353000000002      36.465122000000001
  1259   2      43.525308000000003      37.149757999999999      36.752701999999999
  1260   5      7.0160220000000004      19.033276999999998      30.093648999999999
  1261   2      7.2130960000000002      18.093865000000001      30.073831999999999
  1262   2      7.7972469999999996      19.448723999999999      29.719840999999999
  1263   5      37.567024000000004               14.813236      43.432949000000001
  1264   2      38.368009000000001               15.237881      43.116998000000002
  1265   2      36.856124999999999               15.364105      43.095593000000001
  1266   5      44.998959999999997               16.998078      8.2614219999999996
  1267   2               44.941426               17.829898      7.7855119999999998
  1268   2      44.882162999999998               16.327216      7.5839670000000003
  1269   5      41.477533999999999               40.103952      33.498564000000002
  1270   2      41.903968999999996      40.899321999999998      33.826078000000003
  1271   2      41.450505999999997      40.222963999999997      32.545805999999999
  1272   5               34.116954               29.698497               23.628504
  1273   2      33.688263999999997      30.111761000000001      24.381606000000001
  1274   2      34.890923999999998      30.243652000000001      23.465965000000001
  1275   5      40.374212999999997      37.794217000000003      34.417530999999997
  1276   2                40.63194      38.068697999999998      33.534376000000002
  1277   2      39.611445000000003      37.227345999999997               34.277949
  1278   5      6.5009059999999996      42.924512999999997      37.729242999999997
  1279   2      6.9838500000000003      42.368952999999998      37.112929999999999
  1280   2      6.8781040000000004      42.712971000000003      38.586922000000001
  1281   5      4.2016809999999998      33.626035999999999      5.5885980000000002
  1282   2                4.063631      34.062170999999999      4.7445279999999999
  1283   2      5.1413859999999998               33.728617      5.7591070000000002
  1284   5      9.9071899999999999                7.343032      8.1794069999999994
  1285   2      10.711961000000001      6.9304680000000003      8.5016789999999993
  1286   2      10.196948000000001      8.1888690000000004      7.8283480000000001
  1287   5      7.5248220000000003      29.137682000000002      17.112635999999998
  1288   2      7.8980170000000003      29.951602000000001      16.766248000000001
  1289   2      7.2888869999999999      29.350404000000001      18.019127000000001
  1290   5               24.293084               22.059645      3.3705039999999999
  1291   2      24.597788000000001               21.189384                3.103059
  1292   2               23.705323               22.334543      2.6622599999999998
  1293   5                30.87274               25.316616      7.7868320000000004
  1294   2      30.315380999999999      25.579944000000001      8.5228579999999994
  1295   2      31.691790999999998      25.029886999999999      8.1986369999999997
  1296   5      34.291513000000002      21.941887000000001               22.936532
  1297   2      33.492350999999999                22.44454      22.762160999999999
  1298   2      34.987419000000003      22.603294000000002                 22.9665
  1299   5      27.077462000000001      43.015081000000002      28.049084000000001
  1300   2      27.981902000000002      42.776164999999999      28.265032000000001
  1301   2      26.542750999999999      42.357345000000002      28.500868000000001
  1302   5      8.5510959999999994               38.415053      34.249150999999998
  1303   2      8.9785690000000002      38.922082000000003               34.943351
  1304   2                7.735144      38.890785000000001      34.074387000000002
  1305   5                3.358892      39.616396999999999               21.683232
  1306   2      3.8473860000000002      40.287723999999997      21.201132999999999
  1307   2      2.8176869999999998      40.113461999999998      22.301832000000001
  1308   5               25.078806               20.563454               12.513888
  1309   2      24.259961000000001               20.546619               13.014821
  1310   2               25.761087      20.385740999999999               13.166233
  1311   5               12.033756      34.693801000000001               26.529923
  1312   2               12.667068                35.41507      26.550198000000002
  1313   2               11.216269      35.102531999999997      26.234463000000002
  1314   5                0.183891               30.997342      5.1205740000000004
  1315   2   0.0019710000000000001      30.751339999999999      6.0305809999999997
  1316   2                0.235239      30.159908000000001      4.6529090000000002
  1317   5               12.521245               17.043132      39.292867000000001
  1318   2      12.007270999999999               16.243392               39.426924
  1319   2               13.299006               16.748918      38.812067999999996
  1320   5               17.022119               23.406081                2.574065
  1321   2      17.051964000000002      24.344207000000001      2.3721869999999998
  1322   2      16.280159999999999      23.075368999999998                2.061455
  1323   5      12.020709999999999      10.685612000000001      28.231961999999999
  1324   2               11.270662               10.403086      28.760480999999999
  1325   2               12.770835               10.620027      28.828327000000002
  1326   5      35.997089000000003                11.30583      19.532962000000001
  1327   2               35.448138      11.338359000000001      20.319929999999999
  1328   2      36.346440000000001      12.196638999999999               19.448957
  1329   5      1.7006669999999999               14.522608                0.215943
  1330   2     0.89133899999999999      14.340536999999999     0.69922700000000004
  1331   2      2.0069650000000001               15.360896     0.57104299999999997
  1332   5      9.1002770000000002      11.013113000000001               12.490159
  1333   2      9.7283819999999999               11.731308      12.383368000000001
  1334   2      8.3039210000000008               11.325929               12.053575
  1335   5      29.690816999999999      32.191743000000002      29.359097999999999
  1336   2      29.336237000000001      33.082920000000001      29.316645000000001
  1337   2               28.938644      31.626411000000001               29.166024
  1338   5      36.283830000000002      40.539315999999999               14.108471
  1339   2      35.691622000000002               39.826715               13.857047
  1340   2      36.806933000000001      40.172716999999999               14.825835
  1341   5      29.349291000000001      16.003208999999998      3.8141970000000001
  1342   2      29.985340999999998               16.455154      4.3735819999999999
  1343   2      28.865145999999999      16.711895999999999      3.3829099999999999
  1344   5      25.171807000000001     0.69305499999999998      5.4289690000000004
  1345   2      26.130227000000001     0.67623900000000003      5.4825860000000004
  1346   2      24.955100000000002                 1.62304      5.3250080000000004
  1347   5      37.161490000000001      32.762340000000002      37.748354999999997
  1348   2      37.575840999999997                31.92287      37.961258999999998
  1349   2      36.519154999999998               32.545406               37.067923
  1350   5      12.843227000000001      21.409680000000002                0.001964
  1351   2               13.559804      22.047553000000001    0.038863000000000002
  1352   2      12.445218000000001               21.447412     0.87535200000000002
  1353   5      17.944268999999998               13.545683                1.651494
  1354   2      17.292107000000001               13.108411      2.2039460000000002
  1355   2      17.425042000000001                13.99475     0.97964300000000004
  1356   5      7.3398680000000001      32.993974999999999      9.2112759999999998
  1357   2      6.9297120000000003      33.859948000000003      9.2711780000000008
  1358   2      6.6488189999999996      32.426609999999997      8.8602919999999994
  1359   5      38.846820000000001      8.8542740000000002      17.821909999999999
  1360   2      39.263314999999999      8.5948530000000005               18.647112
  1361   2      38.642769000000001      8.0229389999999992      17.386151000000002
  1362   5      42.605485999999999               19.604692      10.922330000000001
  1363   2      41.674461999999998      19.666011000000001               11.148514
  1364   2      42.723987999999999      20.251964000000001               10.222588
  1365   5      28.533055999999998      1.2442789999999999      19.929269999999999
  1366   2      27.830867000000001                1.510535               20.527403
  1367   2      28.657247000000002      2.0036589999999999      19.354327000000001
  1368   5      42.760440000000003                34.50658      18.523962000000001
  1369   2      42.257564000000002               34.732436               19.309984
  1370   2      42.594374000000002      33.569218999999997      18.395834000000001
  1371   5      37.655712000000001      30.091916999999999      24.351244999999999
  1372   2               37.942563      29.479026999999999      23.670211999999999
  1373   2               37.037115      30.674106999999999      23.902875999999999
  1374   5      13.482108999999999      28.667321999999999               38.838006
  1375   2      14.151968999999999               29.005443      38.239100999999998
  1376   2               13.030251      29.452238000000001               39.157964
  1377   5               15.693113      32.636783000000001      41.134253000000001
  1378   2               15.408884      31.954592999999999      41.747078999999999
  1379   2               14.884321      33.099108999999999      40.900258999999998
  1380   5      21.212368999999999               31.811194      6.8904670000000001
  1381   2      21.764917000000001                 31.9649                6.120539
  1382   2               21.677671               32.247287      7.6087699999999998
  1383   5      5.0760129999999997      6.1700939999999997      40.988565000000001
  1384   2      4.2930510000000002      5.7040639999999998      41.291072999999997
  1385   2      4.7369839999999996      6.8474890000000004      40.397939000000001
  1386   5      28.441700999999998      3.9516939999999998      43.966670999999998
  1387   2               29.120922                4.559221               43.664524
  1388   2      28.018028999999999                4.411295      44.695993999999999
  1389   5      7.9379350000000004      8.9303779999999993      22.887353999999998
  1390   2      7.4757800000000003      8.1009449999999994               22.745307
  1391   2      7.8767240000000003      9.0782659999999993      23.834468000000001
  1392   5      31.161504000000001      42.306131000000001               14.725776
  1393   2      31.363503000000001      42.443655999999997      13.797332000000001
  1394   2      30.204789999999999      42.224606000000001      14.752102000000001
  1395   5               30.792589      29.799568000000001      30.312266999999999
  1396   2      29.860576999999999      29.818975999999999      30.082699000000002
  1397   2      30.899989999999999      28.981584000000002      30.804210999999999
  1398   5      5.7764519999999999      23.525573000000001      7.7663549999999999
  1399   2      4.8741969999999997               23.291819      7.5360940000000003
  1400   2      6.2651380000000003               22.703097      7.6805690000000002
  1401   5      17.685528000000001               14.021328      40.914166999999999
  1402   2               18.254254               13.842661      41.666732000000003
  1403   2      16.922377000000001      13.454586000000001      41.052168999999999
  1404   5      27.212879999999998      21.950261999999999      13.904268999999999
  1405   2      27.632038999999999      21.592611999999999               13.118065
  1406   2      26.882359999999998               22.808978               13.628577
  1407   5               29.512093               37.945321               24.412699
  1408   2               30.052381      38.715805000000003      24.602875000000001
  1409   2      29.874206999999998      37.596285999999999      23.594353000000002
  1410   5      4.7871480000000002      33.099485999999999      19.069662999999998
  1411   2      5.5280290000000001      32.816076000000002               19.610495
  1412   2      4.3864330000000002      32.280895999999998      18.766383999999999
  1413   5      13.165554999999999               33.783935      35.267102999999999
  1414   2               12.856088      32.878867999999997      35.184587000000001
  1415   2               14.090373      33.698298000000001               35.512093
  1416   5      29.296530000000001               10.900973      30.492647000000002
  1417   2      28.467148000000002               10.699629      30.052976000000001
  1418   2               29.230746               11.834291      30.709973000000002
  1419   5               22.204348      33.307195999999998      44.168833999999997
  1420   2      23.008112000000001      33.815755000000003               44.299436
  1421   2      22.506112000000002      32.477108000000001      43.791297999999998
  1422   5     0.53851300000000002      39.231524999999998               40.711883
  1423   2   0.0083470000000000003      39.008285999999998      41.480527000000002
  1424   2    0.012796999999999999      39.882815000000001      40.240622000000002
  1425   5      27.791125000000001      23.848687000000002      34.197662999999999
  1426   2      28.718406000000002      24.097014999999999      34.212102000000002
  1427   2      27.320091000000001      24.685805999999999      34.197133999999998
  1428   5      4.9746550000000003      37.621026999999998               12.901646
  1429   2      5.8815530000000003      37.316960000000002               12.819165
  1430   2      4.6067539999999996      37.084803000000001                13.60858
  1431   5      30.531497000000002      40.946460000000002               33.505941
  1432   2               31.227836      41.216227000000003      34.109318000000002
  1433   2      30.522763999999999      39.987789999999997               33.565258
  1434   5      21.441542999999999      38.928260000000002               12.894857
  1435   2      21.071712000000002      38.741663000000003               13.760959
  1436   2      20.716062999999998      39.325311999999997      12.406318000000001
  1437   5      32.072724999999998               15.219664               13.490427
  1438   2      33.027118999999999               15.277716      13.576950999999999
  1439   2               31.801071               14.656164      14.219340000000001
  1440   5      9.0410649999999997                3.196307               22.239075
  1441   2      9.4924909999999993      2.7166220000000001               22.937531
  1442   2      9.7227709999999998                 3.75129               21.851889
  1443   5      3.7270590000000001     0.70149399999999995      29.065913999999999
  1444   2                3.895683                1.646166      29.095662999999998
  1445   2      2.8650500000000001     0.62617900000000004      28.648890000000002
  1446   5               10.489646      9.0646989999999992      32.441341999999999
  1447   2               11.354039      8.7140129999999996      32.668430000000001
  1448   2      10.201439000000001      8.5267400000000002      31.699601999999999
  1449   5      16.115252999999999      4.5134119999999998      23.347263000000002
  1450   2               15.762577      4.6897690000000001      24.222615999999999
  1451   2      16.368296999999998      3.5871940000000002      23.374313999999998
  1452   5      2.8337300000000001      7.4276059999999999      12.017092999999999
  1453   2                1.916998      7.5206289999999996      11.747510999999999
  1454   2      3.2667320000000002                7.031015               11.256917
  1455   5               13.132569      5.8880460000000001                1.353666
  1456   2               13.241346      6.8146690000000003      1.1272549999999999
  1457   2      13.470910999999999      5.4145700000000003                0.589476
  1458   5      3.8763369999999999               15.192513      7.5669409999999999
  1459   2      4.8316429999999997      15.134512000000001      7.6427740000000002
  1460   2      3.6858520000000001               14.853455      6.6886489999999998
  1461   5      40.903255999999999      41.100732000000001      23.797370999999998
  1462   2      41.077008999999997      41.981881999999999      23.458093000000002
  1463   2      41.264107000000003      41.112518999999999      24.687477999999999
  1464   5               31.601702      43.496599000000003      9.9701730000000008
  1465   2      30.696552000000001      43.772353000000003               10.132621
  1466   2      31.929221999999999      44.124079000000002      9.3208339999999996
  1467   5      39.016637000000003      34.677078000000002               14.292296
  1468   2      39.869846000000003      35.110498999999997               14.369135
  1469   2               38.378259      35.379393999999998      14.440170999999999
  1470   5      42.594563999999998      6.2360860000000002               26.471363
  1471   2      41.987251000000001      6.9792680000000002      26.447382000000001
  1472   2               43.446773      6.6309719999999999      26.672478999999999
  1473   5      7.8591569999999997      16.588032999999999               40.851436
  1474   2      7.9057760000000004               17.546885      40.838965999999999
  1475   2      7.3093789999999998      16.385930999999999      41.612712000000002
  1476   5      25.998736000000001      23.833352000000001      1.4731780000000001
  1477   2      26.831589999999998      23.435162999999999                1.736853
  1478   2                26.01868      23.814147999999999     0.51303399999999999
  1479   5      30.830636999999999               23.962436      31.682438999999999
  1480   2               30.655127      23.044657000000001      31.902899999999999
  1481   2      30.433720000000001               24.079535               30.815614
  1482   5      29.452518000000001      29.151444999999999      9.0532719999999998
  1483   2      29.447862000000001               28.715069      8.1981230000000007
  1484   2      28.539781000000001      29.106089999999998      9.3490690000000001
  1485   5      26.157004000000001      7.4274990000000001      2.9301810000000001
  1486   2      26.600280999999999      8.2775490000000005      2.8787419999999999
  1487   2      26.867457000000002      6.7839970000000003                  2.8685
  1488   5      17.083825000000001      12.997985999999999      44.052590000000002
  1489   2               16.624043               12.814254      43.230052999999998
  1490   2      17.751777000000001               13.645318      43.812918000000003
  1491   5      25.337216999999999      42.897343999999997      34.016772000000003
  1492   2      24.998162000000001      42.131756000000003      33.547046999999999
  1493   2               25.408562      43.578166000000003      33.342951999999997
  1494   5               10.992505               13.861392      21.102423000000002
  1495   2               11.817014               13.384902      20.980492000000002
  1496   2               10.599976               13.886816      20.226113999999999
  1497   5      36.199092999999998      32.154575999999999      9.8472299999999997
  1498   2      36.341712000000001      33.083665000000003      9.6518350000000002
  1499   2      36.292541999999997               31.715284      8.9981530000000003
  1500   5      38.157186000000003                1.415646      40.073199000000002
  1501   2      38.498278999999997      1.6713880000000001      40.933418000000003
  1502   2      38.814805999999997      1.7365299999999999      39.450935999999999
  1503   5      5.0290290000000004      13.080287999999999      37.936096999999997
  1504   2      4.5285919999999997      13.826707000000001      38.273949999999999
  1505   2                5.932544               13.254683      38.211576000000001
  1506   5      37.264332000000003      3.2988930000000001      16.784054000000001
  1507   2      37.286411999999999      2.3535379999999999               16.618098
  1508   2      38.010826999999999      3.4560029999999999      17.367750999999998
  1509   5      22.792604000000001      43.153879000000003      10.615850999999999
  1510   2               22.063803      42.759796000000001      11.100899999999999
  1511   2      22.507922000000001      43.132387000000001      9.6987159999999992
  1512   5      5.7822990000000001      25.616935000000002      36.437341000000004
  1513   2      6.5931509999999998      25.979220999999999      36.802021000000003
  1514   2      5.3911980000000002      26.348254000000001      35.952722000000001
  1515   5      23.209012000000001                2.784348      7.6058620000000001
  1516   2      22.397369999999999      3.2368389999999998      7.8471390000000003
  1517   2      22.930689999999998                2.115612      6.9750120000000004
  1518   5      40.173287999999999      35.809871000000001      4.5959909999999997
  1519   2      40.362752999999998      35.245778000000001                3.842581
  1520   2      41.003034999999997      36.261181999999998      4.7705780000000004
  1521   5      34.481467000000002               24.563402      14.525615999999999
  1522   2      35.108607999999997               25.132223      14.978232999999999
  1523   2      34.112918999999998               25.118095      13.833424000000001
  1524   5      15.423546999999999      41.401971000000003      43.915452999999999
  1525   2      16.339024999999999      41.421526999999998               44.203972
  1526   2      15.408798000000001      40.746712000000002      43.213270999999999
  1527   5      24.298494999999999      5.5229869999999996      29.959410999999999
  1528   2               24.031492      6.4450839999999996      29.946311000000001
  1529   2      24.003820999999999      5.2015710000000004      30.815273000000001
  1530   5     0.75769799999999998      43.620261999999997      14.082611999999999
  1531   2     0.64577099999999998      43.272148999999999               14.970314
  1532   2                1.586006               43.239587      13.779901000000001
  1533   5      34.132429000000002      30.424631000000002      41.468310000000002
  1534   2      34.244512999999998      31.367038999999998      41.613326999999998
  1535   2      34.450892000000003      30.281555000000001      40.573461999999999
  1536   5               23.425462               21.562244     0.63627800000000001
  1537   2      23.773396000000002      20.805904000000002      1.1144160000000001
  1538   2      22.851313000000001      21.178657999999999   -0.031447000000000003
  1539   5      32.272345999999999      5.4180190000000001                3.916982
  1540   2      31.425996000000001      5.8448520000000004      4.0693970000000004
  1541   2      32.785899000000001      5.6192130000000002      4.7033829999999996
  1542   5      28.356280000000002               21.206692      37.685861000000003
  1543   2      28.171869000000001               20.862161      36.808925000000002
  1544   2               28.886785               20.523602      38.103706000000003
  1545   5      37.471091000000001      2.6372409999999999      11.620881000000001
  1546   2      38.151246999999998      3.0761660000000002               11.104685
  1547   2      36.653221000000002      2.8416760000000001               11.160515
  1548   5               11.538413               16.010873      37.266798000000001
  1549   2      10.760719999999999      15.456367999999999               37.363968
  1550   2               11.434464               16.418125               36.403095
  1551   5      32.078608000000003      34.345775000000003      44.359980999999998
  1552   2      32.941234000000001      34.020524999999999      44.092002000000001
  1553   2               31.767623               33.698864      44.998288000000002
  1554   5      6.0386839999999999               10.669157      33.938088999999998
  1555   2                6.788214      10.757745999999999      34.531452999999999
  1556   2      6.0475969999999997      9.7442189999999993      33.679141999999999
  1557   5      6.7933909999999997               40.489272                1.760284
  1558   2      7.5045400000000004      40.874057999999998      1.2426630000000001
  1559   2      6.8205220000000004      40.965660999999997      2.5939260000000002
  1560   5      5.4321859999999997               21.534212      37.849181000000002
  1561   2      4.8574120000000001      20.777864999999998               37.988101
  1562   2      5.0026060000000001      22.035111000000001      37.151181999999999
  1563   5      1.6150709999999999               15.245089      42.853878999999999
  1564   2     0.82125899999999996      14.802903000000001               43.163812
  1565   2                1.385993               16.177899      42.859433000000003
  1566   5     0.93408800000000003      36.731355000000001      40.283523000000002
  1567   2   0.0018090000000000001      36.743532000000002               40.512501
  1568   2      1.0225949999999999      37.408625999999998      39.608161000000003
  1569   5               20.410705      6.8955099999999998               10.966025
  1570   2      20.633811999999999      7.4975800000000001      11.679790000000001
  1571   2      20.251885000000001      6.0553350000000004                11.40366
  1572   5      42.000635000000003      37.066688999999997      18.209738999999999
  1573   2      42.275775000000003      37.862668999999997               17.748828
  1574   2      42.796382000000001      36.759987000000002      18.651737000000001
  1575   5      29.955134000000001      39.360653999999997      7.0594320000000002
  1576   2      30.189519000000001      38.565254000000003      7.5433000000000003
  1577   2      29.643166999999998      39.039538999999998                6.209606
  1578   5      43.750723000000001                6.671913      3.7160760000000002
  1579   2               42.818047      6.6049100000000003      3.4984730000000002
  1580   2      43.863999999999997      6.0806659999999999      4.4645659999999996
  1581   5               15.682459      34.459268999999999      23.834108000000001
  1582   2      16.104210999999999      34.835104000000001      24.610378999999998
  1583   2      16.197126000000001      34.796298999999998      23.096429000000001
  1584   5      21.269348999999998               20.577164      9.3332599999999992
  1585   2      20.843499000000001      20.228217999999998      8.5467399999999998
  1586   2      20.554621000000001               20.676371      9.9672660000000004
  1587   5      33.528823000000003      12.753335999999999      23.983142000000001
  1588   2      33.382908999999998      12.934062000000001      24.914684999999999
  1589   2      32.718873000000002      13.041454999999999      23.554646000000002
  1590   5      25.454201999999999               29.839966      3.6481780000000001
  1591   2      26.182065000000001      30.254055999999999      4.1177210000000004
  1592   2      25.795480999999999      29.691348999999999      2.7626930000000001
  1593   5      18.863824000000001      9.3130360000000003      6.1568370000000003
  1594   2      18.459299000000001      9.2826310000000003      5.2866879999999998
  1595   2      19.140426999999999      8.4083000000000006      6.3229280000000001
  1596   5      43.216608999999998     0.26722299999999999               35.658268
  1597   2      42.688519999999997   0.0012819999999999999      36.414656000000001
  1598   2               43.870784     0.86820799999999998      36.023662999999999
  1599   5      44.286633999999999      26.158688000000001      25.503063999999998
  1600   2      43.424475999999999      26.205151000000001               25.922884
  1601   2      44.123762999999997      26.422992000000001      24.594076999999999
  1602   5      33.403832999999999               12.129527                3.648695
  1603   2      34.184015000000002               11.600901      3.4654069999999999
  1604   2               33.695788               12.765203      4.3069660000000001
  1605   5                11.12412      8.9322189999999999      35.652172999999998
  1606   2      11.910742000000001      8.5457959999999993      36.044127000000003
  1607   2      10.969758000000001      8.4086700000000008      34.861786000000002
  1608   5      10.141690000000001      2.1182349999999999      11.453927999999999
  1609   2      9.5489879999999996                1.579143               10.924958
  1610   2                10.08653      2.9917530000000001      11.058244999999999
  1611   5               30.824209                0.014921      7.4391730000000003
  1612   2      30.955746000000001     0.82133699999999998      7.9432729999999996
  1613   2      31.505718999999999                0.042677                6.762848
  1614   5               30.912101      39.825662999999999      21.776409999999998
  1615   2               30.541255               39.417178      22.562118000000002
  1616   2      30.170922999999998      40.285817000000002      21.374472000000001
  1617   5               15.195392      27.376647999999999                1.255601
  1618   2               15.765628      28.137917999999999      1.1251230000000001
  1619   2               14.557198      27.431315999999999     0.53980700000000004
  1620   5      33.969886000000002      12.215301999999999      42.353704999999998
  1621   2      33.030645999999997      12.030398999999999      42.426943999999999
  1622   2      34.381084000000001               11.611666      42.977550000000001
  1623   5      23.021851000000002               12.563487      39.564081999999999
  1624   2               23.491315               11.813851                39.93741
  1625   2      23.102806000000001      13.251111999999999      40.229860000000002
  1626   5      44.183638000000002      6.6836599999999997      7.3050730000000001
  1627   2               44.294224      7.1730429999999998      6.4865370000000002
  1628   2      43.308219000000001                6.930377      7.6139650000000003
  1629   5                0.000118                2.770343      21.463283000000001
  1630   2     0.40710200000000002                3.612857      21.678363000000001
  1631   2     0.71699500000000005                2.245574      21.098116999999998
  1632   5                 1.36999      2.5261900000000002      33.677827000000001
  1633   2                1.950331      3.2657479999999999               33.482934
  1634   2      1.4000429999999999      2.4451860000000001      34.634475999999999
  1635   5                7.833914               21.869277      39.960213000000003
  1636   2      7.5806620000000002      22.558122000000001      39.341278000000003
  1637   2      8.3496260000000007               21.253377      39.433573000000003
  1638   5               12.211945      27.207194999999999               17.054496
  1639   2               12.935241               26.592758      16.909465000000001
  1640   2               12.521587      27.776994999999999      17.763079999999999
  1641   5     0.77566000000000002      4.4027909999999997      3.7141310000000001
  1642   2                1.057248                3.535666      4.0150079999999999
  1643   2                0.207922                4.221069      2.9609429999999999
  1644   5      31.522791999999999                2.249441      43.934584000000001
  1645   2      30.629594000000001      2.1922579999999998      44.281933000000002
  1646   2               32.009155                 1.57481      44.415173000000003
  1647   5      15.328188000000001      28.484394999999999      40.018163000000001
  1648   2               14.761066               28.026021      40.642654999999998
  1649   2               16.004033      28.892741000000001      40.565091000000002
  1650   5      39.663443999999998      42.668258999999999      6.1767580000000004
  1651   2      38.833860000000001      42.185039000000003      6.1731889999999998
  1652   2                40.20776               42.202776      6.8168259999999998
  1653   5      16.027581999999999      30.247267999999998      25.931076000000001
  1654   2      15.294975000000001      30.835705999999998      25.734221999999999
  1655   2      16.214908999999999      29.811972999999998               25.095571
  1656   5      29.088664999999999      39.143627000000002      39.435831999999998
  1657   2      28.424721000000002      39.187064999999997      40.127941999999997
  1658   2      29.510497999999998      40.006359000000003      39.455610999999998
  1659   5               15.902777      39.496504999999999      5.2228450000000004
  1660   2               15.149143               40.069409      5.0630300000000004
  1661   2               15.515855      38.630946000000002      5.3769299999999998
  1662   5      40.803553999999998               21.437179      5.2721119999999999
  1663   2      40.354379999999999               20.635064      5.5488410000000004
  1664   2      40.259140000000002               21.781623      4.5596410000000001
  1665   5      36.331941999999998               15.383243      9.3512719999999998
  1666   2      37.042003999999999               15.677885      9.9263569999999994
  1667   2      36.449964999999999      15.893504999999999      8.5460740000000008
  1668   5      22.664111999999999      40.386076000000003      30.938459999999999
  1669   2      22.047771999999998               40.096263      31.615113000000001
  1670   2      23.526468999999999      40.316139999999997      31.355702000000001
  1671   5      10.004784000000001      35.615054999999998      11.383236999999999
  1672   2      9.7728000000000002      36.376047999999997      11.920636999999999
  1673   2                10.89184      35.806848000000002      11.068612999999999
  1674   5      40.965789999999998     0.72615200000000002      32.643942000000003
  1675   2      41.838613000000002     0.53252999999999995      32.294060999999999
  1676   2      41.136513999999998                1.199451      33.462161999999999
  1677   5      3.8000259999999999      30.729717000000001      9.4174900000000008
  1678   2      4.2776230000000002      29.928191000000002                9.191255
  1679   2      4.2859780000000001      31.094954000000001      10.161193000000001
  1680   5                 1.14262      20.398482000000001               27.069018
  1681   2                1.797803      21.048614000000001      26.804842000000001
  1682   2     0.56614299999999995      20.872911999999999      27.673362000000001
  1683   5      32.838056000000002      8.1963229999999996      37.190958000000002
  1684   2      33.033124999999998      8.8953039999999994      37.819527000000001
  1685   2      32.305711000000002      7.5702340000000001      37.688212999999998
  1686   5      5.8102460000000002      19.430382999999999      36.382361000000003
  1687   2      6.2677630000000004               20.265877      36.262557000000001
  1688   2      5.9934390000000004               18.940555      35.576661000000001
  1689   5      16.281047000000001      24.179649999999999      41.840913999999998
  1690   2                15.60577               24.236072      41.160809999999998
  1691   2      16.004141000000001      24.815791999999998      42.505209000000001
  1692   5      31.870156999999999               23.153243      17.726293999999999
  1693   2      32.670183000000002                22.62349      17.693961000000002
  1694   2      31.969283999999998      23.686669999999999      18.518930000000001
  1695   5      6.7101220000000001      38.596465999999999      9.2400500000000001
  1696   2      7.5671119999999998      38.406730000000003      8.8510849999999994
  1697   2      6.4541339999999998      37.774270000000001      9.6656150000000007
  1698   5      24.846340000000001               28.314556      7.2028780000000001
  1699   2               24.267156      27.696843000000001      7.6553190000000004
  1700   2      24.933796999999998      29.050599999999999      7.8138050000000003
  1701   5      35.101903999999998                 0.04403               12.097277
  1702   2      35.856684999999999     0.42087000000000002      12.555561000000001
  1703   2      34.414259999999999  3.1999999999999999e-05               12.766494
  1704   5      37.539107999999999      25.355924000000002      38.305079999999997
  1705   2      37.740330999999998                25.32413               37.366878
  1706   2      37.998657999999999               24.597085      38.673344999999998
  1707   5               23.751376      31.757421000000001      7.0601789999999998
  1708   2               24.367134      32.045929000000001      7.7379179999999996
  1709   2      23.845334000000001      30.801621999999998      7.0439369999999997
  1710   5      5.2068669999999999      40.343907000000002                3.949414
  1711   2      4.5406240000000002      39.805880000000002      3.5153949999999998
  1712   2      5.8100759999999996      39.706885999999997      4.3405480000000001
  1713   5      2.0666169999999999               31.403813      32.740167999999997
  1714   2      2.9362089999999998      31.809578999999999                32.76999
  1715   2      2.1238830000000002      30.769812000000002      32.020859000000002
  1716   5      32.940922999999998      37.855499999999999      22.461760000000002
  1717   2      33.134036000000002      38.409253999999997               23.221885
  1718   2      31.987826999999999      37.738968999999997      22.487645000000001
  1719   5               20.381228      35.158748000000003      39.502653000000002
  1720   2      19.550491999999998      35.314455000000002               39.047286
  1721   2      21.039587999999998      35.589433999999997      38.951551000000002
  1722   5      41.740805999999999      32.979745000000001      4.8689499999999999
  1723   2      40.978169999999999      32.438605000000003      5.0863849999999999
  1724   2      41.522125000000003      33.369272000000002      4.0186039999999998
  1725   5      44.187258999999997                4.221044      43.723922999999999
  1726   2      45.001412999999999      3.7150500000000002      43.777301999999999
  1727   2      44.302047000000002      4.7763439999999999      42.948611999999997
  1728   5      6.7039160000000004      31.729368999999998      40.042167999999997
  1729   2      7.1894840000000002      32.450265000000002      39.634422000000001
  1730   2      7.3840490000000001               31.173835      40.431325999999999
  1731   5               34.759459      27.818491000000002      21.188019000000001
  1732   2      34.047533000000001      27.525054000000001      21.761413000000001
  1733   2      35.554434000000001      27.695599000000001      21.712952999999999
  1734   5               17.821382      41.837366000000003      30.025466000000002
  1735   2                 16.9832      42.304287000000002      29.991413999999999
  1736   2               17.583921      40.938431000000001               30.266651
  1737   5      41.148425000000003      28.824463000000002      23.546586999999999
  1738   2      41.882205999999996               29.363909      23.242798000000001
  1739   2      40.651724999999999      29.404102999999999      24.129636999999999
  1740   5      39.948267999999999      4.0361960000000003      19.386050000000001
  1741   2      39.035474999999998      4.2235290000000001               19.154881
  1742   2      40.318131000000001      3.6386790000000002      18.593696000000001
  1743   5      38.136011000000003               27.009508      34.070095999999999
  1744   2      37.248170000000002               27.329618               33.894047
  1745   2               38.022371      26.070146999999999      34.235411999999997
  1746   5      17.424855999999998                2.835712      31.169108000000001
  1747   2      18.228418999999999      3.2613150000000002               31.477124
  1748   2      16.896757999999998      2.7203119999999998      31.963107999999998
  1749   5      39.812372000000003      25.148192999999999                 0.79579
  1750   2      39.151699000000001      24.514610000000001     0.50629299999999999
  1751   2      39.355063999999999      25.992771000000001     0.78173199999999998
  1752   5      43.381467999999998      21.890416999999999      40.529699000000001
  1753   2      42.835664999999999      22.475262000000001      39.998868999999999
  1754   2      44.278652999999998      22.197545000000002      40.376814000000003
  1755   5               18.664057      44.579599999999999               30.704594
  1756   2      17.830203999999998      44.133733999999997      30.870781000000001
  1757   2               19.283849      43.867626999999999                30.52685
  1758   5               15.134005      9.1443989999999999      8.7181339999999992
  1759   2      14.256259999999999      9.2314520000000009      8.3390409999999999
  1760   2               15.032347      9.4420940000000009                9.625705
  1761   5      6.3861509999999999      25.297236999999999      27.677085000000002
  1762   2      6.1826420000000004      26.181387999999998      27.991070000000001
  1763   2      6.4216990000000003      24.763252000000001      28.474730999999998
  1764   5               39.054997      33.021872000000002      3.3765290000000001
  1765   2      38.691091999999998      33.908861000000002      3.3260480000000001
  1766   2               38.529826      32.586834000000003      4.0529760000000001
  1767   5      35.305841000000001      35.579633000000001      40.274166000000001
  1768   2               34.478724      35.635961000000002      39.789987000000004
  1769   2      35.279066999999998               34.715201      40.692115999999999
  1770   5               22.264533      4.6723319999999999      35.757027000000001
  1771   2      22.643840000000001      5.5024150000000001               36.055045
  1772   2      22.628976000000002      4.5458559999999997      34.877352000000002
  1773   5      44.999744999999997      42.679501000000002      44.171041000000002
  1774   2      44.517783999999999      42.728172999999998               44.999938
  1775   2      44.568942999999997      43.326222999999999      43.606414999999998
  1776   5      43.585821000000003               14.025321      36.692202999999999
  1777   2               44.110844               14.768696      36.386476000000002
  1778   2      43.006366999999997      14.401177000000001               37.359741
  1779   5      4.0290929999999996      30.907876000000002               21.326518
  1780   2      3.2108680000000001               30.998016      20.832446000000001
  1781   2      3.9013270000000002      30.117515999999998               21.857225
  1782   5      16.021059000000001               31.999447      5.1557839999999997
  1783   2      16.846471000000001               32.464931                5.309876
  1784   2               15.597417      32.492899999999999      4.4489080000000003
  1785   5      19.634664000000001      9.2281490000000002      25.726718000000002
  1786   2      19.644158000000001      8.9999669999999998      24.794212000000002
  1787   2      20.063939999999999      8.4851569999999992      26.158374999999999
  1788   5      8.7452649999999998               36.835414      21.544855999999999
  1789   2      7.8892429999999996      36.535468000000002      21.230236999999999
  1790   2      9.0127500000000005      36.167588000000002      22.181332000000001
  1791   5      8.4622299999999999      32.928097999999999               35.384971
  1792   2      8.5558490000000003      31.972916000000001               35.409205
  1793   2      9.1095199999999998      33.247272000000002      36.018836999999998
  1794   5               23.309424                30.38063      42.813260999999997
  1795   2      23.882933999999999      29.613520999999999      42.879246000000002
  1796   2      22.856674999999999      30.268322000000001      41.973590000000002
  1797   5      28.908522000000001               32.448608               12.751994
  1798   2      27.999065999999999      32.685414999999999      12.948302999999999
  1799   2      29.159438000000002      33.038564999999998      12.036708000000001
  1800   5      25.088055000000001               36.280797      35.677244999999999
  1801   2               24.913242      35.355333999999999      35.863478000000001
  1802   2      25.362448000000001               36.291086      34.756785999999998
  1803   5      7.7702299999999997      13.509050999999999      18.527968999999999
  1804   2      7.0264699999999998               14.027901      18.843153000000001
  1805   2      8.1285159999999994      14.023528000000001      17.800242999999998
  1806   5      1.5974109999999999      6.3048789999999997               34.751002
  1807   2      2.3729369999999999      5.9853110000000003      34.283926000000001
  1808   2     0.88498100000000002      5.7369859999999999      34.446728999999998
  1809   5      6.5541429999999998               44.600465               16.027981
  1810   2      5.6199279999999998      44.702336000000003      16.224426999999999
  1811   2      6.6603560000000002      44.999684999999999      15.160811000000001
  1812   5      4.1177929999999998      20.624130999999998               35.467793
  1813   2      3.8134839999999999      21.452221999999999               35.089129
  1814   2      3.5044810000000002      20.450952999999998      36.186472000000002
  1815   5      8.0183169999999997               35.699351      3.0098370000000001
  1816   2      7.7416410000000004      35.556690000000003                2.101639
  1817   2      8.4824380000000001               34.892578      3.2472219999999998
  1818   5               14.441519      16.325562999999999                 4.60154
  1819   2      14.719811999999999      16.529319999999998                5.497509
  1820   2                13.55457      16.688935000000001                4.538907
  1821   5      16.278725999999999      31.533090999999999      16.110389000000001
  1822   2               15.338339      31.597467999999999               15.928034
  1823   2      16.699380999999999      31.769245999999999               15.279774
  1824   5      21.490960000000001               11.007068      29.828099000000002
  1825   2      21.586974999999999               10.109802      30.155850000000001
  1826   2      22.173736999999999      11.502886999999999      30.287033999999998
  1827   5      42.265847999999998      20.416699000000001      25.378309000000002
  1828   2      42.642785000000003               19.596145               25.052218
  1829   2               42.042195                20.22925                26.29345
  1830   5               13.699845      38.337792999999998      2.9606490000000001
  1831   2               14.328706      38.671304999999997      2.3164220000000002
  1832   2               13.872493      38.854291000000003      3.7518910000000001
  1833   5               27.279709      37.627853000000002      1.0290969999999999
  1834   2      28.120028999999999      37.302818000000002      1.3606689999999999
  1835   2      26.764527000000001      37.806806000000002                1.819796
  1836   5      14.522823000000001               15.669461               40.441364
  1837   2      14.996586000000001      16.406269999999999      40.834285999999999
  1838   2               15.194867      15.186896000000001      39.953378000000001
  1839   5      16.944292999999998      37.744205999999998      18.952905999999999
  1840   2      16.996745000000001               36.969237      19.517171999999999
  1841   2      16.918040000000001               37.388444               18.061062
  1842   5               17.433657      36.707904999999997      3.8081749999999999
  1843   2      16.932162000000002      35.903799999999997                3.961938
  1844   2      16.901025000000001      37.205077000000003      3.1822629999999998
  1845   5      20.732278999999998      27.262661000000001      40.012963999999997
  1846   2               20.721252      27.030504000000001      40.944471999999998
  1847   2      20.344131999999998      26.502082999999999      39.573072000000003
  1848   5                1.193486                 2.13923               28.936798
  1849   2                1.956529      2.6775799999999998      29.159662999999998
  1850   2                1.100697      1.5378609999999999      29.680026000000002
  1851   5                13.33399      9.7155539999999991      34.714753999999999
  1852   2                14.16094      9.5742429999999992      34.247947000000003
  1853   2               13.092926      10.621142000000001      34.503940999999998
  1854   5               23.406174      42.654257999999999      30.334807000000001
  1855   2               24.267795      42.244965000000001      30.226126000000001
  1856   2      23.504954999999999      43.525581000000003      29.942786999999999
  1857   5      1.5305960000000001      28.359107000000002               12.876166
  1858   2      1.2009920000000001      29.236318000000001               12.667392
  1859   2     0.97366600000000003      28.061122999999998      13.599819999999999
  1860   5      29.104569999999999               28.151118      33.416891999999997
  1861   2               29.517018      28.995771000000001      33.221513000000002
  1862   2      28.461521000000001      28.352454999999999      34.101430999999998
  1863   5      5.1520640000000002      41.123956999999997      6.6235670000000004
  1864   2      4.2067889999999997      40.965133999999999                 6.56921
  1865   2      5.5482990000000001      40.266314000000001      6.4501099999999996
  1866   5      44.984574000000002      27.708459999999999      18.785502000000001
  1867   2      44.928773999999997      28.640799999999999      18.563345000000002
  1868   2      44.295228999999999      27.578009000000002      19.441572000000001
  1869   5      39.805427000000002      35.256737000000001      36.500708000000003
  1870   2      40.183613000000001      35.179870999999999      35.621622000000002
  1871   2               40.180636      36.068384000000002      36.851548999999999
  1872   5      44.665134999999999      18.811464999999998      17.522038999999999
  1873   2      43.709629999999997      18.718796999999999      17.534220999999999
  1874   2      44.943483000000001      18.310293000000001               16.751331
  1875   5     0.73207900000000004      37.683795000000003      5.8731989999999996
  1876   2                1.261342      38.406061000000001                5.526878
  1877   2                1.286138      37.284818000000001      6.5488299999999997
  1878   5      26.083168000000001               11.901705      35.523009000000002
  1879   2      26.235240999999998               10.972505               35.335431
  1880   2      26.287292000000001      11.992883000000001               36.457172
  1881   5      33.920549000000001      14.531048999999999      43.255358999999999
  1882   2      33.820951000000001      15.302035999999999               42.691989
  1883   2      34.247534999999999               14.883898      44.086754999999997
  1884   5      40.257181000000003               28.892429      27.411000999999999
  1885   2      39.362093000000002      28.653935000000001               27.663318
  1886   2      40.143031000000001      29.559190999999998               26.729063
  1887   5               23.866187      3.9896989999999999                2.837466
  1888   2      23.291226999999999      4.1212679999999997                3.594986
  1889   2      24.489107000000001                3.317374      3.1248550000000002
  1890   5      6.1197179999999998    0.017180999999999998      39.966664999999999
  1891   2      6.9716839999999998                0.011035      39.524124999999998
  1892   2      5.4791920000000003    0.010463999999999999      39.250897000000002
  1893   5      7.0409490000000003      8.6682079999999999      16.781345999999999
  1894   2      7.3834590000000002      8.5835530000000002                15.88846
  1895   2                6.141445      8.3361490000000007      16.724150000000002
  1896   5      42.930588999999998      2.9678529999999999      42.255436000000003
  1897   2      42.560999000000002      2.8693970000000002      43.136023999999999
  1898   2               42.242286      2.6417950000000001      41.670144000000001
  1899   5      17.435044999999999               15.946346                3.354892
  1900   2      17.257757999999999      16.605281000000002      4.0302429999999996
  1901   2      16.790655000000001               16.130758                2.666855
  1902   5      36.403896000000003      17.465309000000001      42.412019999999998
  1903   2      36.915267999999998      18.253032999999999      42.212736999999997
  1904   2      35.497549999999997      17.777937000000001      42.470695999999997
  1905   5      19.251038000000001      38.030245999999998      21.511869999999998
  1906   2      18.352049999999998      37.932509000000003      21.189391000000001
  1907   2               19.633284      37.153652999999998               21.421785
  1908   5      22.348064999999998      35.924019000000001      42.746059000000002
  1909   2      22.744403999999999      36.781986000000003                42.57714
  1910   2      22.129249999999999      35.942404000000003               43.681165
  1911   5               27.367217     0.75739800000000002      28.810839000000001
  1912   2      27.587565000000001     0.85149900000000001      29.740525999999999
  1913   2      28.189295000000001     0.94496899999999995      28.350788000000001
  1914   5      37.395000000000003      40.927424000000002               44.999775
  1915   2      36.550766000000003               40.470658      44.980829999999997
  1916   2               38.032111               40.262324      44.727058999999997
  1917   5      26.435085000000001               27.639429      13.246669000000001
  1918   2      25.896955999999999      26.873214000000001               13.458935
  1919   2      25.915262999999999      28.124299000000001                12.60066
  1920   5      44.053291000000002                2.510751      15.413486000000001
  1921   2      43.626949000000003      2.8472330000000001               14.621819
  1922   2      44.974088000000002      2.4044140000000001               15.161555
  1923   5      35.201573000000003               14.683252      33.176611000000001
  1924   2               34.808529      14.403973000000001               32.346404
  1925   2      36.118974000000001      14.864414999999999      32.957070000000002
  1926   5      43.343618999999997      17.310746999999999      6.3761939999999999
  1927   2      43.090561000000001      18.018498999999998      5.7788880000000002
  1928   2      42.509017999999998      16.957716999999999                6.694712
  1929   5      39.814703999999999                 1.12131      2.7158660000000001
  1930   2      40.027208999999999     0.81592699999999996      3.6009120000000001
  1931   2               39.465311     0.34392299999999998      2.2728809999999999
  1932   5      36.662126999999998      40.034922000000002      8.9345770000000009
  1933   2      36.958665000000003      40.856506000000003      8.5360929999999993
  1934   2      35.772325000000002      40.226360999999997      9.2415719999999997
  1935   5      1.3159460000000001      23.169329000000001      41.444969999999998
  1936   2      1.5691729999999999               23.961586      41.924480000000003
  1937   2                1.557358      23.354645999999999      40.533915999999998
  1938   5      29.668866000000001      7.9341939999999997      5.1674009999999999
  1939   2      29.530076000000001      8.8597649999999994                5.381367
  1940   2               30.310368      7.9483090000000001      4.4526159999999999
  1941   5      27.339362000000001      6.0097170000000002      42.468470000000003
  1942   2               27.492296      5.0806699999999996      42.280828999999997
  1943   2      27.287241999999999      6.0540190000000003      43.426574000000002
  1944   5      9.0455550000000002      23.049023999999999      28.202532999999999
  1945   2      8.2124310000000005      23.524996000000002      28.169661999999999
  1946   2      8.8987829999999999      22.355989000000001      28.851224999999999
  1947   5      13.438940000000001      28.502894999999999      21.060587000000002
  1948   2      12.724811000000001      28.239933000000001      20.475269999999998
  1949   2               13.949672               29.132655      20.545612999999999
  1950   5      36.253692999999998      44.193976999999997      29.992850000000001
  1951   2               35.959052      43.845436999999997      30.837499000000001
  1952   2      35.737523000000003      44.995030999999997      29.872333000000001
  1953   5      34.840291999999998      8.9654360000000004               21.599072
  1954   2      34.804454999999997      9.2780149999999999      20.692025000000001
  1955   2      35.778967000000002      8.9088270000000005      21.794844999999999
  1956   5      19.152418999999998      1.0649649999999999      9.7248149999999995
  1957   2               19.453896      1.9754700000000001      9.7674380000000003
  1958   2                19.28613     0.81220999999999999      8.8078210000000006
  1959   5               41.879697               35.659416      31.397282000000001
  1960   2               41.809483      34.845263000000003      30.893346999999999
  1961   2      42.468299000000002      35.440026000000003      32.123958000000002
  1962   5      4.9310790000000004      4.7056570000000004      25.589894000000001
  1963   2      5.7831029999999997      4.7454970000000003                25.14922
  1964   2      4.4655019999999999                5.486491               25.279767
  1965   5               15.529562               16.381311      37.197642000000002
  1966   2               14.750819      16.935140000000001      37.105137999999997
  1967   2      15.262805999999999      15.696137999999999      37.815721000000003
  1968   5               19.552543      18.572493999999999     0.84397200000000006
  1969   2      19.815798000000001      19.269722000000002      1.4491940000000001
  1970   2               18.860142      18.099195999999999                1.312173
  1971   5      32.966710999999997      36.868073000000003      4.5879849999999998
  1972   2      32.398164999999999      36.105131999999998      4.4599200000000003
  1973   2      33.687126999999997      36.735551000000001                3.966631
  1974   5      21.041402000000001               21.551848                1.126663
  1975   2               21.144053      22.375834000000001     0.64475499999999997
  1976   2      20.311592000000001      21.717175000000001      1.7288969999999999
  1977   5      31.084544000000001      42.446492999999997      41.482942999999999
  1978   2                31.25732               41.504593      41.551488999999997
  1979   2      31.273879999999998      42.788116000000002      42.360489000000001
  1980   5               32.104467      7.0197960000000004      26.001135999999999
  1981   2      32.389997000000001      6.5338419999999999                26.77834
  1982   2      31.318339999999999      6.5543889999999996      25.704415000000001
  1983   5      6.2090810000000003      3.5392239999999999               16.045562
  1984   2      5.8039620000000003      2.8544459999999998      16.582854999999999
  1985   2      6.7843049999999998      3.0606469999999999               15.443296
  1986   5      35.844687999999998      13.835167999999999               24.232377
  1987   2               35.475147               14.199997      25.039881999999999
  1988   2      36.375030000000002               14.548914      23.869133000000001
  1989   5               11.491284      35.198455000000003      35.078659000000002
  1990   2      10.739731000000001      34.762511000000003      35.487124999999999
  1991   2      11.131061000000001      35.599795999999998      34.283796000000002
  1992   5               34.040554     0.63591299999999995      8.0554380000000005
  1993   2      33.449570999999999    0.047260000000000003                7.580095
  1994   2      34.519969000000003                0.058989      8.6554059999999993
  1995   5      32.601714999999999      6.4555629999999997      1.6626939999999999
  1996   2               31.923721      6.6699900000000003      1.0176590000000001
  1997   2      33.392971000000003                6.310727      1.1377379999999999
  1998   5      39.719729999999998               39.295586      30.959084000000001
  1999   2      38.795648999999997      39.069932000000001      30.829160000000002
  2000   2      39.982897999999999      39.708191999999997      30.132560999999999
  2001   5      36.719394000000001      27.412154000000001                1.535906
  2002   2      35.894826999999999      27.772856000000001                1.870134
  2003   2      36.949053999999997      27.984736999999999     0.79966800000000005
  2004   5      18.788202999999999      42.130701999999999               28.018625
  2005   2      19.370425999999998      42.857661999999998      28.251581999999999
  2006   2      19.217687000000002      41.712319000000001      27.268198000000002
  2007   5      8.6610220000000009      15.312276000000001      9.7925830000000005
  2008   2      9.1155650000000001               15.104072      8.9729690000000009
  2009   2      9.2929549999999992               15.838879               10.288558
  2010   5      39.613543999999997               20.382465      38.854180999999997
  2011   2      40.260812999999999      19.780805999999998      38.478982000000002
  2012   2               39.857301      20.447178000000001      39.781022999999998
  2013   5      2.9460449999999998      21.549458999999999               24.905027
  2014   2      3.5547879999999998      20.815968000000002      25.019691999999999
  2015   2      3.5129969999999999      22.304469000000001      24.728483000000001
  2016   5      37.869661999999998      34.180109000000002               34.924678
  2017   2      37.776618999999997      34.034432000000002      35.869053999999998
  2018   2      37.049182999999999      33.849362999999997      34.550429000000001
  2019   5               20.971007      43.792560000000002                1.542891
  2020   2      21.579478000000002      43.599428000000003                 2.25996
  2021   2      21.203787999999999      43.162337999999998     0.85639500000000002
  2022   5      35.886293999999999      24.879132999999999      22.705712999999999
  2023   2      36.077008999999997      25.819534000000001      22.737300999999999
  2024   2               35.163269               24.761478      23.327031000000002
  2025   5      43.854143999999998               12.027956      12.941558000000001
  2026   2      43.171743999999997      12.701249000000001      12.993830000000001
  2027   2      43.926706000000003      11.691883000000001               13.838459
  2028   5      31.198346999999998      26.396343000000002               16.796229
  2029   2               30.805961      25.931222000000002               17.538805
  2030   2      30.446847999999999      26.733540000000001      16.302071999999999
  2031   5               14.702617      28.570923000000001      8.5817800000000002
  2032   2      14.350942999999999      27.715171000000002      8.8381760000000007
  2033   2      14.114649999999999      28.870978000000001      7.8839949999999996
  2034   5               18.383274      9.5857299999999999      15.733401000000001
  2035   2      18.389845999999999                8.670852      16.024398999999999
  2036   2      17.740047000000001      9.6044900000000002               15.020275
  2037   5               27.499209               42.952517      4.8862860000000001
  2038   2               27.200806      43.864418999999998                4.852881
  2039   2      27.455863000000001      42.721426000000001      5.8176079999999999
  2040   5      15.433554000000001      37.354047999999999               11.958871
  2041   2               14.503422      37.122436999999998      12.013052999999999
  2042   2                15.43482      38.303961999999999      11.816380000000001
  2043   5      11.804677999999999                  27.462               26.980456
  2044   2               11.845405               26.958064      26.164297000000001
  2045   2               12.674085      27.350321000000001      27.373266999999998
  2046   5      19.958058000000001      16.214939000000001               12.960766
  2047   2               20.158248      17.144431999999998               12.827757
  2048   2      19.266490000000001      16.213004000000002               13.627378
  2049   5      39.179175999999998                1.339412      26.428968999999999
  2050   2               38.905752      2.1607759999999998      26.844087999999999
  2051   2               39.914057                1.590948      25.863883999999999
  2052   5               36.109223      8.8910210000000003      16.073270000000001
  2053   2      35.955818999999998      7.9532889999999998               16.210566
  2054   2      35.783956000000003      9.0582999999999991               15.185091
  2055   5               14.736051      27.380952000000001               12.870051
  2056   2               14.691297      26.422090000000001      12.887543000000001
  2057   2      13.821910000000001      27.660641999999999               12.776451
  2058   5      27.589082999999999      39.576379000000003      17.803222999999999
  2059   2               27.916646      39.077263000000002      18.555095000000001
  2060   2      27.883279000000002      40.475845999999997      17.967694000000002
  2061   5      12.327389999999999      10.587699000000001      11.833539999999999
  2062   2      12.324579999999999               11.547637      11.818136000000001
  2063   2      12.071778999999999      10.362901000000001      12.731744000000001
  2064   5               13.028013      37.856620999999997      16.092943000000002
  2065   2               13.597894      38.427818000000002               15.572659
  2066   2               12.323439      38.434868000000002      16.396004999999999
  2067   5      10.061553999999999      17.060445000000001      8.6203230000000008
  2068   2               10.633063               17.542358      8.0179430000000007
  2069   2      9.7579209999999996      17.724979000000001      9.2438959999999994
  2070   5      20.977969000000002                6.001957      20.568815000000001
  2071   2      20.621362000000001      5.8562409999999998      21.448202999999999
  2072   2      20.222031999999999      6.2868690000000003      20.049175000000002
  2073   5      18.463912000000001      33.504021000000002      43.482514999999999
  2074   2               17.556687      33.711621000000001      43.718246000000001
  2075   2               18.969935      33.718077999999998      44.270400000000002
  2076   5      16.186147999999999      6.5273159999999999      41.293317999999999
  2077   2      15.598095000000001                7.280151      41.197620000000001
  2078   2               16.292621      6.4270990000000001      42.242666999999997
  2079   5      1.3681160000000001               20.292192               14.902716
  2080   2     0.60050499999999996      19.722892999999999               14.994351
  2081   2                1.033377      21.073658999999999               14.455613
  2082   5      8.9599810000000009               24.303075      34.037852999999998
  2083   2      9.6984279999999998      24.529320999999999      34.608145999999998
  2084   2      9.3139269999999996      24.378789999999999      33.148116999999999
  2085   5      13.164091000000001               32.930391      32.966925000000003
  2086   2               14.109197      32.926431000000001      32.798152999999999
  2087   2               12.945943      33.858992999999998      33.079849000000003
  2088   5      18.527394000000001      37.085841000000002      8.8683460000000007
  2089   2      17.850539999999999      37.462072999999997      9.4358339999999998
  2090   2      18.050305000000002      36.800832999999997      8.0848929999999992
  2091   5      35.231872000000003      18.736305000000002                16.73564
  2092   2               34.311771      18.840278999999999      16.482006999999999
  2093   2      35.195391000000001               18.311377      17.596305999999998
  2094   5      4.7373370000000001               31.618772                2.666814
  2095   2      4.0125229999999998      32.220502000000003      2.8519920000000001
  2096   2      4.9243309999999996      31.750686000000002      1.7339290000000001
  2097   5               31.461344      10.634105999999999               14.586157
  2098   2      32.184730000000002      11.259024999999999               14.675113
  2099   2               31.044791               10.868591               13.753005
  2100   5      14.450386999999999      24.769400000000001      36.445742000000003
  2101   2      14.770435000000001               25.674032      36.415145000000003
  2102   2               14.865866      24.395793000000001      37.227046999999999
  2103   5      31.213865999999999      32.376581000000002                15.49446
  2104   2      31.025093999999999      31.437045999999999                15.43646
  2105   2      30.566956999999999      32.786011000000002               14.914358
  2106   5      4.6386909999999997               11.678025      11.645842999999999
  2107   2      4.2931229999999996      10.833102999999999               11.943189
  2108   2      4.2289500000000002               11.814593               10.787879
  2109   5               12.333834      23.853200000000001      4.1527209999999997
  2110   2               12.366045               22.927657                4.405818
  2111   2      11.588882999999999      23.909496000000001      3.5489649999999999
  2112   5      40.405310999999998     0.92350699999999997               17.296858
  2113   2      40.854582000000001      1.4239459999999999      16.611699999999999
  2114   2      39.997929999999997      1.5927039999999999               17.852608
  2115   5      37.503925000000002      26.469529000000001      4.1789800000000001
  2116   2      38.310217000000002      26.283273000000001      4.6657310000000001
  2117   2      37.799106999999999               26.620331      3.2774429999999999
  2118   5      38.307437999999998      43.381073999999998      27.883044999999999
  2119   2      38.387255000000003      43.684959999999997      26.975847000000002
  2120   2      37.430210000000002      43.664281000000003               28.153057
  2121   5      2.7291120000000002      41.031314000000002      4.7420850000000003
  2122   2                2.156285      40.266359000000001      4.6502340000000002
  2123   2      2.3693529999999998      41.509760999999997      5.4932869999999996
  2124   5      30.636372000000001      30.549800000000001               41.647824
  2125   2      29.873308000000002               30.070698      41.979365000000001
  2126   2      30.313943999999999      31.443560999999999               41.506847
  2127   5      3.8505120000000002      41.645865000000001               31.827752
  2128   2      3.9099699999999999      40.757027999999998      31.469760000000001
  2129   2      4.7585369999999996      41.958849999999998      31.840896999999998
  2130   5      16.014690999999999      11.821994999999999      8.9178630000000005
  2131   2      16.011434999999999      11.112306999999999      8.2712889999999994
  2132   2      16.857423000000001      11.729324999999999      9.3693679999999997
  2133   5      12.652283000000001      26.687453999999999      34.627066999999997
  2134   2               13.355964      26.044882999999999      34.743940000000002
  2135   2               12.878225      27.142897000000001      33.812105000000003
  2136   5      9.2654340000000008      20.928173000000001      34.525734999999997
  2137   2      9.9664520000000003               20.302215               34.329583
  2138   2                 9.62913      21.483664999999998      35.219850000000001
  2139   5               15.860101      21.288536000000001      8.9732109999999992
  2140   2      16.708991000000001      21.367647000000002      8.5317900000000009
  2141   2      15.719500999999999      22.149294000000001      9.3756629999999994
  2142   5                7.894082               25.594614      31.006830000000001
  2143   2      7.3327999999999998      25.024401999999998      31.537438999999999
  2144   2      8.5212880000000002      25.962637000000001               31.634376
  2145   5               31.154398      5.6366740000000002               22.474853
  2146   2      30.949798999999999                4.764545               22.129517
  2147   2      30.784877999999999      6.2422570000000004               21.827268
  2148   5      2.6022180000000001      26.768398999999999      21.209074000000001
  2149   2      2.3019859999999999      27.656372999999999      21.001495999999999
  2150   2      3.4065340000000002                26.66234      20.694808999999999
  2151   5      5.5347689999999998                1.977015      8.9274470000000008
  2152   2      5.6720110000000004      2.8253710000000001      9.3554449999999996
  2153   2      6.3631260000000003      1.8020890000000001      8.4737200000000001
  2154   5      3.8514170000000001      39.092751999999997      24.419913000000001
  2155   2      4.4129399999999999      39.736800000000002                23.98217
  2156   2                3.160514      39.618777000000001      24.830514000000001
  2157   5      33.060585000000003      6.3328030000000002      20.762384000000001
  2158   2      33.264921999999999      6.5083719999999996               19.840892
  2159   2      32.555236000000001      5.5161670000000003      20.743144999999998
  2160   5               44.999758      15.868793999999999      34.105612999999998
  2161   2      44.100909000000001               15.652514      34.364490000000004
  2162   2      44.898848000000001      16.569524000000001      33.456431000000002
  2163   5      31.041246000000001               24.447709      3.2280760000000002
  2164   2      31.647182999999998      24.691490000000002      3.9317359999999999
  2165   2      31.607483999999999      24.299797000000002      2.4664079999999999
  2166   5      33.607286000000002                2.412668      25.543358999999999
  2167   2      33.806761000000002      1.4737549999999999      25.523931999999999
  2168   2      32.709175999999999      2.4586800000000002      25.880884999999999
  2169   5      38.631020999999997      32.155405000000002      32.284813999999997
  2170   2      39.421731999999999                32.12097      32.828243000000001
  2171   2      38.958083999999999      32.330393999999998      31.398783000000002
  2172   5      24.575655999999999      42.101683999999999      13.634347999999999
  2173   2      25.522273999999999               42.245151               13.563243
  2174   2      24.340067000000001      42.481887999999998      14.484398000000001
  2175   5      2.2334779999999999               31.190832      38.205046000000003
  2176   2      1.6797420000000001      31.940874999999998      37.975836000000001
  2177   2      1.7560359999999999      30.749161999999998      38.911883000000003
  2178   5      26.171234999999999               15.372714      35.313493000000001
  2179   2      25.520866000000002      16.040323000000001      35.543802999999997
  2180   2      26.695848000000002               15.780243      34.619703000000001
  2181   5               29.531374      31.005514999999999      36.359144000000001
  2182   2      29.506720999999999      31.918773000000002      36.064053999999999
  2183   2      30.412126000000001               30.897468      36.726900000000001
  2184   5               33.493178                2.317234      21.272148999999999
  2185   2      32.944271999999998      3.0831059999999999               21.456177
  2186   2      34.100490999999998                2.617254      20.591118999999999
  2187   5               30.357001      4.6700819999999998      5.7363720000000002
  2188   2      31.289892999999999      4.6028269999999996      5.9529680000000003
  2189   2               29.913383      4.1925720000000002      6.4419420000000001
  2190   5      8.7614649999999994               37.569654      32.013002999999998
  2191   2      9.6469179999999994               37.235526      32.174427000000001
  2192   2      8.8524720000000006      38.524095000000003               32.071323
  2193   5      34.166634000000002      30.899138000000001      18.766670000000001
  2194   2      34.792234000000001               31.571196      19.047184999999999
  2195   2               34.535522      30.556601000000001               17.948604
  2196   5               10.597071      32.997708000000003      2.2400039999999999
  2197   2               10.881072               32.477058      2.9949819999999998
  2198   2      9.6397239999999993      33.022716000000003      2.3141769999999999
  2199   5                6.099291               20.191824                 9.72058
  2200   2      6.3945150000000002      20.711932999999998      8.9695440000000008
  2201   2      6.8675220000000001      20.145565000000001      10.295317000000001
  2202   5      28.115500000000001      17.944272999999999      33.192886999999999
  2203   2      28.006001000000001      16.991074999999999      33.226799999999997
  2204   2      27.673048999999999               18.206384      32.381605999999998
  2205   5      22.251512999999999      35.304904000000001      6.4999339999999997
  2206   2      23.089494999999999      35.727747999999998      6.7017119999999997
  2207   2      21.965506999999999      35.720419999999997      5.6825049999999999
  2208   5      36.142099000000002               19.403188      39.933632000000003
  2209   2      36.178165999999997      19.898409999999998               39.111939
  2210   2      36.135437000000003      20.077086999999999               40.618071
  2211   5               14.161852      20.849181000000002      10.732101999999999
  2212   2               13.966815      19.931843000000001               10.937469
  2213   2                13.85952      20.960411000000001      9.8271899999999999
  2214   5      5.9253520000000002      12.953155000000001      8.6257219999999997
  2215   2      5.0009589999999999               13.205354      8.6858839999999997
  2216   2      6.4042009999999996               13.782251      8.7028199999999991
  2217   5      35.766471000000003               13.303882      21.253937000000001
  2218   2      35.534812000000002               13.154783               22.173627
  2219   2      36.240189999999998               14.139464               21.259826
  2220   5                4.837167      33.460920000000002      12.862272000000001
  2221   2      5.7793099999999997               33.304924      12.961050999999999
  2222   2      4.4501910000000002      33.098292000000001               13.663141
  2223   5      30.256755999999999      9.5330560000000002      32.572400000000002
  2224   2      30.288315000000001      8.7508479999999995               33.128169
  2225   2      29.978415999999999      9.2044320000000006               31.713811
  2226   5      19.133559000000002      43.111935000000003      7.1314029999999997
  2227   2      20.015536000000001      42.796838999999999      7.3424880000000003
  2228   2      19.020783000000002      42.899731000000003      6.2014069999999997
  2229   5      41.642977999999999      6.0670070000000003      20.816908000000002
  2230   2      42.345438999999999      6.6614490000000002      20.543206999999999
  2231   2      41.249845999999998      6.4978850000000001               21.580081
  2232   5               19.506978      31.789165000000001      39.999948000000003
  2233   2      19.221008999999999      32.396444000000002      40.686357999999998
  2234   2               20.241121      32.239109999999997      39.574241999999998
  2235   5      11.177369000000001      39.700353999999997               26.786127
  2236   2      11.109012999999999               40.122377      25.926504999999999
  2237   2               10.410288      39.123928999999997      26.830424000000001
  2238   5                43.62012      30.830922000000001      19.062325000000001
  2239   2      43.213135000000001               29.992666      18.831209000000001
  2240   2      44.487126000000004               30.796657      18.650293999999999
  2241   5      39.163049000000001      21.460868999999999      32.072507999999999
  2242   2      39.818063000000002      20.834738999999999      32.389749999999999
  2243   2      39.199539999999999      21.380037999999999               31.116069
  2244   5      9.9046289999999999               11.006691      3.0943800000000001
  2245   2      10.559938000000001               10.971107      3.7951139999999999
  2246   2               10.104932               11.818488      2.6216159999999999
  2247   5                7.860398      15.757925999999999      28.460291000000002
  2248   2      7.1350110000000004      16.386773000000002      28.469822000000001
  2249   2      8.6368919999999996      16.292408999999999               28.275824
  2250   5      19.283315000000002               12.207179      2.8058619999999999
  2251   2      18.604444999999998      11.614879999999999      3.1375899999999999
  2252   2               19.601295      11.781136999999999      2.0058500000000001
  2253   5      2.0017849999999999               10.486234      6.9251459999999998
  2254   2                1.863308                9.551615      7.0955430000000002
  2255   2      2.1322559999999999      10.538588000000001      5.9749470000000002
  2256   5      39.441614000000001      21.140471000000002               12.280256
  2257   2      39.118456000000002               22.023101      12.475853000000001
  2258   2               40.152175               21.281081      11.649404000000001
  2259   5      2.5152109999999999                27.56165      28.257338000000001
  2260   2      2.3608039999999999      28.367951999999999      27.759582000000002
  2261   2                2.211408      26.860372999999999      27.675481999999999
  2262   5      34.140410000000003               15.537908      29.420328999999999
  2263   2      33.660066999999998      14.706747999999999               29.433294
  2264   2      33.785153999999999      16.006782000000001      28.660993000000001
  2265   5      3.1455709999999999      25.101559999999999     0.73012200000000005
  2266   2      3.8264640000000001               24.440718     0.58384199999999997
  2267   2      3.2736100000000001      25.736816999999999    0.021111000000000001
  2268   5      14.864793000000001      31.663589999999999                 12.0123
  2269   2               14.479607                30.79008               11.910629
  2270   2      14.151711000000001      32.266337999999998      11.786797999999999
  2271   5      44.999147000000001      18.053954999999998      10.202097999999999
  2272   2      44.589452000000001               17.413328               10.788162
  2273   2      44.673397999999999      18.902867000000001               10.511739
  2274   5      6.3739100000000004      5.9192260000000001      27.220876000000001
  2275   2      5.7426389999999996      5.3488360000000004      27.665707999999999
  2276   2      6.6015839999999999      6.5813750000000004               27.878422
  2277   5      20.994683999999999      41.026817000000001      5.4896120000000002
  2278   2               20.123469      40.669690000000003      5.6771479999999999
  2279   2               20.835621               41.954062                5.295814
  2280   5      43.089542999999999               19.694768      7.8706670000000001
  2281   2      42.201196000000003      19.358139000000001      8.0093999999999994
  2282   2      43.128552999999997      19.884059000000001      6.9297690000000003
  2283   5      39.488013000000002      33.357830999999997               27.536154
  2284   2      40.274881999999998               32.842692      27.729012000000001
  2285   2               39.267111                33.77749      28.371456999999999
  2286   5      29.532184000000001               27.632261      44.581023999999999
  2287   2                28.78106      28.062809000000001      44.995953999999998
  2288   2      29.715692000000001      28.168268999999999      43.805354999999999
  2289   5               16.166629      16.534234999999999      35.062747999999999
  2290   2      16.416574000000001               15.617958      35.203065000000002
  2291   2               15.244572               16.491833               34.796937
  2292   5      5.9176260000000003               18.515055               24.310592
  2293   2      6.2294660000000004      18.863257999999998      23.472000000000001
  2294   2      5.4014189999999997               19.231282      24.688998000000002
  2295   5      3.7910270000000001               18.731797      44.101624000000001
  2296   2      3.2777159999999999      18.205846000000001      43.483876000000002
  2297   2      4.4572669999999999      18.125399000000002      44.434860999999998
  2298   5      25.879729000000001      9.4016020000000005               10.703101
  2299   2      25.951657000000001      9.7374510000000001      9.8065759999999997
  2300   2               26.677045                9.712904      11.139015000000001
  2301   5      7.4508279999999996      29.957073000000001                3.117998
  2302   2      6.9753299999999996      30.467403999999998      2.4583089999999999
  2303   2      7.5858790000000003      29.100446000000002      2.7049690000000002
  2304   5      8.6257669999999997      35.212995999999997               31.254237
  2305   2      9.3175469999999994      34.881216999999999      30.677098999999998
  2306   2      8.3764719999999997      34.454414999999997      31.788136000000002
  2307   5                7.850778      24.533681000000001      5.9275679999999999
  2308   2      8.7425979999999992      24.828016999999999      6.1269390000000001
  2309   2                7.964029      23.889016000000002      5.2245569999999999
  2310   5      38.986831000000002      35.423397999999999      7.5910250000000001
  2311   2      38.651434000000002      36.322958999999997      7.5860250000000002
  2312   2      38.592624999999998      35.026293000000003      8.3717629999999996
  2313   5      7.3652819999999997               13.832893      24.300823000000001
  2314   2      6.7336200000000002               13.126135      24.148437999999999
  2315   2      8.1511359999999993      13.557677999999999      23.821936999999998
  2316   5      35.579591999999998      32.186340999999999      34.449578000000002
  2317   2      35.234583000000001      32.087217000000003      35.340009999999999
  2318   2      35.059310000000004      32.899127999999997      34.070259999999998
  2319   5      40.970661999999997      27.568460999999999               13.638942
  2320   2      41.389197000000003               28.363844               13.976461
  2321   2      40.759334000000003      27.058337999999999               14.424918
  2322   5      41.138540999999996               10.678371      16.367235999999998
  2323   2      40.497706999999998      11.073624000000001      15.771558000000001
  2324   2               41.145412      9.7483710000000006      16.127040000000001
  2325   5      32.364075999999997      16.533778999999999      2.8258939999999999
  2326   2      32.505017000000002      17.058022999999999                2.034043
  2327   2               32.647872               15.649637      2.5801419999999999
  2328   5               22.926544      41.612020000000001               25.879313
  2329   2      23.286190999999999      41.781669000000001      26.753153999999999
  2330   2      21.981653000000001      41.518394999999998      26.024422000000001
  2331   5               37.831063      15.628690000000001      20.967424000000001
  2332   2      38.738055000000003               15.505296      21.257017000000001
  2333   2               37.789679      15.183911999999999      20.117069999999998
  2334   5      39.194445000000002               36.948563               29.177083
  2335   2      38.410268000000002      36.873935000000003      29.725919999999999
  2336   2      38.971249999999998      37.625441000000002                28.53314
  2337   5               11.319037      28.305520999999999      42.118543000000003
  2338   2               11.478724               29.185751      41.770088999999999
  2339   2      10.553077999999999               28.410104      42.688639999999999
  2340   5      30.372973999999999      19.950704999999999      2.5749689999999998
  2341   2               30.146625      19.018913999999999      2.5274619999999999
  2342   2      31.332954999999998      19.961594000000002                2.605953
  2343   5     0.40673300000000001                 3.51898      30.459869000000001
  2344   2                0.000522      4.3615959999999996      30.243732000000001
  2345   2                0.027455                3.282562      31.310102000000001
  2346   5      40.645831999999999               14.670627      15.903321999999999
  2347   2      41.313248999999999               14.508015      15.232623999999999
  2348   2      41.141590000000001      14.995457999999999      16.659199000000001
  2349   5      42.429507000000001      4.0710509999999998      2.4003169999999998
  2350   2      42.033656999999998      4.5709200000000001      3.1180629999999998
  2351   2      43.197871999999997      4.5879279999999998                2.145181
  2352   5      34.197673999999999      40.672077999999999      39.778727000000003
  2353   2               35.152082               40.613768      39.864927999999999
  2354   2      33.916370000000001      41.151521000000002      40.562081999999997
  2355   5      15.181838000000001      32.538384000000001                9.703023
  2356   2               15.289894      33.457909999999998      9.9570319999999999
  2357   2               15.815073      32.411439000000001      8.9920089999999995
  2358   5      8.0793169999999996               13.823553               15.608366
  2359   2      8.1269229999999997      12.906254000000001      15.887688000000001
  2360   2      7.4083829999999997      13.828976000000001               14.921009
  2361   5      22.230543999999998                 0.55601      31.942437999999999
  2362   2      21.397386000000001     0.95992200000000005      31.688611000000002
  2363   2               22.675891                0.384106      31.108917000000002
  2364   5      26.040922999999999      40.731945000000003      3.8976570000000001
  2365   2      26.080466000000001      41.666212000000002      3.6801560000000002
  2366   2      25.325714999999999      40.665674000000003      4.5354099999999997
  2367   5      14.372726999999999      25.496320000000001      15.657151000000001
  2368   2               13.756812      24.769120999999998               15.540723
  2369   2               14.113192      26.137606999999999      14.990792000000001
  2370   5      26.689167000000001      2.5604260000000001      8.2940950000000004
  2371   2      26.385705999999999                2.384131      7.4004750000000001
  2372   2               27.006795      1.7107509999999999      8.6100180000000002
  2373   5      38.175783000000003      15.356191000000001      37.845407999999999
  2374   2               37.893673      14.466234999999999      37.621540000000003
  2375   2      38.828302000000001                15.23202      38.539268999999997
  2376   5      34.173077999999997                1.953173      35.214778000000003
  2377   2      33.463394999999998      1.4850140000000001      34.768793000000002
  2378   2      34.606785000000002                1.279703      35.744852000000002
  2379   5               22.440901      24.099665999999999                2.975365
  2380   2      21.854603999999998      24.849136999999999      2.8477939999999999
  2381   2      22.134671999999998      23.693359999999998      3.7900930000000002
  2382   5      38.919809999999998      15.790641000000001                3.663818
  2383   2      38.565443000000002               16.595831      4.0482899999999997
  2384   2      38.659951999999997      15.098935000000001      4.2775439999999998
  2385   5      21.303218999999999                7.489471      29.245139999999999
  2386   2                22.15314      7.2708240000000002      28.855841999999999
  2387   2               21.269458      6.9690099999999999               30.051752
  2388   5      3.4452829999999999      25.535039999999999               14.257875
  2389   2      3.5650200000000001      26.150397999999999      14.985008000000001
  2390   2      4.1360159999999997      25.767838999999999               13.632308
  2391   5      8.2492839999999994               22.358867      17.801369000000001
  2392   2      8.1438749999999995               21.985436      16.923210000000001
  2393   2      8.7399509999999996               23.171979      17.657371999999999
  2394   5      21.929687000000001      17.891646999999999                43.77957
  2395   2               21.316917               18.629099               43.730559
  2396   2      22.453800000000001      17.963457999999999      42.977828000000002
  2397   5               36.966642      9.7073429999999998                7.939381
  2398   2      36.273127000000002      9.5391879999999993      8.5816330000000001
  2399   2      37.520178999999999      8.9231599999999993      7.9753679999999996
  2400   5      26.067081999999999                1.222909      41.184187000000001
  2401   2               26.933467     0.93642099999999995      40.885812000000001
  2402   2      26.234794999999998      1.6505050000000001      42.027796000000002
  2403   5      18.378008000000001      40.553770999999998      39.078018999999998
  2404   2               18.845606      40.907634000000002               39.838189
  2405   2      17.639009000000001      40.070669000000002      39.456350999999998
  2406   5      20.683585999999998               23.817511      43.780338999999998
  2407   2      20.224765999999999               23.110246      43.321005999999997
  2408   2      20.000430999999999      24.244765000000001      44.303210999999997
  2409   5      44.314383999999997      32.875205999999999      9.8537809999999997
  2410   2      44.964002999999998      33.324083000000002      10.399884999999999
  2411   2      44.292565000000003               31.978562               10.197576
  2412   5               14.130654      9.5646850000000008               25.760762
  2413   2               13.769468      8.6796190000000006               25.671719
  2414   2      14.156321999999999      9.7174739999999993               26.708727
  2415   5      32.358505000000001      43.048285999999997      5.7470920000000003
  2416   2               32.354644      42.194012000000001                5.308999
  2417   2               33.145021      43.030076000000001                6.298184
  2418   5      5.4903709999999997                12.75464      33.477462000000003
  2419   2      6.0158040000000002               12.997439      34.243422000000002
  2420   2      5.5554410000000001               13.514262      32.893183000000001
  2421   5               27.911735      27.537365000000001      17.074529999999999
  2422   2      28.158111000000002      27.837288000000001      16.196425000000001
  2423   2      28.608398000000001      27.871912999999999      17.644950999999999
  2424   5      33.740918999999998      1.7116979999999999      14.126417999999999
  2425   2               32.908839      2.1742750000000002      14.250474000000001
  2426   2      34.062893000000003      1.5568850000000001      15.018050000000001
  2427   5      30.968658000000001               20.019057      35.935968000000003
  2428   2               31.484544      20.566528000000002      35.339426000000003
  2429   2               31.492908      19.221035000000001      36.040686000000001
  2430   5               40.318303               12.856954      23.504754999999999
  2431   2      40.885266000000001               12.645951      22.759264000000002
  2432   2      40.118592999999997      13.790165999999999      23.395793999999999
  2433   5               10.079514      39.062404000000001               10.401284
  2434   2                10.82807      38.464720999999997                10.33675
  2435   2      9.5876239999999999      38.747024000000003               11.163663
  2436   5      21.444697000000001      7.3045280000000004      18.170943999999999
  2437   2      22.389268999999999      7.4583930000000001      18.247316999999999
  2438   2               21.369035      6.3602930000000004               18.011768
  2439   5                1.684194               34.002077      37.129375000000003
  2440   2      2.4954070000000002      34.424452000000002      37.421365000000002
  2441   2      1.0895809999999999      34.083691000000002      37.879319000000002
  2442   5      28.177606999999998                6.439025      4.5976470000000003
  2443   2      28.992004000000001      5.9306229999999998      4.5947129999999996
  2444   2      27.486501000000001      5.7815599999999998      4.7105839999999999
  2445   5                7.010726      2.8229609999999998      11.558298000000001
  2446   2      6.8859110000000001                1.875839      11.462872000000001
  2447   2      7.9615720000000003      2.9309980000000002      11.641140999999999
  2448   5      13.697863999999999                38.69829      25.241693999999999
  2449   2               12.940115      38.819856999999999      25.818549000000001
  2450   2      13.330465999999999      38.733310000000003               24.354882
  2451   5                8.898714      6.2601319999999996      2.3572519999999999
  2452   2                9.563447      6.0630329999999999      1.6931689999999999
  2453   2      9.1305440000000004      5.6980199999999996      3.1008429999999998
  2454   5      4.1871219999999996      23.031058000000002      10.413811000000001
  2455   2      4.8401449999999997      23.212713000000001      9.7338939999999994
  2456   2      4.1074469999999996      23.858533000000001               10.895038
  2457   5      44.197028000000003                1.762524                1.225727
  2458   2               44.176485      2.4395120000000001                1.906161
  2459   2      44.997539000000003      1.2643420000000001                1.409138
  2460   5      32.851877999999999      11.133483999999999      9.5885850000000001
  2461   2      32.490456999999999      11.683006000000001      8.8892100000000003
  2462   2      33.321587000000001               10.435656      9.1248480000000001
  2463   5      34.531080000000003      20.751308000000002               20.161915
  2464   2      33.757219999999997               20.953975      20.692754999999998
  2465   2      34.577998000000001      19.791917999999999      20.165372999999999
  2466   5               21.994733      1.5308630000000001      9.2644549999999999
  2467   2                22.60772     0.81878399999999996      9.4617269999999998
  2468   2      21.615224000000001                1.761582      10.116149999999999
  2469   5               10.885135                2.990262      41.383175999999999
  2470   2               10.911984      2.1178240000000002      40.983356000000001
  2471   2      11.782961999999999      3.1395740000000001               41.690185
  2472   5      22.339552000000001      44.564901999999996      26.705919999999999
  2473   2                23.28342      44.568111000000002      26.881498000000001
  2474   2               22.162526      43.682617999999998      26.369945000000001
  2475   5      4.0118780000000003      2.1032760000000001      26.492650000000001
  2476   2      4.2185940000000004      2.7161680000000001      27.202127000000001
  2477   2      4.6512760000000002      1.3940189999999999      26.596409999999999
  2478   5      28.600978000000001               12.268345                38.21472
  2479   2                28.13673                11.42811                38.22898
  2480   2      28.157015000000001               12.774452      37.529595999999998
  2481   5               22.130962      24.785015999999999      42.256675999999999
  2482   2      22.393401000000001      23.896657999999999      42.004344000000003
  2483   2      22.750513000000002      25.029088000000002      42.948937999999998
  2484   5      40.883133999999998      16.111713000000002      4.6404589999999999
  2485   2      40.301167999999997      16.172356000000001                5.401618
  2486   2      40.728110999999998      16.926677000000002      4.1562650000000003
  2487   5      25.680883000000001      37.837378000000001      8.7446549999999998
  2488   2      25.536435999999998      37.479269000000002      9.6236420000000003
  2489   2      24.796911999999999               37.970644      8.3932599999999997
  2490   5      26.048455000000001               42.566516      9.6452000000000009
  2491   2      26.059608000000001      42.008299000000001      8.8641780000000008
  2492   2      25.232427000000001               42.331913               10.094312
  2493   5      34.901062000000003      38.432403000000001      35.468536999999998
  2494   2               35.829338      38.566325999999997      35.263370999999999
  2495   2      34.906813999999997      37.987022000000003      36.319561999999998
  2496   5      9.4592849999999995                1.939497      38.835828999999997
  2497   2      10.230138999999999      2.0814210000000002      38.281424000000001
  2498   2      9.4561340000000005                2.689235      39.436267000000001
  2499   5      24.644580000000001      17.810963999999998      1.5594570000000001
  2500   2      24.296641999999999      18.686122000000001      1.3730100000000001
  2501   2      24.927820000000001      17.479652999999999     0.70350699999999999
  2502   5               33.371316      7.9302820000000001      33.314379000000002
  2503   2               34.139049      8.4264100000000006      33.607925000000002
  2504   2      33.679191000000003      7.4495290000000001      32.541894999999997
  2505   5     0.82442000000000004      41.261085999999999      17.422364000000002
  2506   2     0.68993800000000005      40.409878999999997               17.845551
  2507   2      1.7142630000000001      41.516663000000001               17.678296
  2508   5     0.66084399999999999      38.943345000000001               14.966491
  2509   2      1.0152870000000001      39.821029000000003      14.805972000000001
  2510   2  7.1000000000000005e-05      39.074601999999999               15.651175
  2511   5      38.614628000000003      7.9724339999999998               28.721059
  2512   2      38.006298999999999      8.4259409999999999      29.309270000000001
  2513   2      38.048805999999999      7.5679379999999998      28.058585999999998
  2514   5               16.537917      14.695627999999999               10.706101
  2515   2      16.019258000000001               15.374316               11.144394
  2516   2               17.165115               15.185186      10.167956999999999
  2517   5      27.547097000000001      29.086117999999999      40.686917999999999
  2518   2               27.729492      29.988288000000001      40.959947999999997
  2519   2      26.712451999999999      29.143937000000001      40.215043000000001
  2520   5      33.286068999999998      9.3450939999999996     0.63048400000000004
  2521   2               33.350977      8.4750359999999993     0.22984499999999999
  2522   2      34.006095000000002      9.3693629999999999                1.265792
  2523   5               21.117749      31.394621000000001      3.2507030000000001
  2524   2      21.770886000000001      30.713857999999998                3.428741
  2525   2               21.189543      31.994955000000001      3.9970859999999999
  2526   5               15.272399      28.429514999999999      34.326289000000003
  2527   2               15.683176      28.259882000000001      35.177295999999998
  2528   2               15.026795               27.559227               34.002378
  2529   5      42.878245999999997      20.946999000000002      23.307162000000002
  2530   2      42.566648000000001               20.851958      22.404057000000002
  2531   2      42.985224000000002      21.894386000000001               23.424018
  2532   5                3.919556      3.1602709999999998                13.89861
  2533   2      4.3668529999999999                3.995635      13.744286000000001
  2534   2      3.8952330000000002      2.7397900000000002               13.035333
  2535   5               14.389137      12.346590000000001               10.754191
  2536   2               15.024566               12.141014               11.443897
  2537   2      14.795216999999999      13.064717999999999               10.262222
  2538   5      40.278015000000003      22.515076000000001      24.923766000000001
  2539   2      40.999805000000002      23.119817000000001      24.736598999999998
  2540   2      39.834834000000001      22.900714000000001      25.683710000000001
  2541   5      23.943681999999999      11.433928999999999      11.232157000000001
  2542   2      24.455711000000001               12.059552               11.749986
  2543   2      24.487839999999998               11.262245      10.459460999999999
  2544   5               25.437047      43.993150999999997               39.290661
  2545   2               25.850116      43.506323000000002      40.007666999999998
  2546   2      25.833549000000001      44.866852999999999      39.336199000000001
  2547   5      5.9379679999999997      21.673031999999999      32.501660999999999
  2548   2      6.7178440000000004               21.444519      33.012835000000003
  2549   2      6.2857659999999997      21.981301999999999               31.661037
  2550   5      31.571262000000001      11.771157000000001      4.9664910000000004
  2551   2               31.782629      12.574484999999999      5.4478580000000001
  2552   2               32.122653               11.097688      5.3727539999999996
  2553   5               14.433074      26.822786000000001      18.863886999999998
  2554   2               14.421531                27.78276      18.870457999999999
  2555   2               13.682767               26.571583      19.408477000000001
  2556   5      19.687080000000002               17.631256      9.7909419999999994
  2557   2      20.157340000000001               18.257258      9.2353310000000004
  2558   2               18.786984      17.644324999999998      9.4558350000000004
  2559   5      2.6904499999999998      26.304666999999998      4.4276280000000003
  2560   2      2.4702500000000001               25.505436      3.9434100000000001
  2561   2      3.3195250000000001      26.014614000000002      5.0930419999999996
  2562   5               20.246675      35.099243000000001      15.169351000000001
  2563   2               19.689567      34.328246999999998               15.039266
  2564   2               20.695459               35.213839               14.327862
  2565   5                3.217962      37.778880000000001               16.291708
  2566   2      2.3630390000000001      37.882106999999998               15.867236
  2567   2      3.5751490000000001      36.970685000000003      15.915037999999999
  2568   5               43.499088      39.806010999999998      25.941279000000002
  2569   2      43.591270000000002      40.631444000000002      26.422827000000002
  2570   2               42.613073      39.502881000000002               26.155127
  2571   5               43.446272      22.868649999999999      35.938687000000002
  2572   2      43.722827000000002      23.749884000000002      35.676639000000002
  2573   2      42.842184000000003               23.016168      36.670779000000003
  2574   5      7.1260019999999997      27.603066999999999               24.067729
  2575   2      6.9331860000000001      28.134329999999999      24.843813000000001
  2576   2                8.030227      27.833390999999999      23.839760999999999
  2577   5      7.4520090000000003      32.308266000000003      33.532949000000002
  2578   2      7.1360289999999997      32.489367000000001      32.644644999999997
  2579   2      6.6925489999999996      31.930655000000002      33.983806000000001
  2580   5      25.076637999999999      23.858585000000001      38.782117999999997
  2581   2      25.467697999999999      24.664021000000002      39.128630000000001
  2582   2      25.259703999999999      23.196605999999999      39.453619000000003
  2583   5      25.120581999999999      6.5490789999999999      34.269688000000002
  2584   2      24.791578000000001      7.3420189999999996      34.699488000000002
  2585   2               25.597469      6.8743930000000004      33.501969000000003
  2586   5                 16.4985               15.896834               43.133592
  2587   2      16.222760000000001               15.219516      43.755631000000001
  2588   2               16.915993               15.408844      42.419303999999997
  2589   5      8.2909240000000004      41.044843999999998               43.007697
  2590   2      7.5883089999999997      40.630873000000001      43.514338000000002
  2591   2      8.4824870000000008      40.415778000000003      42.307538999999998
  2592   5      15.508210999999999                4.533385      32.849134999999997
  2593   2      16.093437000000002      4.2687340000000003      33.562714999999997
  2594   2      14.644564000000001      4.6053829999999998      33.263348000000001
  2595   5      22.769324000000001      37.923430000000003      19.282813999999998
  2596   2               22.476668      38.491152999999997      18.566037000000001
  2597   2               22.123946      37.212271999999999      19.302403999999999
  2598   5      13.872223999999999                1.739957      18.702947999999999
  2599   2               13.437455      2.4877639999999999               18.286434
  2600   2      13.249758999999999      1.4447749999999999               19.372311
  2601   5               15.841687      8.3665880000000001      23.369956999999999
  2602   2      16.766210000000001      8.4206520000000005      23.116859000000002
  2603   2      15.751784000000001      9.0046660000000003      24.082287999999998
  2604   5      31.818826000000001      39.363557999999998      5.8900980000000001
  2605   2      32.496685999999997      39.637450999999999      6.5123629999999997
  2606   2      31.791927999999999               40.070504      5.2403690000000003
  2607   5               25.871727      2.2093370000000001      29.926777000000001
  2608   2               25.329829                2.796001      30.459596999999999
  2609   2      26.493524000000001      2.7938700000000001      29.485946999999999
  2610   5      9.0174540000000007      38.405864000000001      25.277297999999998
  2611   2      9.2281289999999991      39.295701999999999      24.984843999999999
  2612   2      8.3467979999999997               38.529705      25.953703999999998
  2613   5      9.8076919999999994      8.9000070000000004      40.386035999999997
  2614   2                10.41067      9.0887320000000003      39.663178000000002
  2615   2      10.331943000000001      8.3867560000000001               41.006017
  2616   5               22.561736      4.7388940000000002      28.444808999999999
  2617   2      23.180016999999999      4.0654440000000003               28.737928
  2618   2      23.119520000000001      5.4411670000000001      28.100815999999998
  2619   5               23.734824      16.871382000000001               30.745355
  2620   2      24.317775999999999               17.630972      30.675242999999998
  2621   2      23.985279999999999      16.454253999999999      31.573557000000001
  2622   5      23.814316000000002      3.6215389999999998                33.27122
  2623   2      24.530802000000001      4.2125599999999999      33.514256000000003
  2624   2               24.142885      3.1531950000000002      32.499637999999997
  2625   5      29.331506999999998               10.241895      7.1559160000000004
  2626   2      29.352817000000002      9.3626529999999999      7.5408910000000002
  2627   2      30.094387999999999               10.686365      7.5342029999999998
  2628   5      24.924869000000001      9.8313590000000008      12.719125999999999
  2629   2               24.252948      10.369673000000001               13.143938
  2630   2      25.290811000000001      9.3008349999999993               13.431357
  2631   5      43.135913000000002                5.936496                12.53434
  2632   2               43.964917      5.7675140000000003      12.080553999999999
  2633   2      42.518424000000003      6.1514430000000004      11.830673000000001
  2634   5      17.211829999999999      26.183319999999998      33.362738999999998
  2635   2      16.298387000000002               25.896272      33.292380999999999
  2636   2      17.155263999999999                 27.0733      33.719639999999998
  2637   5      36.721842000000002               19.523028      4.1914870000000004
  2638   2      36.792841000000003      18.587986999999998      4.3973560000000003
  2639   2      36.894441999999998      19.573198000000001      3.2479119999999999
  2640   5      3.2071999999999998      30.249134999999999      7.2141219999999997
  2641   2                3.526945      30.379829000000001      6.3183499999999997
  2642   2      2.6073599999999999      30.984470000000002      7.3628390000000001
  2643   5               15.466396      44.452162999999999      29.674921000000001
  2644   2               15.207471      43.599533000000001      30.032281000000001
  2645   2                14.83155      44.619560999999997      28.973784999999999
  2646   5      33.594132999999999      19.456427999999999      38.657862000000002
  2647   2      33.962347999999999               19.340474      39.536893999999997
  2648   2      34.167901000000001      20.105333000000002      38.242705999999998
  2649   5                14.71608               12.160943               44.906734
  2650   2      15.360098000000001      11.494196000000001      44.656906999999997
  2651   2               14.057487      12.129854999999999      44.208213000000001
  2652   5      17.611177000000001      34.699559999999998               16.920931
  2653   2               16.822948      35.190862000000003      16.677949000000002
  2654   2               17.502513               33.847085      16.491838999999999
  2655   5      5.1909919999999996                3.940814      29.757511999999998
  2656   2      5.3113299999999999      3.0315910000000001               30.041338
  2657   2      4.5408309999999998                3.886463               29.052546
  2658   5               15.682051                1.688863               28.905085
  2659   2      14.818210000000001      1.7656289999999999               28.493247
  2660   2      16.259097000000001      2.2187429999999999      28.349309000000002
  2661   5      29.796285000000001      39.432972999999997               44.304586
  2662   2               29.772862      40.354672000000001      44.572257999999998
  2663   2      29.710789999999999      39.460177999999999      43.348242999999997
  2664   5               22.127364               18.876424                1.735066
  2665   2      21.943798999999999      19.306232000000001     0.89644000000000001
  2666   2      22.415717000000001      19.589521999999999      2.3103799999999999
  2667   5      36.918877000000002      5.4032369999999998      41.275140999999998
  2668   2      37.173881000000002      4.5576650000000001      41.651580000000003
  2669   2      36.765770000000003                5.214105      40.345931999999998
  2670   5      8.1606819999999995      18.671765000000001               16.034416
  2671   2      7.2687799999999996      18.964594000000002               15.833199
  2672   2      8.0421440000000004      17.978629999999999               16.688751
  2673   5               23.360813      42.315536999999999      39.737529000000002
  2674   2      24.142620999999998      41.769013000000001               39.846221
  2675   2               23.282536      42.788001000000001      40.570171000000002
  2676   5      26.522808000000001                3.399003      32.599361999999999
  2677   2      26.533933999999999      2.5939860000000001                33.12238
  2678   2               27.022586      3.1771820000000002      31.809640000000002
  2679   5      20.260480000000001      9.6484550000000002      28.099167000000001
  2680   2      19.717452999999999               10.439454      28.133348000000002
  2681   2               19.840957      9.0443599999999993      28.716995000000001
  2682   5               10.609852      43.164608999999999      25.823578000000001
  2683   2      10.976373000000001      42.647857000000002      25.102222000000001
  2684   2      9.6665299999999998      43.188972999999997      25.644152999999999
  2685   5               19.558142               26.639761      34.229776999999999
  2686   2               20.510068      26.704865000000002      34.336179999999999
  2687   2      19.441417999999999      26.258966999999998      33.355697999999997
  2688   5      5.0759249999999998               15.238144               28.005554
  2689   2      4.9551860000000003      16.107718999999999      28.394124000000001
  2690   2      5.5910140000000004               15.401297      27.211383999999999
  2691   5      8.4690989999999999      36.812167000000002               28.488422
  2692   2      8.5672329999999999      35.946035999999999      28.890802999999998
  2693   2      7.6172680000000001               36.774476      28.046150000000001
  2694   5               14.809377      19.937456999999998      43.199007999999999
  2695   2      13.875332999999999               20.104951      43.344723000000002
  2696   2      15.252810999999999      20.679850999999999      43.617171999999997
  2697   5               22.669767      6.3720039999999996                1.618568
  2698   2      21.746704999999999      6.4048030000000002      1.3566400000000001
  2699   2      22.643643999999998      6.1966799999999997      2.5626129999999998
  2700   5      4.5283870000000004      18.549116999999999      17.330940999999999
  2701   2      4.6432539999999998               17.709681      17.782468000000001
  2702   2      3.5773169999999999      18.682635999999999      17.314147999999999
  2703   5      12.513265000000001               14.564373      4.2603090000000003
  2704   2      12.820010999999999               14.099834      5.0425079999999998
  2705   2               13.299991               14.663971      3.7182900000000001
  2706   5      16.775417999999998      41.482042999999997               10.870142
  2707   2               17.608034      41.958843999999999      10.836441000000001
  2708   2      16.999852000000001      40.638342000000002               11.270692
  2709   5               14.320898      6.7714439999999998      33.471921999999999
  2710   2      15.097424999999999      7.2720289999999999      33.210875000000001
  2711   2      13.667846000000001                7.441109      33.690356000000001
  2712   5      36.980555000000003               30.521856      32.089649999999999
  2713   2      37.617733999999999      30.183126000000001      32.722889000000002
  2714   2      37.436596000000002      30.477291999999998               31.245445
  2715   5      36.910397000000003      41.832389999999997      35.913981999999997
  2716   2      37.066951000000003      40.895783999999999      35.772613999999997
  2717   2      35.957234999999997      41.928105000000002      35.843530000000001
  2718   5      27.571746000000001      37.990609999999997      23.260567000000002
  2719   2      27.744845999999999      37.063026000000001               23.437624
  2720   2      27.021287000000001      37.984416000000003      22.473420999999998
  2721   5               14.776818      21.833449999999999      31.259454999999999
  2722   2               14.670156      21.837873999999999               32.213566
  2723   2      15.709796000000001      22.016673999999998      31.122986000000001
  2724   5               12.745644      29.842407000000001                12.95674
  2725   2               12.469405      30.748895999999998               12.802809
  2726   2      12.173690000000001               29.535847      13.664929000000001
  2727   5               27.266199      1.9392720000000001      13.552652999999999
  2728   2      28.218917999999999                1.825445               13.585758
  2729   2      26.946677999999999      1.1478090000000001               13.112047
  2730   5      39.413780000000003      26.686844000000001      21.475491000000002
  2731   2      40.216853999999998      27.184121999999999      21.647282000000001
  2732   2      38.718563000000003      27.207602999999999      21.885521000000001
  2733   5      19.423652000000001      21.003447000000001      41.874775999999997
  2734   2               19.805612      20.157423999999999      42.119880999999999
  2735   2               18.974373      20.830379000000001      41.043610000000001
  2736   5      4.4608210000000001      42.419015999999999      22.462109000000002
  2737   2      5.0838960000000002      43.018583999999997      22.879266999999999
  2738   2      4.7089369999999997               42.424999               21.534184
  2739   5                16.25141     0.38852799999999998      31.805562999999999
  2740   2               15.591666      1.0131939999999999      31.495311000000001
  2741   2               15.861901                0.002336      32.594093999999998
  2742   5      26.067578999999999      7.9324510000000004      17.688597999999999
  2743   2      26.620152999999998      7.5248809999999997      17.017572999999999
  2744   2      26.414135000000002                7.596597               18.519105
  2745   5      30.397110000000001      8.7985030000000002      37.647261999999998
  2746   2               29.494733      8.9617699999999996      37.363036999999998
  2747   2      30.936572000000002      9.2877659999999995      37.020966999999999
  2748   5      12.591310999999999      21.606214000000001      31.556736999999998
  2749   2               12.667292      22.420771999999999      31.054296000000001
  2750   2      12.710834999999999      20.911546000000001      30.904209000000002
  2751   5      19.108986000000002      4.2303449999999998      41.085410000000003
  2752   2      19.400836000000002      3.6890749999999999      41.822685999999997
  2753   2      19.423884999999999                3.763277      40.307381999999997
  2754   5      38.270203000000002               15.406976      34.019787000000001
  2755   2      38.355167000000002               14.575994      33.546528000000002
  2756   2      39.072277999999997      15.465298000000001      34.545065000000001
  2757   5      41.362873999999998      27.664670999999998      43.106064000000003
  2758   2               41.756791      26.814005999999999      43.313243999999997
  2759   2      40.435217000000002      27.559177999999999                43.33182
  2760   5      2.3523200000000002      3.6752829999999999               36.189211
  2761   2      2.7711070000000002      3.5594839999999999      37.045326000000003
  2762   2                2.486354      4.6035430000000002      35.981820999999997
  2763   5               12.676831      22.284673000000002      36.934218999999999
  2764   2      13.555381000000001      22.612041999999999                37.14087
  2765   2                12.81443               21.678352      36.202041000000001
  2766   5      8.6930390000000006      19.573716000000001               36.382154
  2767   2      9.4032599999999995      18.944842999999999      36.529902999999997
  2768   2      8.2660520000000002      19.266656999999999      35.578389000000001
  2769   5      13.270595999999999               13.471498      13.428774000000001
  2770   2                12.81953      13.549008000000001               12.584821
  2771   2               14.014979               12.891684      13.248907000000001
  2772   5      32.111801999999997      40.987583000000001                1.543911
  2773   2               31.744391      40.549142000000003      2.3149510000000002
  2774   2      31.638217000000001      40.602370000000001     0.80231200000000003
  2775   5      9.1141520000000007      44.589942000000001      16.742899999999999
  2776   2               10.014602      44.256914000000002      16.745691999999998
  2777   2      8.7120820000000005      44.183700000000002      15.970923000000001
  2778   5                8.628387      18.819973999999998      19.583248000000001
  2779   2      9.3238009999999996      18.158207000000001      19.569493000000001
  2780   2      8.0021389999999997               18.521601      18.918845999999998
  2781   5      40.732156000000003      3.4325299999999999               15.736409
  2782   2      41.619715999999997      3.3746809999999998                  15.375
  2783   2      40.191602000000003      2.9284089999999998      15.122972000000001
  2784   5      30.802993000000001      31.444451000000001      8.8534260000000007
  2785   2      29.896508000000001                31.69772      8.6640429999999995
  2786   2      31.246863000000001      31.493397999999999      8.0029990000000009
  2787   5      40.404052999999998      34.190153000000002      32.997169999999997
  2788   2               39.695079      34.534658999999998      33.545256000000002
  2789   2      40.033226999999997               34.171948      32.111280999999998
  2790   5               29.050431      1.9225669999999999      25.021083000000001
  2791   2               28.490516      2.4013339999999999      24.405450999999999
  2792   2      28.980115999999999      2.4171580000000001      25.841495999999999
  2793   5      31.888577000000002      17.493783000000001      4.7456649999999998
  2794   2      31.730260000000001               18.297715      4.2453110000000001
  2795   2      31.540441000000001      17.684830999999999      5.6202759999999996
  2796   5      43.261876000000001      15.101285000000001                8.844258
  2797   2      44.017195999999998               14.509603                8.877872
  2798   2      43.043410000000002               15.156231      7.9105040000000004
  2799   5      17.499981999999999      25.092027999999999      36.120550000000001
  2800   2      16.789902000000001                25.38758      35.545954000000002
  2801   2      17.142116999999999               24.318317      36.563209000000001
  2802   5                6.923197               41.723734      31.737393999999998
  2803   2      6.6143299999999998      40.842280000000002               31.959574
  2804   2                7.539987      41.585019000000003      31.014227000000002
  2805   5      18.689989000000001               23.522983      40.684027999999998
  2806   2      18.471260999999998      22.768737000000002      40.131763999999997
  2807   2      19.499030000000001      23.263698000000002      41.132209000000003
  2808   5      26.041865000000001               40.531461                6.896503
  2809   2      25.447531000000001      41.245552000000004      6.6544980000000002
  2810   2      25.535357999999999      39.998938000000003      7.5149780000000002
  2811   5               34.434151      38.666384999999998      11.167749000000001
  2812   2      35.216943000000001      39.090786999999999               11.526697
  2813   2      34.582799000000001      38.655403999999997      10.218840999999999
  2814   5               15.983103      37.627223999999998      35.278720999999997
  2815   2      15.802360999999999      38.358611000000003               34.683633
  2816   2               15.140228               37.452883      35.705112999999997
  2817   5      20.369468999999999      35.894357999999997      8.7220220000000008
  2818   2               21.090674      36.173856999999998      8.1532789999999995
  2819   2      20.517752999999999      34.954059999999998      8.8504459999999998
  2820   5      7.7668619999999997               10.508944      28.526547999999998
  2821   2      7.6704270000000001      9.7558500000000006      27.938946999999999
  2822   2      7.0314170000000003               11.083802      28.300049999999999
  2823   5               20.808719               11.926522               11.873609
  2824   2      20.253461000000001               12.350636               11.215171
  2825   2      21.212569999999999               11.190631      11.406693000000001
  2826   5      1.3310120000000001      12.102612000000001      39.619503000000002
  2827   2      1.4707650000000001      12.672969999999999      40.379033999999997
  2828   2     0.86648199999999997               11.340973      39.975535999999998
  2829   5      24.888097999999999      2.1796160000000002      21.227792999999998
  2830   2      25.726676999999999      1.7204619999999999      21.140115000000002
  2831   2      24.596436000000001      1.9751399999999999      22.119848999999999
  2832   5      15.748093000000001      19.890561000000002      39.466634999999997
  2833   2      16.191925999999999      20.078848000000001      38.636403000000001
  2834   2      16.173394999999999      20.472370999999999               40.101661
  2835   5      25.587624000000002               20.154826      9.6934640000000005
  2836   2      25.664639999999999      20.378298999999998      8.7629509999999993
  2837   2               24.974321               19.415782      9.7112160000000003
  2838   5      29.926933999999999      29.208607000000001      20.114578999999999
  2839   2               29.878359               28.320929      20.477060000000002
  2840   2      29.677811999999999               29.778893      20.846257999999999
  2841   5               32.145311      32.422209000000002      17.738368000000001
  2842   2               31.204466      32.237425999999999      17.689482999999999
  2843   2               32.256059      33.231028000000002               17.232218
  2844   5      37.777976000000002               15.851132               25.660878
  2845   2      37.333066000000002               15.034174      25.898282999999999
  2846   2               37.209761      16.247416999999999               24.995497
  2847   5      5.7888570000000001      33.063859999999998               27.950433
  2848   2      6.5556479999999997      33.470258000000001      27.539826999999999
  2849   2      5.3869340000000001      32.548060999999997      27.246835000000001
  2850   5      34.473517999999999      7.9826509999999997      10.431502999999999
  2851   2      34.756444000000002      7.4842529999999998      9.6612580000000001
  2852   2      33.739891999999998      8.5154809999999994               10.114443
  2853   5      21.376695000000002               22.293053      37.434156000000002
  2854   2               20.481735      22.255438000000002      37.779637000000001
  2855   2               21.289247      22.752269999999999      36.595041000000002
  2856   5      41.842239999999997      23.093557000000001      44.186163999999998
  2857   2      41.822957000000002      22.174738999999999      43.908447000000002
  2858   2      40.925705999999998      23.302168000000002      44.383871999999997
  2859   5      43.449337999999997                11.15549      21.626435000000001
  2860   2      44.051493999999998      11.902824000000001      21.651440999999998
  2861   2      43.572034000000002                10.77962               20.751044
  2862   5      34.675643000000001      23.498321000000001      39.684415999999999
  2863   2      35.606392999999997      23.409994999999999      39.902656999999998
  2864   2      34.672012000000002      23.791996999999999      38.769875999999996
  2865   5      11.727066000000001               43.352905               11.436843
  2866   2               12.201262               42.668509      11.914821999999999
  2867   2               11.267052      42.880727999999998      10.738217000000001
  2868   5      11.364795000000001      31.697071000000001               36.560451
  2869   2                11.48086      30.927472000000002      37.122565000000002
  2870   2      10.614570000000001      31.474519000000001               36.003428
  2871   5      5.9282300000000001      19.217213000000001               13.332359
  2872   2      5.0773599999999997               19.376448               12.917161
  2873   2      6.2809879999999998      20.095238999999999                13.49751
  2874   5      5.4484300000000001               35.446171      41.993436000000003
  2875   2      5.3168160000000002      34.652352999999998      41.469740999999999
  2876   2      6.2377209999999996      35.263283999999999      42.509396000000002
  2877   5      19.162538999999999      27.364785999999999                9.104571
  2878   2               20.005032               27.679641      8.7687200000000001
  2879   2                 19.0886               26.470388      8.7621870000000008
  2880   5                 1.56871      18.777882000000002      5.2881629999999999
  2881   2     0.66818100000000002               18.893404                5.600295
  2882   2                 1.76586      17.854627000000001                5.465287
  2883   5      13.251447000000001      44.063011000000003      9.6822239999999997
  2884   2      13.816763999999999               43.852193      8.9354329999999997
  2885   2      12.370983000000001                 44.1282                9.303839
  2886   5     0.88598299999999997      33.871347999999998                17.66347
  2887   2   0.0091590000000000005      34.227747999999998      17.502586000000001
  2888   2     0.75873100000000004                 32.9193               17.670779
  2889   5                0.572878               42.459705                6.335699
  2890   2   0.0010139999999999999      42.492286999999997      5.5652220000000003
  2891   2  2.5000000000000001e-05      42.157941999999998      7.0452209999999997
  2892   5      37.520048000000003      1.7156530000000001      9.3969509999999996
  2893   2      37.617471000000002     0.84120300000000003      9.0128009999999996
  2894   2      38.288702999999998                2.200024      9.0851869999999995
  2895   5      1.7258230000000001      40.649380000000001      32.143675000000002
  2896   2                2.278518               40.576456      32.925297999999998
  2897   2      1.0881019999999999      41.332571999999999      32.365493000000001
  2898   5      40.228118000000002      32.200001999999998                39.05491
  2899   2      39.352755999999999      32.592540999999997      39.092064999999998
  2900   2      40.788853000000003               32.822868      39.524223999999997
  2901   5      26.045408999999999               15.743662      3.8598530000000002
  2902   2               26.148681      16.651510999999999      3.5651160000000002
  2903   2               26.406105               15.217376      3.1418249999999999
  2904   5      42.788066999999998      29.935517999999998      43.448757000000001
  2905   2      42.516283000000001      29.564230999999999      42.606140000000003
  2906   2      43.658099999999997                30.30462      43.277154000000003
  2907   5      19.969781999999999               30.933678      44.982286999999999
  2908   2               19.573432               30.324002      44.355448000000003
  2909   2      19.368341999999998      31.682421000000001               44.999516
  2910   5      21.127085999999998      41.375624000000002      40.440883999999997
  2911   2      21.897476999999999      40.809693000000003      40.351753000000002
  2912   2      20.994465000000002               41.738101      39.561301999999998
  2913   5                 1.70075      23.074463000000002      44.455446000000002
  2914   2     0.94267699999999999      23.322942000000001      44.989589000000002
  2915   2      2.0296820000000002               22.271445      44.867280999999998
  2916   5      25.697707999999999      7.8267239999999996      8.4377809999999993
  2917   2      25.671959000000001      7.3078419999999999      7.6304249999999998
  2918   2      26.624096000000002      8.0575740000000007      8.5433990000000009
  2919   5      13.531086999999999      18.786111999999999                 1.21854
  2920   2               12.840415               19.386015      1.5097659999999999
  2921   2               13.598131      18.940785000000002     0.27290599999999998
  2922   5      2.3349929999999999      8.1845029999999994                1.071563
  2923   2      3.1114860000000002      8.6533300000000004     0.75694399999999995
  2924   2      2.4829159999999999      8.0846180000000007      2.0153759999999998
  2925   5      35.470137000000001               30.495151      21.284811999999999
  2926   2      36.082465999999997      29.851717000000001      21.649190000000001
  2927   2      34.999310999999999      30.014596000000001      20.599222999999999
  2928   5               13.081721               30.384739               16.497601
  2929   2               12.146716      30.318663999999998      16.289937999999999
  2930   2               13.144539      30.091888000000001      17.410253000000001
  2931   5               12.224249      1.3082149999999999               11.076817
  2932   2               12.177787     0.72121400000000002               11.835103
  2933   2      13.116111999999999      1.1919789999999999               10.739606
  2934   5      34.933157999999999      10.862550000000001      22.707689999999999
  2935   2               35.186214               11.385503      23.472024999999999
  2936   2      33.973407999999999      10.841371000000001               22.740447
  2937   5      36.311554000000001               15.472146      40.962409999999998
  2938   2      35.667093000000001      14.842226999999999               41.293467
  2939   2      35.826228999999998               15.993302      40.317819999999998
  2940   5      4.1085430000000001      7.6805320000000004      26.916547000000001
  2941   2      3.4765519999999999      7.3410039999999999      26.278555000000001
  2942   2      3.6001820000000002      7.7813230000000004      27.725283000000001
  2943   5                3.494523      8.7994319999999995      36.626086000000001
  2944   2      3.4848029999999999      7.8399219999999996               36.594929
  2945   2                2.598366      9.0389839999999992      36.875402999999999
  2946   5      38.263964999999999      30.772037000000001               12.244076
  2947   2      38.842317000000001      30.050719000000001      12.502791999999999
  2948   2      38.022652999999998      30.570371000000002      11.336474000000001
  2949   5      43.227023000000003      19.591519000000002      38.662283000000002
  2950   2      42.525736000000002      18.936723000000001      38.628163000000001
  2951   2      43.740087000000003      19.351195000000001      39.437944999999999
  2952   5      6.9910690000000004      37.418815000000002      30.713156000000001
  2953   2      6.9814480000000003      38.354835000000001      30.926459999999999
  2954   2      6.5201849999999997      37.359727999999997               29.878041
  2955   5      9.8853480000000005                13.36669               14.425032
  2956   2               10.586589      12.794798999999999                14.10421
  2957   2      10.329753999999999      13.981135999999999      15.014608000000001
  2958   5                12.94591      18.320011000000001      9.4182839999999999
  2959   2               13.614613               17.729675      9.7733419999999995
  2960   2      12.735340000000001      17.951091999999999      8.5567740000000008
  2961   5      42.509512999999998      11.316383999999999      23.603231999999998
  2962   2      42.480611000000003      10.371957999999999      23.773375000000001
  2963   2      43.341543000000001      11.602698999999999                23.98845
  2964   5      37.729928000000001      29.839480999999999                3.213022
  2965   2      37.350360999999999      28.957802000000001                3.230219
  2966   2      37.544294000000001               30.161752      2.3274010000000001
  2967   5      26.052838999999999      7.0795450000000004               12.554891
  2968   2      26.932849999999998                6.744059               12.741315
  2969   2               25.873745      6.7925310000000003               11.655896
  2970   5      19.867087999999999               11.445537               15.020127
  2971   2               19.335466               11.036785               14.333086
  2972   2      19.247523999999999      11.608332000000001               15.735863
  2973   5      5.4665160000000004               18.858013      1.2462070000000001
  2974   2      5.9372740000000004      19.349527999999999     0.56906199999999996
  2975   2      4.6499309999999996      19.347881999999998      1.3721380000000001
  2976   5      7.8641370000000004      24.169917999999999               15.248467
  2977   2      7.2662880000000003      23.509052000000001               15.605618
  2978   2      7.3097640000000004      24.710757000000001      14.680307000000001
  2979   5      35.056621999999997               19.893075      35.869351999999999
  2980   2      34.252085999999998      19.662876000000001               35.398761
  2981   2      34.991534999999999      20.842068000000001      36.002834999999997
  2982   5      18.478197000000002      11.650748999999999      34.863975000000003
  2983   2               18.447118      10.692826999999999      34.920051000000001
  2984   2               19.034354      11.914828999999999      35.601263000000003
  2985   5      11.345541000000001      21.089635999999999                12.08689
  2986   2      11.172776000000001      21.450779000000001      11.214276999999999
  2987   2                12.24267               20.750926      12.031416999999999
  2988   5               12.426309                 6.02956      14.022544999999999
  2989   2               11.543021      6.3751990000000003               14.171075
  2990   2               12.630824      5.5446280000000003      14.826072999999999
  2991   5      11.375726999999999      34.575600000000001      5.2497939999999996
  2992   2      12.204105999999999      34.535524000000002      5.7334339999999999
  2993   2               11.441765      33.867018000000002      4.6046649999999998
  2994   5      20.759847000000001      35.522167000000003               20.456166
  2995   2               20.535957      34.589072999999999      20.425605000000001
  2996   2      20.407136999999999      35.878948000000001      19.637053999999999
  2997   5      25.971550000000001      13.818046000000001      31.797965999999999
  2998   2      26.375896999999998                12.98329      31.550153000000002
  2999   2      26.647162999999999               14.266748      32.312607999999997
  3000   5      19.573246000000001      36.984920000000002      25.421918000000002
  3001   2               19.796616      36.862144000000001      24.496307000000002
  3002   2      19.308236000000001      37.906153000000003      25.483076000000001
  3003   5               37.553407      1.7464820000000001     0.67315100000000005
  3004   2      36.632896000000002      1.9740819999999999     0.82342300000000002
  3005   2      37.936712999999997      2.5413899999999998     0.29388700000000001
  3006   5      8.9316320000000005      29.723088000000001               25.478793
  3007   2      8.2518639999999994      29.394867999999999      26.072013999999999
  3008   2      8.4791150000000002      29.841353999999999      24.639814999999999
  3009   5      2.2613949999999998                 7.98292      39.174314000000003
  3010   2                3.215525                7.877243      39.188211000000003
  3011   2      1.9501470000000001                7.265517      38.616551000000001
  3012   5      19.059913000000002      42.387402000000002                25.16685
  3013   2      18.715848000000001      43.130130000000001               25.668547
  3014   2      20.004041999999998               42.397323      25.343381000000001
  3015   5      38.983162999999998      23.487259999999999               14.136872
  3016   2      39.676209999999998               22.886339      14.420253000000001
  3017   2      39.421691000000003      24.086715999999999               13.527785
  3018   5      43.394207000000002      20.228504999999998      29.164992000000002
  3019   2      44.263643000000002      20.034783999999998      29.523150999999999
  3020   2      43.409407000000002      19.848002999999999      28.283159000000001
  3021   5      44.235081999999998      22.057874000000002               21.453598
  3022   2      44.606231000000001               21.195179      21.652926999999998
  3023   2      43.616740999999998      21.891750999999999               20.737568
  3024   5               24.901515                8.099558                1.261927
  3025   2               25.310907      8.3787640000000003                0.439633
  3026   2      24.145295000000001      8.6833010000000002      1.3620159999999999
  3027   5      34.602181000000002      35.069873999999999               23.344348
  3028   2      33.677517000000002      35.194656000000002      23.570509999999999
  3029   2      35.006977999999997               34.759715      24.158339999999999
  3030   5      29.425543000000001               34.401246      17.094263999999999
  3031   2      29.433146000000001      33.449671000000002      17.221430999999999
  3032   2               30.308978                 34.6066               16.778015
  3033   5      16.806674000000001      19.502849999999999      6.0343980000000004
  3034   2      16.551013000000001      20.109031000000002      6.7336169999999997
  3035   2               15.983295               19.296554      5.5848089999999999
  3036   5               16.578512      5.1930870000000002               15.259072
  3037   2      15.845484000000001      5.1760890000000002               15.878835
  3038   2      16.361678999999999      4.5145949999999999      14.614655000000001
  3039   5               30.861497      36.076073000000001      30.448675999999999
  3040   2               30.950612      35.138238999999999               30.633744
  3041   2      31.762080999999998      36.409559999999999      30.468077000000001
  3042   5      33.996225000000003      35.868321999999999      42.052678999999998
  3043   2      33.156438000000001      35.815427999999997               42.514941
  3044   2      33.980536000000001      36.729506999999998      41.627524000000001
  3045   5               19.864265      14.051337999999999                3.883667
  3046   2      20.001694000000001                14.73427      4.5443040000000003
  3047   2      20.750474000000001      13.808593999999999      3.6037509999999999
  3048   5      17.600549000000001      34.774714000000003      40.731327999999998
  3049   2      17.953980000000001      34.447226000000001      41.561726999999998
  3050   2      17.967590000000001      35.658442000000001      40.647969000000003
  3051   5                27.52769               37.745742      29.665849999999999
  3052   2      27.598390999999999      38.687150000000003               29.491273
  3053   2      26.669505000000001      37.644829000000001      30.085346000000001
  3054   5      17.647539999999999               24.111518      9.0316550000000007
  3055   2      16.688345999999999               24.088777      8.9976819999999993
  3056   2      17.908429000000002      24.455335999999999      8.1735360000000004
  3057   5      29.583801999999999      13.840904999999999      15.537839999999999
  3058   2               28.708914               13.451399               15.605525
  3059   2               30.005595      13.357018999999999               14.823286
  3060   5               14.566051               43.350693                14.89697
  3061   2      15.274184999999999      43.407347000000001      15.542771999999999
  3062   2               15.012869      43.400905999999999      14.048163000000001
  3063   5      38.358553999999998                4.940391      9.0478989999999992
  3064   2      37.805936000000003                5.473217      8.4713270000000005
  3065   2      37.888426000000003      4.9295080000000002      9.8854559999999996
  3066   5      41.662995000000002      34.549064999999999               37.570459
  3067   2      42.365518000000002      34.265087999999999      38.159987000000001
  3068   2      41.096719999999998      33.777861999999999      37.485489999999999
  3069   5      23.549845999999999      44.234095000000003      18.650850999999999
  3070   2      22.814965000000001      44.850096999999998      18.603764000000002
  3071   2      24.066376999999999      44.418427000000001      17.862269999999999
  3072   5                1.100606      30.922433000000002                29.51013
  3073   2                1.561021      31.597300000000001               29.005851
  3074   2     0.51878800000000003      30.502842999999999               28.871323
  3075   5                1.560438      31.678622000000001      1.4769699999999999
  3076   2      2.2479010000000001      31.134240999999999                1.867826
  3077   2     0.74636599999999997               31.352363      1.8687419999999999
  3078   5      23.978173000000002      24.914349000000001      8.8676480000000009
  3079   2                24.48639      25.687522000000001      9.1238550000000007
  3080   2               24.492777      24.513712999999999      8.1624420000000004
  3081   5      32.104731000000001      36.140830000000001      8.6687290000000008
  3082   2      31.375814999999999      35.660575000000001      8.2690280000000005
  3083   2      32.746679999999998      36.232860000000002      7.9601579999999998
  3084   5      42.730378999999999      20.599526000000001      16.528417000000001
  3085   2      43.670608000000001               20.601274      16.334275000000002
  3086   2      42.634323999999999      21.228542999999998      17.247966999999999
  3087   5      28.275251000000001      4.2110079999999996      15.628850999999999
  3088   2      28.552364000000001      4.9222239999999999      15.046523000000001
  3089   2               27.406838      4.4808139999999996               15.938214
  3090   5      3.4737490000000002               10.937576      38.647644999999997
  3091   2      3.6180880000000002      9.9928989999999995      38.739713999999999
  3092   2      2.9443739999999998      11.021318000000001      37.850530999999997
  3093   5      33.735512999999997      26.883707999999999      37.561813999999998
  3094   2      33.512253000000001      25.950040999999999      37.573903999999999
  3095   2      33.173616000000003      27.254370000000002      36.876595999999999
  3096   5      43.575192999999999               42.753605      39.474454000000001
  3097   2      43.752935000000001      43.685732000000002      39.620303999999997
  3098   2      43.872979999999998               42.325063      40.280875999999999
  3099   5      2.6605289999999999      8.6393900000000006               22.334173
  3100   2                1.800859      8.2683970000000002               22.121907
  3101   2                2.485932      9.5706380000000006      22.492080000000001
  3102   5      38.237153999999997               36.388942      44.412225999999997
  3103   2               38.071171               37.311999      44.617505999999999
  3104   2      37.428888000000001      35.938343000000003      44.669730999999999
  3105   5      30.333266999999999      4.9412149999999997               41.430135
  3106   2      29.767278999999998      5.6775770000000003      41.673349000000002
  3107   2      30.855505999999998      5.2742459999999998      40.695968999999998
  3108   5      17.429396000000001      38.907198999999999               15.094657
  3109   2               18.299249      38.761944999999997      15.474106000000001
  3110   2      17.068256999999999      38.024375999999997               14.981322
  3111   5      3.3070110000000001      15.472912000000001      40.605747999999998
  3112   2                3.450996               14.720865      41.184901000000004
  3113   2      3.5587599999999999      15.154946000000001      39.735022999999998
  3114   5      7.9002650000000001      32.276778999999998               14.981745
  3115   2      7.4406189999999999      32.531697999999999      14.178335000000001
  3116   2      7.7561200000000001               31.329466               15.048555
  3117   5      3.1351619999999998      9.5674209999999995               31.484527
  3118   2                 3.91906      9.0217130000000001               31.387414
  3119   2      3.3899309999999998      10.239456000000001               32.121789
  3120   5               10.509179      8.4733900000000002      15.893997000000001
  3121   2               10.327347      7.6035620000000002      15.530594000000001
  3122   2               10.988818      8.2965409999999995      16.707208000000001
  3123   5      5.3744699999999996               28.942245      5.2274139999999996
  3124   2      6.2356210000000001      29.196349000000001      5.5673760000000003
  3125   2      5.5718139999999998               28.399379      4.4599539999999998
  3126   5               11.676154      26.729327999999999      29.863123000000002
  3127   2               12.599392      26.664224000000001      29.607942999999999
  3128   2      11.688133000000001      27.248826000000001               30.670973
  3129   5               24.497366      21.638632999999999      5.7509730000000001
  3130   2      25.165254999999998      22.212250000000001      5.3680709999999996
  3131   2               24.185088      22.118151999999998      6.5224549999999999
  3132   5               27.535394               44.019126      19.744572000000002
  3133   2      27.563794000000001               43.731237      18.829128000000001
  3134   2      28.375171999999999      43.731102999999997               20.111255
  3135   5      35.154318000000004      22.579288999999999     0.57966300000000004
  3136   2      34.215372000000002               22.683214     0.75085400000000002
  3137   2      35.577007000000002      22.842559999999999                1.401043
  3138   5      36.142330999999999      43.719062999999998      37.104576999999999
  3139   2               35.471508      44.398563000000003      37.204586999999997
  3140   2               36.649206      43.995569000000003      36.336941000000003
  3141   5               20.244294      22.441998000000002      5.9689160000000001
  3142   2      20.766296000000001      22.733854000000001      5.2178769999999997
  3143   2      19.518557000000001      21.949110000000001      5.5777520000000003
  3144   5      42.151994000000002      31.039193999999998      12.631451999999999
  3145   2      42.299554999999998               31.955002               12.878935
  3146   2      43.019536000000002               30.631974      12.696148000000001
  3147   5               18.415554      9.9638740000000006               11.992257
  3148   2      18.827030000000001               10.826739               11.903502
  3149   2      18.968191000000001      9.5002910000000007               12.626548
  3150   5      39.354927000000004               22.119384      16.465495000000001
  3151   2      39.619706000000001               21.309891      16.908594999999998
  3152   2      38.537402999999998                21.88917      16.016832000000001
  3153   5               38.149746      31.156486000000001      17.224309999999999
  3154   2               38.685575      31.082184000000002      16.431156000000001
  3155   2      38.649030000000003      31.746144999999999      17.794975999999998
  3156   5      8.4561089999999997      18.743303999999998      31.790469000000002
  3157   2                8.303585      19.673476000000001      31.972795000000001
  3158   2      7.7200620000000004      18.293659000000002      32.213192999999997
  3159   5      21.219353999999999      9.2225900000000003      32.567525000000003
  3160   2      21.228639999999999      8.3117070000000002      32.870727000000002
  3161   2               22.147468      9.4590789999999991               32.494591
  3162   5      4.2332390000000002      9.6664670000000008      43.495415000000001
  3163   2      4.7606950000000001      9.0692509999999995      44.030996999999999
  3164   2      4.3277700000000001      10.519702000000001      43.926340000000003
  3165   5      37.547483999999997      7.4471720000000001               10.446626
  3166   2      36.777290000000001      6.8743509999999999      10.426526000000001
  3167   2      37.911056000000002      7.3890739999999999                 9.55945
  3168   5      18.722242000000001      3.9023620000000001      34.248896000000002
  3169   2      19.246082999999999      3.2137039999999999      34.664906999999999
  3170   2      18.122717000000002      3.4276089999999999      33.667672000000003
  3171   5      41.202226000000003      30.786172000000001      7.3684710000000004
  3172   2      40.920212999999997      30.081945999999999      7.9569089999999996
  3173   2      40.486274999999999      30.867156999999999                6.733257
  3174   5      19.420266999999999      6.4281579999999998      5.2873999999999999
  3175   2      19.167940999999999      6.1502160000000003      4.4037689999999996
  3176   2      19.325416000000001      5.6362220000000001      5.8226399999999998
  3177   5      37.399397999999998               23.340515      41.182319999999997
  3178   2      37.239437000000002      22.548694000000001      41.701123000000003
  3179   2      37.971212000000001      23.877383999999999      41.736795999999998
  3180   5      38.949072000000001      6.8791919999999998      19.984708000000001
  3181   2      39.581623999999998      6.1652639999999996      20.093837000000001
  3182   2      39.255789999999998      7.5633569999999999      20.585111999999999
  3183   5      41.318027999999998               28.289437      30.091754999999999
  3184   2      40.588312000000002      27.669934000000001      30.017894999999999
  3185   2      41.899379000000003               27.895996      30.747406000000002
  3186   5               22.093819      38.789397999999998      43.312117000000001
  3187   2               21.980739      39.567771999999998      43.862636999999999
  3188   2               22.896414      38.964100999999999      42.814157999999999
  3189   5               25.469614      42.049036999999998      20.121027999999999
  3190   2      25.071667999999999      42.895552000000002      20.337305000000001
  3191   2      25.953908999999999      42.213993000000002               19.308076
  3192   5               25.724525      21.575151000000002      35.432276000000002
  3193   2      26.644698999999999      21.817893999999999      35.559078999999997
  3194   2      25.681999999999999               21.268293      34.523060999999998
  3195   5                2.017134      44.433979999999998      38.653844999999997
  3196   2      2.7168770000000002      44.999935000000001      38.319507999999999
  3197   2                 1.51555      44.999679999999998                39.24633
  3198   5               41.108466      38.334184999999998      13.211067999999999
  3199   2      41.902906999999999      37.827308000000002               13.394546
  3200   2      40.820762999999999               38.646715      14.072575000000001
  3201   5                7.629257               10.872973      18.553312999999999
  3202   2      7.8717370000000004      11.433967000000001      19.293727000000001
  3203   2      7.2042630000000001               11.469196      17.931588000000001
  3204   5      39.898600999999999      6.8763629999999996               27.123234
  3205   2      39.280101000000002      6.7980720000000003      26.393129999999999
  3206   2      39.698832000000003                6.124479      27.686620999999999
  3207   5      5.3325560000000003      18.002355000000001      42.291457999999999
  3208   2      5.8565909999999999      17.448052000000001      42.874434000000001
  3209   2      5.2333720000000001      17.480122000000001      41.491410000000002
  3210   5      31.288149000000001      21.004550999999999      4.6397409999999999
  3211   2      30.347460000000002      21.083123000000001      4.4646540000000003
  3212   2      31.360590999999999      20.237912000000001      5.2138999999999998
  3213   5               14.004489               13.185297      8.0413669999999993
  3214   2      13.428074000000001      12.455762999999999      8.2806370000000005
  3215   2      13.530067000000001      13.645277999999999      7.3442420000000004
  3216   5      25.515546000000001      40.910853000000003      26.206254999999999
  3217   2                25.30752      40.985093999999997               25.271943
  3218   2      25.664100000000001      39.971854999999998                26.34357
  3219   5               12.619344               25.052985     0.67619799999999997
  3220   2               13.456462      25.521512000000001     0.71415099999999998
  3221   2               12.344699      24.980792999999998                1.593804
  3222   5      14.665253999999999      41.487698999999999      1.0254220000000001
  3223   2      15.589359999999999      41.593846999999997                1.263091
  3224   2               14.481106      40.559924000000002      1.1926490000000001
  3225   5      15.050190000000001               11.647931      40.292516999999997
  3226   2      15.894581000000001               11.850339      39.882933000000001
  3227   2      14.954357999999999               12.310547      40.981282999999998
  3228   5               37.122273               16.618496               31.696645
  3229   2               37.257711               17.324306      32.333208999999997
  3230   2      37.773415999999997      15.953919000000001      31.935375000000001
  3231   5      32.073393000000003               34.444277      19.202294999999999
  3232   2      31.651295000000001               34.931061               18.490537
  3233   2      31.367273999999998      33.913654999999999      19.579757000000001
  3234   5               10.887551      36.008951000000003      23.321273999999999
  3235   2               11.014096      35.388666000000001      24.043047999999999
  3236   2               11.767837               36.348931      23.141964999999999
  3237   5      33.915449000000002      24.853556000000001      41.238038000000003
  3238   2      33.056595999999999      24.424883999999999               41.219718
  3239   2      33.896016000000003      25.458366000000002      40.492069000000001
  3240   5      13.953943000000001      21.979033000000001               29.228541
  3241   2                14.22139      21.130572000000001      28.867553000000001
  3242   2               13.547146               22.435724      28.487870999999998
  3243   5               15.451516      25.107227999999999      10.512060999999999
  3244   2               14.857504      24.399961000000001      10.250052999999999
  3245   2      16.076709999999999      24.685431999999999               11.106925
  3246   5               37.485636      34.084817000000001      26.769010000000002
  3247   2      37.203052999999997      34.221406999999999      27.676321999999999
  3248   2      37.787548000000001      34.949840999999999      26.480523999999999
  3249   5               21.892094                1.898584               20.587882
  3250   2               21.516517      2.6279240000000001      20.089155000000002
  3251   2      22.833784999999999      1.9439310000000001               20.404024
  3252   5      31.828482000000001               15.904576      29.658650999999999
  3253   2      31.133665000000001      15.591017000000001               30.242289
  3254   2               31.588182      15.559575000000001               28.795012
  3255   5      17.784638000000001      19.709333999999998      33.964816999999996
  3256   2      18.310987999999998      19.700240000000001      33.161948000000002
  3257   2               18.144489      18.992982999999999      34.493957999999999
  3258   5      18.074954999999999      39.299622999999997      12.637055999999999
  3259   2      17.238313999999999               38.914116               12.907503
  3260   2      18.269836000000002               38.879956               11.795306
  3261   5                3.263261      17.768730999999999                3.856792
  3262   2      3.7766259999999998      16.987728000000001      3.6372100000000001
  3263   2                3.855966               18.502471      3.6752210000000001
  3264   5      23.376463999999999      43.939078000000002               23.851426
  3265   2               23.259815      43.052953000000002      24.201999000000001
  3266   2      22.915023999999999               44.505029      24.475456000000001
  3267   5     0.38190600000000002      25.509672999999999      5.4381190000000004
  3268   2                0.334957               25.444049      4.4814509999999999
  3269   2      1.1868430000000001               25.039686                5.670134
  3270   5      24.849668999999999      17.281753999999999      38.873291000000002
  3271   2      24.493632999999999               18.056179      39.315137999999997
  3272   2      24.650987000000001      17.424765000000001      37.944465999999998
  3273   5      6.0738240000000001      24.745301000000001                39.88897
  3274   2                5.332166      25.260739999999998      39.563406000000001
  3275   2      6.8286020000000001               25.333209      39.803434000000003
  3276   5      37.243614999999998      9.1168139999999998      42.403247999999998
  3277   2      36.451551000000002      8.7114530000000006      42.042633000000002
  3278   2      36.941476999999999      9.9571780000000008      42.757005999999997
  3279   5      8.6885969999999997               36.071821                34.88344
  3280   2      9.4099140000000006      36.623700999999997      35.194656999999999
  3281   2      8.9553849999999997      35.806772000000002      33.999577000000002
  3282   5      30.816009999999999      20.688434999999998      19.257971000000001
  3283   2      31.684035000000002      20.990428999999999                18.98038
  3284   2               30.923638               20.476561      20.188652000000001
  3285   5      41.605595999999998      43.575184999999998      5.6838179999999996
  3286   2      42.153081999999998      42.985142000000003      5.1605280000000002
  3287   2      41.625509000000001               44.407097                5.204059
  3288   5      32.710281000000002      1.3317680000000001               12.210067
  3289   2      32.508054000000001     0.49190600000000001      11.791187000000001
  3290   2      31.852173000000001      1.7374529999999999      12.357417999999999
  3291   5      16.932787000000001               10.335331                3.781898
  3292   2               16.777507      9.7873409999999996      3.0090340000000002
  3293   2      16.243307999999999      11.002986999999999                3.743214
  3294   5               14.747892               16.913549      44.997461000000001
  3295   2               14.330798      16.806522999999999      44.139380000000003
  3296   2      15.672935000000001      17.074083000000002      44.794564000000001
  3297   5      12.362083999999999   0.0015380000000000001      33.912381000000003
  3298   2               11.533078     0.48148200000000002      33.976624999999999
  3299   2               12.990952                0.653582      33.592998999999999
  3300   5      33.757976999999997      42.386119000000001               37.790357
  3301   2               33.766278      41.522986000000003      37.370050999999997
  3302   2      34.499015999999997      42.361100999999998      38.400993999999997
  3303   5      40.143881999999998      16.270593000000002               18.605615
  3304   2      39.912213999999999      16.493673000000001      17.701021000000001
  3305   2               39.325564      16.382836000000001      19.095918999999999
  3306   5               13.832564      34.940890000000003               14.699083
  3307   2      13.167638999999999      35.359333999999997      14.147263000000001
  3308   2      13.898657999999999      35.512818000000003                15.46796
  3309   5      13.235372999999999      6.8024389999999997      11.381152999999999
  3310   2               13.668642      7.6212569999999999      11.129079000000001
  3311   2               12.640333      7.0563159999999998      12.091163999999999
  3312   5      28.602087000000001      43.901150999999999      39.103096000000001
  3313   2                29.00131      44.711069000000002      38.776940000000003
  3314   2      27.915499000000001      44.199348000000001      39.705024000000002
  3315   5               13.811173      21.399066999999999      5.8711180000000001
  3316   2               14.213174      22.141466000000001      6.3282449999999999
  3317   2      14.317030000000001      21.317053999999999                  5.0587
  3318   5      3.5177510000000001      42.495268000000003      38.090682000000001
  3319   2      4.2058119999999999      42.622351000000002      37.433303000000002
  3320   2      3.9263680000000001      41.939554999999999      38.759155999999997
  3321   5               30.847092      31.903632000000002      38.631239000000001
  3322   2      30.220728000000001      31.683911999999999      39.324865000000003
  3323   2               31.312718      32.674278000000001               38.965812
  3324   5      38.901378999999999      5.0474399999999999      14.119355000000001
  3325   2      39.546245999999996      4.7334059999999996      13.481191000000001
  3326   2      38.226407999999999      5.4745290000000004      13.585827999999999
  3327   5      36.026755000000001                11.83441               31.790927
  3328   2               36.232419               10.953982      32.113841000000001
  3329   2      35.513587999999999               11.682019               30.993382
  3330   5                3.092762      29.469494000000001      34.046866999999999
  3331   2      3.5660319999999999      30.283633999999999      34.233727000000002
  3332   2      2.3076560000000002      29.518197000000001      34.598117999999999
  3333   5                9.916639               25.210165      10.465332999999999
  3334   2               10.805109      25.337064999999999      10.124389000000001
  3335   2      9.4768869999999996      26.048525000000001      10.302815000000001
  3336   5      40.974620999999999      8.8636549999999996      40.507705000000001
  3337   2      40.321584999999999      8.4991599999999998      41.109712000000002
  3338   2      41.551228000000002      8.1228230000000003      40.304395999999997
  3339   5      27.957429000000001      1.9952179999999999      3.4502790000000001
  3340   2               27.167583      1.9255180000000001      3.9915829999999999
  3341   2      27.936368000000002      2.8941309999999998      3.1124109999999998
  3342   5      39.544145999999998      7.9804940000000002      44.367511999999998
  3343   2               38.846173      8.6182739999999995      44.534230000000001
  3344   2      40.231693999999997      8.2091809999999992      44.998083999999999
  3345   5                15.40203      4.9862339999999996      44.534053999999998
  3346   2      15.973679000000001      4.3662450000000002      44.992918000000003
  3347   2      14.925257999999999      4.4458339999999996      43.898997000000001
  3348   5      34.563052999999996      33.791111999999998      19.290385000000001
  3349   2      34.200924999999998      34.513919999999999               19.808204
  3350   2      34.333061000000001      34.008842999999999      18.383555999999999
  3351   5      44.993934000000003               17.752347      36.738084999999998
  3352   2      44.876708999999998      18.600152999999999      36.303103999999998
  3353   2      44.454255000000003      17.814171000000002      37.530275000000003
  3354   5      24.093430999999999               40.746848               17.224497
  3355   2      24.262972000000001      41.294632999999997      16.454488999999999
  3356   2      23.515968999999998               40.051313      16.899827999999999
  3357   5               10.439209      12.521786000000001      17.485313000000001
  3358   2               10.241932      13.425281999999999               17.743195
  3359   2               11.076625      12.611114000000001      16.772317000000001
  3360   5      40.302883000000001      39.995964999999998      44.992631000000003
  3361   2      40.411861000000002      39.084454000000001      44.711565999999998
  3362   2      41.058343999999998      40.453755000000001      44.615340000000003
  3363   5      11.264811999999999      19.377002000000001               10.374563
  3364   2      10.315357000000001      19.501101999999999               10.444281
  3365   2               11.459866               18.673845      10.999193999999999
  3366   5      31.297637999999999               25.450892      38.959283999999997
  3367   2      30.404302999999999      25.655743000000001      39.245139999999999
  3368   2      31.612539999999999               24.810091      39.601819999999996
  3369   5      19.608948000000002      34.702440000000003      24.829429000000001
  3370   2      19.449145000000001      33.768787000000003      24.672965000000001
  3371   2      19.456911999999999      34.815835999999997      25.771059999999999
  3372   5      30.720521999999999      7.2624230000000001      8.3094929999999998
  3373   2                31.07452      8.1426970000000001      8.1627740000000006
  3374   2      30.204606999999999      7.3442080000000001      9.1155860000000004
  3375   5      4.4821229999999996      25.350504000000001      6.8368859999999998
  3376   2      3.9143319999999999               25.284022      7.6081960000000004
  3377   2                5.260364      25.816296000000001      7.1531479999999998
  3378   5                20.03612               17.994947      33.974446999999998
  3379   2               20.380644               18.353247      34.795817999999997
  3380   2               20.728372      18.165835999999999      33.330843999999999
  3381   5      9.5792169999999999      26.122064999999999      2.1340849999999998
  3382   2      9.8679330000000007      25.206918999999999      2.1636669999999998
  3383   2      8.8092780000000008      26.147839999999999      2.7078199999999999
  3384   5      6.6655449999999998      23.690300000000001      2.0057770000000001
  3385   2      5.9670769999999997      24.305793999999999      2.2403759999999999
  3386   2      7.1374040000000001      24.126080999999999      1.2915749999999999
  3387   5                1.044789      40.408349000000001      38.383572999999998
  3388   2     0.22733900000000001      40.076089000000003      38.005280999999997
  3389   2      1.5103519999999999      39.620274000000002      38.674829000000003
  3390   5               27.299585                8.688212      28.802143000000001
  3391   2      26.671513999999998      8.0072109999999999      29.054113999999998
  3392   2               26.810737      9.5097620000000003      28.895555999999999
  3393   5      38.215184000000001      10.096356999999999      13.598751999999999
  3394   2      37.326045000000001      9.7843719999999994               13.782662
  3395   2      38.736707000000003      9.7815510000000003      14.341418000000001
  3396   5               22.330949                 6.86076               23.090256
  3397   2      23.094457999999999                6.287261               22.990872
  3398   2      22.688531999999999      7.7490550000000002      23.014693000000001
  3399   5      2.7883969999999998      28.295998999999998               38.830126
  3400   2                3.334238      29.050073000000001      38.595275000000001
  3401   2                1.895994               28.566734      38.599989000000001
  3402   5      16.607766999999999     0.84914000000000001               10.659929
  3403   2      17.350556000000001      1.3738999999999999               10.967527
  3404   2      16.974564000000001     0.30480200000000002      9.9586450000000006
  3405   5      14.551638000000001      40.580266000000002      9.6669529999999995
  3406   2               15.000835      39.758774000000003      9.8793159999999993
  3407   2      14.147061000000001               40.416497      8.8113019999999995
  3408   5               10.665749               22.370649      13.981120000000001
  3409   2               10.976352      22.985029000000001      13.311951000000001
  3410   2               11.251598      22.515761000000001      14.728358999999999
  3411   5      28.943228999999999               20.143224               11.658092
  3412   2      28.988596000000001      19.201910999999999      11.474799000000001
  3413   2      29.555029000000001               20.273965      12.386960999999999
  3414   5      2.6372450000000001      3.2685059999999999      20.781524000000001
  3415   2      2.7109009999999998                3.872026      21.524533999999999
  3416   2      2.3402660000000002      3.8210289999999998      20.054086999999999
  3417   5      32.754500999999998      39.880768000000003               32.560997
  3418   2      32.322324999999999      40.628255000000003      32.141221999999999
  3419   2      32.301056000000003               39.112451               32.205022
  3420   5      20.207367000000001      1.7789509999999999               14.786023
  3421   2      20.077992999999999      1.6326860000000001               13.846026
  3422   2      20.773578000000001      1.0546580000000001      15.064315000000001
  3423   5      23.759927000000001      9.9895340000000008      30.477944000000001
  3424   2      24.283519999999999               10.378686               29.773574
  3425   2      24.086877000000001               10.409094               31.277766
  3426   5                  27.776      19.070679999999999                5.034205
  3427   2      28.610361000000001      18.600003000000001      4.9707129999999999
  3428   2      27.653172000000001      19.212202000000001      5.9762909999999998
  3429   5               33.779294      44.565022999999997      4.8517890000000001
  3430   2      34.606064000000003      44.133166000000003      5.0791149999999998
  3431   2      33.436838000000002      44.051904999999998                4.115532
  3432   5               27.547138      7.8868320000000001      34.231043999999997
  3433   2      27.885643000000002      7.2818550000000002               34.895229
  3434   2               27.929116      8.7363879999999998      34.465542999999997
  3435   5      36.476509999999998      33.227420000000002      23.581852000000001
  3436   2      36.150056999999997      32.496295000000003      23.052126000000001
  3437   2      37.427475999999999      33.095179999999999      23.610448000000002
  3438   5               42.389789      5.0161709999999999      33.238169999999997
  3439   2      41.680542000000003                5.075774      33.882485000000003
  3440   2      42.766457000000003      5.8994960000000001               33.215809
  3441   5      32.820784000000003      26.718488000000001      2.2243620000000002
  3442   2      33.655110999999998               26.588607      2.6812580000000001
  3443   2      32.179108999999997      26.837986999999998                2.929071
  3444   5      15.767072000000001      37.938059000000003      7.4488709999999996
  3445   2      15.441465000000001               38.598067      8.0653889999999997
  3446   2               15.882368      37.148544999999999                7.983676
  3447   5      19.880507999999999      44.260381000000002      24.184736000000001
  3448   2      19.287665000000001      44.999628000000001      24.030536999999999
  3449   2               20.758875      44.630074999999998      24.064565999999999
  3450   5               33.019838      33.808517999999999      32.441431000000001
  3451   2      32.212463999999997      34.109627000000003      32.864756999999997
  3452   2      32.996445000000001               34.211171               31.569671
  3453   5               28.293336      17.144300000000001      22.482634000000001
  3454   2      28.396457000000002      17.809895999999998      21.798476000000001
  3455   2      28.956907000000001                16.48218      22.273081000000001
  3456   5      35.692152999999998               10.257223               27.055788
  3457   2      35.124882999999997      11.030519999999999      27.011731000000001
  3458   2               36.105846               10.313964      27.920819999999999
  3459   5               19.794079                43.03472      42.037483000000002
  3460   2               19.556797      42.143008000000002      41.772396000000001
  3461   2      20.749928000000001      43.063904999999998               41.947243
  3462   5      3.3821699999999999      34.550021999999998      18.202552000000001
  3463   2      2.8184130000000001               34.898336      17.507871999999999
  3464   2      2.8050090000000001      33.976255999999999      18.712768000000001
  3465   5      8.4201180000000004      31.765391000000001      3.9042289999999999
  3466   2      8.5461039999999997               32.672981                4.190817
  3467   2                 9.28355      31.358892000000001      4.0132519999999996
  3468   5      27.466007999999999               10.608627      32.770560000000003
  3469   2      27.373467999999999      11.058204999999999      31.927327999999999
  3470   2      28.086089000000001      9.8965320000000006      32.594315999999999
  3471   5               23.573801      7.7335190000000003      32.360639999999997
  3472   2               24.384978                7.671659      31.850847000000002
  3473   2      22.918413000000001      7.2837100000000001               31.821399
  3474   5      32.389724999999999      41.093040000000002      23.118715000000002
  3475   2      32.077447999999997      40.551166000000002      23.847124000000001
  3476   2      33.009360999999998      40.528270999999997      22.649961000000001
  3477   5      38.244359000000003      43.784917999999998      40.969521999999998
  3478   2      38.698766999999997      42.947802000000003      40.849214000000003
  3479   2      38.783092000000003      44.259050000000002      41.607964000000003
  3480   5      36.350768000000002               17.655621      7.2270120000000002
  3481   2      35.665393000000002      17.898814000000002      6.6002400000000003
  3482   2      36.045301000000002      18.012643000000001      8.0647870000000008
  3483   5               14.090206               22.983487                2.206693
  3484   2      13.137034999999999      22.953758000000001      2.3176290000000002
  3485   2                14.23048                23.64678      1.5262469999999999
  3486   5      1.8186290000000001               37.787329      27.950133999999998
  3487   2      1.2567740000000001      38.506151000000003               27.651239
  3488   2                1.828538      37.874364999999997      28.906673999999999
  3489   5               31.839202                1.783293      39.828988000000003
  3490   2      31.480277000000001      2.6288770000000001      40.108066999999998
  3491   2      32.188305999999997                1.394722               40.635078
  3492   5      39.356118000000002      11.737564000000001               33.541297
  3493   2      39.893962999999999               11.257626      34.175415999999998
  3494   2      38.521670999999998      11.879395000000001      33.995415000000001
  3495   5               33.600735      7.5401569999999998               22.725935
  3496   2               32.917887      6.8833799999999998               22.881131
  3497   2      34.387253999999999      7.0246909999999998      22.530166999999999
  3498   5      30.320796000000001      14.450423000000001      37.967626000000003
  3499   2      30.434854999999999      13.498093000000001      38.009850999999998
  3500   2      30.495000000000001               14.751355      38.863022000000001
  3501   5                1.717506      37.644210000000001      9.0558969999999999
  3502   2      2.1808999999999998      38.196491999999999      9.6899119999999996
  3503   2      2.4047139999999998      37.339655999999998      8.4578710000000008
  3504   5      36.093412000000001      2.5210379999999999      32.621797000000001
  3505   2      36.425936999999998                3.011987      31.866734000000001
  3506   2      36.214709999999997                1.599575      32.379238000000001
  3507   5      31.747537000000001                11.46149                1.596768
  3508   2               31.642083               12.048549                2.349075
  3509   2      32.694546000000003      11.309886000000001                1.543542
  3510   5      26.217434999999998      8.7154489999999996      21.395316999999999
  3511   2      25.622609000000001      8.0050849999999993      21.143744000000002
  3512   2      26.445623000000001      9.1407310000000006      20.564830000000001
  3513   5               14.030358               14.439392      36.303583000000003
  3514   2      13.459277999999999      15.093128999999999      36.713729000000001
  3515   2               13.696126               14.360039      35.406568999999998
  3516   5      39.186354000000001      20.507249999999999      25.617038999999998
  3517   2      38.610359000000003               19.776733               25.854312
  3518   2      38.746780000000001      20.925301000000001                24.87229
  3519   5      17.863503999999999      39.222731000000003               23.560371
  3520   2               17.716538      39.455494000000002      22.640616999999999
  3521   2      18.516148999999999               38.518763               23.526812
  3522   5      24.309595999999999      32.679937000000002      21.005296000000001
  3523   2      24.622205000000001      33.328989999999997      21.639907000000001
  3524   2      23.397168000000001      32.518967000000004      21.258683000000001
  3525   5      21.249231999999999      3.1384780000000001      31.412935999999998
  3526   2      20.366247000000001      2.8907120000000002      31.128903000000001
  3527   2      21.163292999999999                3.284815      32.358367999999999
  3528   5      25.460318000000001      43.330593999999998               24.168564
  3529   2      25.586304999999999      43.008277999999997      23.273040000000002
  3530   2               26.166922      42.918351000000001      24.671962000000001
  3531   5               10.329447      23.148904999999999               30.715194
  3532   2               10.994294               23.831042      30.595227000000001
  3533   2      10.645801000000001      22.412006999999999               30.186474
  3534   5      24.825354999999998      24.943860999999998      41.235438000000002
  3535   2      24.935466000000002      24.068529000000002      41.614111999999999
  3536   2      23.952566999999998      24.922312999999999               40.834916
  3537   5     0.97696000000000005               27.857198      31.008887000000001
  3538   2      1.6898420000000001      28.009257000000002      30.384066000000001
  3539   2     0.18063100000000001      27.880061000000001      30.472249999999999
  3540   5      17.989274999999999      6.8619440000000003                2.682661
  3541   2               17.137515      7.3018619999999999      2.6306790000000002
  3542   2      18.629290999999998      7.5640400000000003      2.5409480000000002
  3543   5      36.951323000000002               16.528755      35.552577999999997
  3544   2      37.811570000000003               16.954701               35.536113
  3545   2      36.579365000000003      16.709039000000001      34.685521000000001
  3546   5      8.4450090000000007      17.382573000000001      21.430720999999998
  3547   2      7.6085729999999998               17.210576      21.869489999999999
  3548   2      9.0545279999999995      17.577031999999999               22.147181
  3549   5               18.841497      2.7822490000000002               12.450034
  3550   2               19.463915                2.951775               11.738992
  3551   2      18.006616999999999      3.1270720000000001                12.12336
  3552   5                3.750683               10.748381      34.990074999999997
  3553   2      4.1508029999999998      9.9032260000000001      34.772489999999998
  3554   2      3.9737149999999999      10.886946999999999      35.914031999999999
  3555   5      9.5792479999999998      43.860070999999998      29.939098999999999
  3556   2      9.4764759999999999      43.424604000000002               30.788529
  3557   2               10.115584      43.252777999999999      29.423172000000001
  3558   5               19.224459      36.183329999999998      16.785627999999999
  3559   2      20.144673000000001      36.419428000000003               16.924153
  3560   2                18.94585               36.732298               16.048299
  3561   5      2.4836909999999999      40.705916000000002      1.7614000000000001
  3562   2                2.009112      40.036996000000002                1.262356
  3563   2      3.3228949999999999      40.794977000000003                1.302656
  3564   5               13.377469               33.622515      37.788367000000001
  3565   2      13.211021000000001      33.740507999999998      38.726502000000004
  3566   2               12.527771      33.789298000000002      37.372629000000003
  3567   5      31.020337999999999      40.111483999999997      17.245813999999999
  3568   2                30.50189      40.692089000000003               16.683823
  3569   2               31.570173      39.615774999999999      16.633770999999999
  3570   5      13.341257000000001      28.116745999999999      43.100848999999997
  3571   2               13.272432      27.411677999999998      43.748821999999997
  3572   2               12.916458      28.868908000000001      43.520896999999998
  3573   5      16.314869000000002      7.8703289999999999      31.463287000000001
  3574   2      16.806923999999999      7.0887269999999996               31.725406
  3575   2               15.756817      7.5698340000000002      30.741537999999998
  3576   5      8.0335629999999991      36.236302999999999      40.506435000000003
  3577   2      7.2065299999999999      36.718395000000001               40.433436
  3578   2      7.7859870000000004      35.396619000000001      40.901755000000001
  3579   5               23.055107               26.978185      30.969021000000001
  3580   2      24.002520000000001      27.086625999999999      30.857780000000002
  3581   2      22.792273000000002      27.723549999999999               31.514906
  3582   5               35.283189               20.501033               18.047241
  3583   2      36.064179000000003      20.926919999999999      17.686129999999999
  3584   2      34.602575000000002                21.17764               18.007126
  3585   5               28.837895               24.915257                2.370749
  3586   2      28.605809000000001               25.673575      2.9118729999999999
  3587   2      29.249441000000001      25.295926999999999      1.5907739999999999
  3588   5               14.484835      31.081910000000001      38.878301999999998
  3589   2               15.131847      31.306284999999999                38.20543
  3590   2      13.711380999999999      31.603090999999999               38.648564
  3591   5      38.964396999999998               26.838365      24.227924000000002
  3592   2      38.623308000000002      26.940774000000001      25.119492999999999
  3593   2      39.241785999999998      27.722722999999998      23.975715999999998
  3594   5      12.110798000000001      5.1171709999999999               19.452195
  3595   2      11.251265999999999      5.4851289999999997      19.234166999999999
  3596   2               11.981683      4.7005489999999996               20.307997
  3597   5               34.945957      5.7975649999999996               14.983604
  3598   2      35.179757000000002                4.919899               14.672532
  3599   2      35.699488000000002      6.3435410000000001      14.745397000000001
  3600   5      42.800291000000001      28.124697999999999      4.6599190000000004
  3601   2      42.243231999999999      28.739989000000001                4.177397
  3602   2      42.348571999999997      27.280802000000001      4.5797179999999997
  3603   5               26.134425      5.1018499999999998      25.372942999999999
  3604   2               26.646265      4.3174830000000002      25.161961000000002
  3605   2               26.421474      5.7542150000000003      24.728998000000001
  3606   5      26.935777000000002      5.4212220000000002      18.052061999999999
  3607   2      26.673681999999999      5.4618460000000004      18.974765000000001
  3608   2      26.106715000000001      5.3564309999999997      17.571332999999999
  3609   5      1.7085619999999999      3.2737219999999998      40.730908999999997
  3610   2                2.225222      3.8402090000000002      41.308732999999997
  3611   2     0.85762099999999997      3.1978680000000002      41.169983999999999
  3612   5               22.974577      6.4553320000000003      38.291162999999997
  3613   2      22.399405999999999      6.9880389999999997      37.736972999999999
  3614   2      22.384232000000001      6.0619149999999999      38.938743000000002
  3615   5      25.529392000000001      32.225796000000003      40.460667999999998
  3616   2      25.626411999999998      33.179554000000003      40.512230000000002
  3617   2      26.255915999999999      31.942195999999999      39.899974999999998
  3618   5      28.912196999999999      27.425429999999999                30.21472
  3619   2      29.822106999999999               27.146576      30.088114000000001
  3620   2      28.948264000000002      28.022943000000001      30.965931999999999
  3621   5               14.698848      6.9950739999999998                3.571418
  3622   2                15.18465      6.1997410000000004                 3.34084
  3623   2      13.806941999999999      6.8296830000000002      3.2555179999999999
  3624   5      2.0976050000000002      42.346983999999999      43.379466000000001
  3625   2      2.4751810000000001               42.288539                44.26023
  3626   2      2.8144309999999999               42.087615      42.795059999999999
  3627   5      43.469428999999998      14.121378999999999                30.33915
  3628   2               44.279947               14.040787               30.847372
  3629   2      43.533878000000001               13.429285      29.676206000000001
  3630   5      2.0916290000000002               13.646146      16.259771000000001
  3631   2                1.906698               12.963899      15.610106999999999
  3632   2      2.6491159999999998               14.274353               15.793716
  3633   5      37.165031999999997               25.377032               24.604533
  3634   2      37.784809000000003      24.999697000000001      23.975867999999998
  3635   2      37.437696000000003      25.018249999999998      25.452808999999998
  3636   5      34.902937000000001      17.619485999999998               14.664427
  3637   2      34.031089000000001      17.309294999999999      14.920135999999999
  3638   2      34.732180999999997      18.279907000000001               13.988166
  3639   5      6.8268040000000001               18.509172               39.180799
  3640   2      6.0268490000000003      18.587458999999999      38.655759000000003
  3641   2      7.4806109999999997      19.019981999999999               38.696804
  3642   5      30.588335000000001      31.611011000000001      33.480625000000003
  3643   2      30.678163999999999               32.551105      33.307765000000003
  3644   2      31.463508999999998      31.336300999999999      33.765663000000004
  3645   5      12.686954999999999      29.845313999999998      35.004905000000001
  3646   2               12.238044      30.659904000000001      34.766899000000002
  3647   2      12.071282999999999      29.395752000000002      35.589270999999997
  3648   5      18.762173000000001      41.787018000000003      43.953158999999999
  3649   2      18.432262999999999      40.905827000000002      43.762408000000001
  3650   2      18.174050000000001      42.371853999999999      43.468679999999999
  3651   5      40.620643000000001      4.8729250000000004      37.936297000000003
  3652   2      41.537171999999998      5.1263920000000001      37.804181999999997
  3653   2      40.142347999999998      5.7058229999999996      37.948782000000001
  3654   5               24.962539     0.90856000000000003      9.2800220000000007
  3655   2      24.738894999999999      1.6144689999999999      8.6689559999999997
  3656   2      24.672008999999999      1.2332639999999999      10.136060000000001
  3657   5               17.804406      40.004156000000002      17.276638999999999
  3658   2      18.604413000000001      40.456968000000003      16.999735999999999
  3659   2               17.564435      40.428663999999998               18.104194
  3660   5      28.304193000000001               25.665035      43.625162000000003
  3661   2               28.256456      26.330832999999998               42.935119
  3662   2      27.470503000000001      25.192603999999999      43.558737000000001
  3663   5               26.835528      11.604952000000001      4.7989309999999996
  3664   2               26.291017               12.381399      4.6493880000000001
  3665   2      27.345852000000001               11.512307      3.9904579999999998
  3666   5      20.013376999999998      26.822562999999999      5.4354719999999999
  3667   2               19.646193      26.143301999999998      6.0060019999999996
  3668   2      19.301759000000001      27.031562999999998      4.8250950000000001
  3669   5      35.756365000000002               36.653478      24.999704000000001
  3670   2      35.577663999999999      37.570126000000002               25.222299
  3671   2      35.515721999999997      36.164729999999999               25.790816
  3672   5      34.625179000000003      4.1046079999999998      17.484148999999999
  3673   2      34.998626999999999      4.6781129999999997      18.157464000000001
  3674   2      34.142681000000003      3.4379919999999999      17.979586999999999
  3675   5     0.95200700000000005                11.01163      17.633027999999999
  3676   2                1.734383      11.304218000000001               17.159737
  3677   2     0.96554899999999999               10.054983      17.547668999999999
  3678   5      39.865309000000003      16.055264000000001      24.940363000000001
  3679   2      40.321263000000002               15.226818      25.106218999999999
  3680   2      39.556539000000001      15.980162999999999      24.033906000000002
  3681   5               27.796367      20.191624999999998      30.816117999999999
  3682   2      27.241675999999998               20.798181      31.312235000000001
  3683   2      27.886877999999999      20.603062000000001               29.952887
  3684   5               42.158206               15.559094      29.080898000000001
  3685   2      41.473483000000002               15.072497      29.545767000000001
  3686   2      41.677173000000003      16.196974000000001      28.547644999999999
  3687   5      42.931404999999998      39.680162000000003      38.154532000000003
  3688   2      42.371017999999999      39.034021000000003      37.718418999999997
  3689   2      43.064706999999999      40.364662000000003      37.493977999999998
  3690   5      11.336537999999999      11.764106999999999      31.503831999999999
  3691   2      11.515923000000001               11.623889      32.436508000000003
  3692   2               11.859385               11.093556      31.057027999999999
  3693   5               10.945909               37.157829      19.670864000000002
  3694   2      10.702858000000001               36.902735      20.563936000000002
  3695   2               11.111369               36.325049      19.221706000000001
  3696   5      38.735545000000002                35.19265                1.277285
  3697   2               38.870756      34.270308999999997                1.047655
  3698   2      39.620946000000004      35.564185000000002      1.3031600000000001
  3699   5      23.246639999999999      35.797302999999999      21.518924999999999
  3700   2      23.954696999999999      35.385689999999997      22.019880000000001
  3701   2               23.149649      35.240951000000003      20.741938999999999
  3702   5      19.889976999999998      20.356131000000001      36.667758999999997
  3703   2      20.641856000000001      19.836061999999998               36.960898
  3704   2      19.356985000000002      19.739343000000002               36.159689
  3705   5      43.993397999999999      23.006253999999998      27.800581000000001
  3706   2      43.866044000000002      22.216422999999999      27.269850999999999
  3707   2               44.947153               23.108687               27.850586
  3708   5      24.150555000000001      29.625499000000001      32.351781000000003
  3709   2               23.397624      30.167269000000001      32.599381999999999
  3710   2      24.573046000000001      30.114820999999999               31.641354
  3711   5      31.483522000000001               15.737059      16.104645000000001
  3712   2      30.900736999999999      16.320004000000001      16.596848000000001
  3713   2      31.307711000000001      14.864254000000001      16.465122999999998
  3714   5      1.0934790000000001      38.177332999999997      44.939990999999999
  3715   2                 1.89859      37.889052999999997      44.503625999999997
  3716   2     0.55532800000000004               37.383671               44.995987
  3717   5               13.507453      34.252971000000002      18.932860999999999
  3718   2      13.669365000000001      34.734687999999998      18.118331000000001
  3719   2               12.932352      34.830514000000001               19.441136
  3720   5      31.987016000000001      22.547190000000001      33.578125999999997
  3721   2               32.375473      23.351624999999999      33.226399999999998
  3722   2      31.600608000000001      22.815404000000001      34.415616999999997
  3723   5               42.063848      19.325659000000002      31.533418000000001
  3724   2               41.397579               19.696282      30.949936999999998
  3725   2      42.884990000000002               19.733673               31.247249
  3726   5      33.709907999999999      32.422846999999997      20.992031999999998
  3727   2      33.294648000000002      33.161343000000002               21.443593
  3728   2      33.642997999999999               31.694523      21.614695999999999
  3729   5      5.3064669999999996               42.974874      26.936495000000001
  3730   2      4.7501230000000003      42.209825000000002      27.100529000000002
  3731   2      4.8853650000000002               43.685437               27.426817
  3732   5      39.056291000000002      18.631426999999999               13.218575
  3733   2      38.546280000000003               19.402984               13.476087
  3734   2      39.703203000000002               18.970561               12.594768
  3735   5      6.6823100000000002      4.7671229999999998               18.085749
  3736   2      5.7512850000000002      4.6063390000000002      17.915258999999999
  3737   2      6.7787600000000001      4.6295120000000001               19.031478
  3738   5      23.171496999999999               27.746115      33.678043000000002
  3739   2      22.430845000000001      27.925774000000001      34.261895000000003
  3740   2      23.946912000000001               27.951376      34.206476000000002
  3741   5      34.176152999999999      22.735634000000001      34.901515000000003
  3742   2      35.126043000000003      22.797840999999998      34.776755000000001
  3743   2      33.865057999999998               23.640646      34.818967000000001
  3744   5                41.16225      9.4716179999999994      21.625053999999999
  3745   2               41.601481      8.6500599999999999                21.39301
  3746   2      40.225813000000002      9.2636330000000005      21.575358999999999
  3747   5      33.432048000000002      38.337878000000003                1.377121
  3748   2               32.621817      38.635601999999999     0.95687100000000003
  3749   2      33.136225000000003      37.881652000000003      2.1689470000000002
  3750   5      2.9822329999999999      5.6102600000000002      44.057552000000001
  3751   2                 2.22011      5.7140979999999999      43.482999999999997
  3752   2      3.6608869999999998      5.2383699999999997      43.488545000000002
  3753   5      39.262354999999999      19.684784000000001      3.1463009999999998
  3754   2      40.187666999999998      19.496137000000001      3.3193199999999998
  3755   2      38.955151000000001      20.122958000000001      3.9439669999999998
  3756   5      13.792158000000001      35.793168999999999      30.095016999999999
  3757   2               13.123618      35.122247999999999      30.252003999999999
  3758   2               14.542106      35.305278999999999      29.745467999999999
  3759   5      43.026102000000002      5.0078630000000004      9.3290869999999995
  3760   2                43.54121      4.9106040000000002      8.5247679999999999
  3761   2      43.680835000000002      5.0173480000000001                10.03185
  3762   5      37.763542999999999               12.368964               14.806092
  3763   2      37.549684999999997      11.961275000000001               15.648576
  3764   2      38.681238999999998               12.130744      14.652056999999999
  3765   5      27.840931999999999               30.375785      35.049190000000003
  3766   2      28.010791000000001      31.216063999999999               34.616982
  3767   2      27.103297999999999      30.555185999999999      35.637708000000003
  3768   5                36.81485                1.294035      25.130724000000001
  3769   2      36.306376999999998      1.3782829999999999      24.320734999999999
  3770   2               37.613585      1.8010729999999999      24.964659999999999
  3771   5      13.706967000000001      34.640900000000002      2.7967330000000001
  3772   2      14.305395000000001      34.084631000000002      3.3008899999999999
  3773   2               14.068719      34.635134000000001                1.906933
  3774   5      17.506226000000002      32.996550999999997      39.429335999999999
  3775   2      17.981812000000001      33.403844999999997      38.701562000000003
  3776   2      16.866952999999999      32.419885999999998      39.003390000000003
  3777   5      13.156656999999999      35.044457000000001                24.38176
  3778   2               13.574292      34.180278999999999      24.404157999999999
  3779   2      13.823714000000001      35.621870999999999               24.001932
  3780   5      16.695938000000002      44.309434000000003      44.920850999999999
  3781   2      17.608333999999999      44.067703999999999      44.745277000000002
  3782   2      16.237511000000001      43.469011000000002      44.999434999999998
  3783   5      37.038184999999999               38.238692               13.153471
  3784   2               37.161465      37.715074999999999               13.948677
  3785   2      36.943595000000002      37.588912000000001               12.452415
  3786   5      16.947458999999998               41.820715      15.935734999999999
  3787   2      17.241772999999998      41.086471000000003               15.391686
  3788   2      17.542373999999999      42.539655000000003               15.708043
  3789   5      9.5170650000000006      8.3205030000000004      10.176655999999999
  3790   2      8.7088210000000004      7.8544689999999999      9.9502100000000002
  3791   2      9.4691609999999997      9.1383969999999994      9.6752610000000008
  3792   5      16.054535000000001      6.2952349999999999               18.644693
  3793   2      15.284458000000001      5.7341740000000003      18.762668000000001
  3794   2               16.373116      6.4535729999999996               19.536925
  3795   5      30.456935000000001      43.805644000000001               19.171025
  3796   2      30.506060999999999      42.879900999999997      19.420646999999999
  3797   2      29.818422999999999      43.825609999999998      18.453707000000001
  3798   5      4.4588729999999996      39.187973999999997               14.353742
  3799   2      5.2812130000000002      39.587757000000003      14.061070000000001
  3800   2                4.437551      39.351942999999999      15.299944999999999
  3801   5      42.438287000000003      41.254565999999997      2.6603970000000001
  3802   2      42.980280999999998      41.885939999999998      3.1392859999999998
  3803   2               43.062033      40.773490000000002      2.1107149999999999
  3804   5               32.205461      41.086326999999997      27.679020999999999
  3805   2      32.237529000000002               40.132368      27.575786000000001
  3806   2      32.293374999999997      41.226851000000003      28.625153000000001
  3807   5      19.605211000000001      16.108540000000001      2.7434919999999998
  3808   2      20.545438000000001      16.192028000000001                2.918787
  3809   2      19.544077000000001      16.065912999999998      1.7858449999999999
  3810   5               29.745424      43.748517999999997     0.58965599999999996
  3811   2      28.995177000000002      43.843429999999998  -0.0018220000000000001
  3812   2               30.510299      43.916550000000001    0.033443000000000001
  3813   5               10.230922               31.581996      13.625735000000001
  3814   2      9.5676699999999997      32.271594999999998               13.546524
  3815   2      9.8780680000000007      30.987252999999999               14.292382
  3816   5      17.466723000000002               15.700644      25.031009000000001
  3817   2      16.677206999999999                 15.1624      25.124185000000001
  3818   2      18.132566000000001      15.092104000000001      24.700894999999999
  3819   5      8.9743069999999996      3.2548029999999999      29.884391000000001
  3820   2      9.4377659999999999      2.6093000000000002      29.345635000000001
  3821   2      8.2495010000000004      2.7615240000000001               30.276785
  3822   5               29.511426      10.338855000000001      42.448039000000001
  3823   2      29.791160999999999      10.772009000000001      41.638193000000001
  3824   2      28.643644999999999      10.708862999999999      42.628852000000002
  3825   5      43.101511000000002      36.523263999999998               10.308505
  3826   2      43.977530999999999      36.153073999999997      10.439932000000001
  3827   2      42.859999000000002      36.254173999999999      9.4186150000000008
  3828   5      32.469482999999997      25.946052999999999               10.728921
  3829   2      31.656863000000001               25.657394               10.306963
  3830   2      32.503267000000001               25.446071               11.548384
  3831   5      20.129408999999999     0.91689500000000002      21.528483000000001
  3832   2                19.37979     0.78943700000000006      20.942350000000001
  3833   2      20.216467000000002    0.078947000000000003      21.989899999999999
  3834   5      18.302810000000001      13.777969000000001               34.311453
  3835   2      18.326588999999998               14.036913               33.387273
  3836   2      17.367336999999999               13.752749      34.528005999999998
  3837   5               27.471325      21.292075000000001      20.571594999999999
  3838   2      27.861222000000001      22.138971999999999      20.800661000000002
  3839   2               28.000733               20.977432      19.834458999999999
  3840   5      1.4392879999999999      41.424799999999998      23.593807000000002
  3841   2                2.161508      42.054163000000003      23.530366000000001
  3842   2     0.92061999999999999      41.576225000000001               22.799643
  3843   5                4.553998      27.861647999999999               13.087183
  3844   2      4.9407959999999997      28.626878999999999      13.519080000000001
  3845   2      3.6279270000000001               27.887411                 13.3409
  3846   5               29.245711      2.5230000000000001      35.587181999999999
  3847   2      28.657955000000001      3.2595070000000002               35.771099
  3848   2      29.313721000000001      2.0573649999999999      36.424559000000002
  3849   5      43.465995999999997               38.360585      6.0787829999999996
  3850   2      42.939216999999999      37.886071000000001      6.7261360000000003
  3851   2      43.389454000000001      37.835583999999997                 5.27806
  3852   5      44.313777999999999      6.0966709999999997      38.914440999999997
  3853   2      44.055093999999997      6.9889650000000003               39.156554
  3854   2      43.495949000000003      5.6797829999999996               38.631594
  3855   5               28.671281                0.003444      34.293387000000003
  3856   2      29.613852999999999    0.074740000000000001      34.125456999999997
  3857   2      28.529972999999998     0.52751599999999998      35.085864999999998
  3858   5               38.438139               21.872736      6.1468610000000004
  3859   2      38.107981000000002      22.675539000000001      6.5570180000000002
  3860   2               38.766112      21.347367999999999      6.8810700000000002
  3861   5      33.653967999999999      41.488079999999997      18.728377999999999
  3862   2      33.543976999999998      41.993457999999997      19.537216000000001
  3863   2      33.092274000000003      41.934733000000001      18.089908000000001
  3864   5      32.890735999999997      38.224764999999998      8.8806919999999998
  3865   2      32.459470000000003      38.352924999999999      9.7288130000000006
  3866   2      33.102359999999997      39.113522000000003      8.5840999999999994
  3867   5      29.091785000000002                7.105499               23.542783
  3868   2      29.263235000000002      7.5577230000000002               22.713431
  3869   2      29.964376000000001      6.8910229999999997               23.882234
  3870   5      37.069310000000002      42.138005999999997               38.609783
  3871   2      37.997194999999998               41.977401      38.422803999999999
  3872   2      37.042715000000001      42.309838999999997      39.554456000000002
  3873   5      20.513407999999998      2.6088369999999999      28.621435999999999
  3874   2      21.090835999999999      2.1143640000000001      28.035094000000001
  3875   2      21.100286000000001      3.2189679999999998                29.07526
  3876   5      26.782862000000002      28.539086999999999      6.1813799999999999
  3877   2      27.387848999999999      28.019075999999998      5.6472420000000003
  3878   2               27.350659      29.148586000000002      6.6596700000000002
  3879   5      43.927993999999998      5.9939419999999997      18.774197999999998
  3880   2      43.400948999999997      6.0131300000000003               17.971964
  3881   2      44.061616000000001      6.9194269999999998      18.993887999999998
  3882   5      27.239167999999999      44.865011000000003      9.9584740000000007
  3883   2      27.877766000000001      44.359985999999999               10.467264
  3884   2      26.505102999999998               44.999336      10.563243999999999
  3885   5      9.0317710000000009     0.77448099999999998      1.4445330000000001
  3886   2      9.7447700000000008     0.29346899999999998                1.017935
  3887   2      8.5947289999999992      1.2393380000000001     0.72652000000000005
  3888   5                2.585245      34.587846999999996               12.234589
  3889   2      2.6917460000000002      33.655195999999997               12.435946
  3890   2                1.950207      34.605223000000002      11.514125999999999
  3891   5               10.712574      4.1381839999999999      15.726972999999999
  3892   2      11.588877999999999      4.0110590000000004      16.097989999999999
  3893   2               10.604663      5.0919930000000004               15.691682
  3894   5               36.926029               37.711976      33.153599999999997
  3895   2      37.580652999999998               37.942591      33.816932000000001
  3896   2      37.247039999999998      38.125149999999998      32.348067999999998
  3897   5      9.1477319999999995      38.999865999999997               19.100514
  3898   2      9.9210290000000008      39.288885000000001               18.610408
  3899   2      8.4263670000000008      39.518278000000002               18.735104
  3900   5      41.474034000000003               10.495217      13.250299999999999
  3901   2      40.856302999999997               10.006392               13.799102
  3902   2      41.687792000000002               11.275202      13.768541000000001
  3903   5      4.8432409999999999      31.683592000000001      7.5286039999999996
  3904   2      4.6698979999999999      32.625073999999998      7.6013279999999996
  3905   2      5.6274740000000003               31.627468      6.9768150000000002
  3906   5      39.194856999999999      14.009124999999999      13.617152000000001
  3907   2      39.263778000000002      14.767557999999999      14.201750000000001
  3908   2      38.542206999999998               14.270961               12.962835
  3909   5      42.796990999999998      44.905956000000003      16.718381999999998
  3910   2      42.015864999999998      44.599288999999999      16.251988999999998
  3911   2      42.508521999999999      45.001339999999999      17.629605999999999
  3912   5      28.392323999999999      15.651419000000001               20.303583
  3913   2      28.789111999999999      16.494223000000002      20.071276999999998
  3914   2               28.531309               15.100842      19.528863000000001
  3915   5      28.171158999999999      44.400709999999997      22.196356999999999
  3916   2      27.288796000000001      44.082633000000001      22.401264999999999
  3917   2      28.382701999999998      44.998390999999998      22.917930999999999
  3918   5      31.965828999999999      5.1291169999999999      18.039445000000001
  3919   2      32.481099999999998      4.6783989999999998      18.712551999999999
  3920   2      31.636158999999999      5.9168719999999997      18.479220000000002
  3921   5      37.312342999999998               43.729568      3.9298899999999999
  3922   2      36.453004999999997      43.364837000000001                 4.15402
  3923   2      37.789124999999999      43.746150999999998      4.7635839999999998
  3924   5      8.7539130000000007      35.052222999999998      26.550851999999999
  3925   2      9.3040400000000005      34.677844999999998      27.242896999999999
  3926   2      9.1416350000000008      35.913870000000003      26.377997000000001
  3927   5      44.315263000000002      41.563724000000001      24.376097000000001
  3928   2      43.362383999999999      41.674075999999999      24.336494999999999
  3929   2      44.458151000000001      40.641530000000003      24.148534999999999
  3930   5      39.926107000000002      27.658709000000002      40.837082000000002
  3931   2      40.849049000000001      27.435828000000001      40.979303999999999
  3932   2               39.443137      26.897760999999999      41.169257000000002
  3933   5               13.678188      30.201481999999999      9.6515380000000004
  3934   2               13.525012      29.536045000000001      10.326413000000001
  3935   2               14.606873      30.427783999999999      9.7462710000000001
  3936   5      23.821491999999999      11.685748999999999      37.713349999999998
  3937   2      24.049962000000001      11.598625999999999               36.784945
  3938   2               23.064819               11.105316      37.828172000000002
  3939   5      22.574370999999999      6.3408759999999997               11.265931
  3940   2               22.860087      5.4524499999999998      11.491300000000001
  3941   2      23.377265000000001                6.784427                10.98086
  3942   5      3.6812990000000001      3.7865090000000001                10.37557
  3943   2      3.6979470000000001      4.6819519999999999               10.029695
  3944   2      4.4344650000000003      3.7466179999999998               10.970374
  3945   5      4.2333990000000004               15.433548      17.406234000000001
  3946   2      5.1195219999999999      15.564221999999999      17.751826999999999
  3947   2                4.010402               14.533268               17.656056
  3948   5               12.350163      1.3534219999999999                31.18075
  3949   2      13.072673999999999                1.738102               31.682471
  3950   2               12.641923                0.458206      30.990729999999999
  3951   5      37.483249999999998               15.918134                1.030942
  3952   2      37.021751000000002               16.545489                1.592341
  3953   2      36.901499999999999               15.801235     0.27559899999999998
  3954   5      4.8602340000000002      3.7539729999999998               42.400067
  3955   2                4.314667      3.0381279999999999      42.065928999999997
  3956   2      5.6280950000000001                3.314146      42.773676000000002
  3957   5      21.028687999999999      11.850483000000001      36.870114999999998
  3958   2                21.34074               12.728681      37.100583999999998
  3959   2      21.648931000000001               11.544343      36.203617999999999
  3960   5      5.5478310000000004      31.231113000000001      14.104272999999999
  3961   2                4.981897      30.974568000000001               13.372406
  3962   2      5.8446759999999998      30.398195999999999      14.479469999999999
  3963   5               28.464696               11.803566      34.468674999999998
  3964   2      28.280906000000002               11.900772      35.405957000000001
  3965   2      28.516642999999998               12.705045      34.141142000000002
  3966   5               22.249817      8.6870119999999993      44.148020000000002
  3967   2               21.431327      8.3225149999999992      43.803144000000003
  3968   2               22.362821      8.2560909999999996      44.999008000000003
  3969   5      5.2317270000000002      41.502285000000001      44.999595999999997
  3970   2      5.1213800000000003      40.592973000000001      44.712018999999998
  3971   2      6.0711769999999996      41.772550000000003      44.618907999999998
  3972   5      41.771939000000003               38.993212      2.0333049999999999
  3973   2      42.144191999999997      38.629049000000002      2.8398639999999999
  3974   2      41.514350999999998      38.222886000000003                1.520578
  3975   5               17.351322      11.023789000000001      24.788761999999998
  3976   2      17.550166000000001      10.085262999999999      24.825555999999999
  3977   2      17.654254999999999      11.297790000000001      23.919395999999999
  3978   5               15.309376      40.513764000000002               13.829692
  3979   2               15.910339      40.862290999999999      13.167047999999999
  3980   2      15.246116000000001               41.212795               14.485433
  3981   5      33.343246999999998      19.328047000000002      23.721910000000001
  3982   2      34.162624999999998                18.98226      23.360279999999999
  3983   2      33.609267000000003      19.777083000000001               24.528285
  3984   5      7.4571969999999999      39.834662999999999      14.635056000000001
  3985   2      8.1366650000000007      39.563794999999999               14.013221
  3986   2                7.944248      40.223230999999998      15.366108000000001
  3987   5               22.281882      13.039758000000001               16.768487
  3988   2      23.041046999999999               12.779736      16.241437000000001
  3989   2      21.543019999999999      12.574617999999999               16.368026
  3990   5      39.497675000000001      13.272536000000001      31.745667000000001
  3991   2      39.299466000000002               14.107241               31.314729
  3992   2      38.920073000000002               12.638144      31.313735999999999
  3993   5      19.380026000000001      35.179420999999998      36.858139000000001
  3994   2      19.134468999999999      34.285054000000002      36.610076999999997
  3995   2      19.077117999999999      35.721741000000002      36.125487999999997
  3996   5      26.854337000000001               21.356216      43.881481000000001
  3997   2      26.903942000000001      21.659358000000001      42.971882000000001
  3998   2      27.013749000000001               22.145664               44.404933
  3999   5      42.355668999999999      3.1410529999999999               20.265625
  4000   2      42.493051000000001      4.0843540000000003      20.379792999999999
  4001   2      43.203975999999997      2.8121049999999999               19.957711
  4002   5                9.193581      25.495035000000001               12.523935
  4003   2      8.3917859999999997                25.26652      12.047878000000001
  4004   2                9.069115      25.114515999999998               13.397065
  4005   5      35.462096000000003      25.525279000000001               35.824334
  4006   2      35.428153000000002               25.729899      34.886941999999998
  4007   2      35.755924999999998      24.611416999999999      35.858407999999997
  4008   5      20.267582999999998      40.512835000000003      23.339213000000001
  4009   2      19.489477000000001      40.822254999999998               22.869602
  4010   2               19.995614      40.486718000000003      24.260079000000001
  4011   5               13.724072      19.028120999999999      40.801307999999999
  4012   2               14.044179      18.602419999999999      40.002535999999999
  4013   2      12.941637999999999      19.508171999999998      40.518484000000001
  4014   5      5.3374569999999997      22.405567999999999      4.5987720000000003
  4015   2      6.1112479999999998      22.650753000000002      4.0860760000000003
  4016   2      4.8161290000000001      21.864986999999999      3.9999150000000001
  4017   5      22.452414000000001      20.082882999999999      42.421356000000003
  4018   2      23.331613000000001               20.468328      42.408441000000003
  4019   2      21.970452999999999               20.609876      43.063723000000003
  4020   5               10.814558               10.678687      22.098047999999999
  4021   2               10.230563               10.161339      21.538561000000001
  4022   2      10.994149999999999      10.106764999999999      22.848576999999999
  4023   5      9.8810479999999998      2.4637579999999999               43.456688
  4024   2               10.253686                1.632876      43.152549999999998
  4025   2      8.9839850000000006      2.4626359999999998      43.113292999999999
  4026   5      29.341646999999998      19.117453999999999      7.3806500000000002
  4027   2               29.397841      20.017516000000001      7.0513240000000001
  4028   2      30.023783999999999      18.643896000000002      6.8978729999999997
  4029   5      36.986893999999999      25.226597000000002      20.414103999999998
  4030   2      36.596487000000003               24.398287      20.125641999999999
  4031   2      37.867190000000001      25.221882999999998               20.029788
  4032   5      28.841097999999999      21.505604999999999      41.512095000000002
  4033   2      28.269204999999999      20.750012000000002      41.358007999999998
  4034   2      28.790258000000001               22.013033      40.698107999999998
  4035   5      28.742840000000001      26.077359000000001      35.162365999999999
  4036   2      29.680084000000001      26.284974999999999               35.176316
  4037   2      28.571881999999999               25.688668      36.023954000000003
  4038   5      38.859439000000002      42.988402999999998      44.991567000000003
  4039   2      39.496270000000003      43.645105000000001      44.700169000000002
  4040   2               39.299661      42.147505000000002      44.844127999999998
  4041   5               13.153193      43.113987000000002      28.135791999999999
  4042   2      12.348691000000001      42.596311999999998      28.216505999999999
  4043   2               13.806262      42.619464000000001                28.63738
  4044   5               31.287485               17.664026      34.129755000000003
  4045   2      32.240932000000001      17.565145999999999      34.183492000000001
  4046   2      31.050353999999999      17.241727000000001      33.300252999999998
  4047   5      44.905287999999999      4.1253820000000001      33.328496000000001
  4048   2      44.223340999999998      4.0836439999999996      34.002982000000003
  4049   2      44.683433000000001                4.904954      32.813045000000002
  4050   5      8.6883590000000002      5.6399100000000004               26.229346
  4051   2      9.5089240000000004                5.557086      26.720811000000001
  4052   2      8.8151849999999996      6.4198810000000002      25.683267000000001
  4053   5      43.529375999999999      13.333104000000001                0.947654
  4054   2      44.087595999999998      12.601990000000001      1.2225870000000001
  4055   2      43.842078999999998               14.079526                1.465063
  4056   5      10.879697999999999      24.970224000000002      15.124987000000001
  4057   2      10.991531999999999      25.252610000000001               16.035743
  4058   2      10.136903999999999      24.361875999999999      15.153479000000001
  4059   5      16.849889999999998      2.8468089999999999      8.4061610000000009
  4060   2      17.461825000000001      2.2981250000000002      8.9023540000000008
  4061   2      16.388079000000001      2.2301579999999999      7.8324769999999999
  4062   5                8.862819      5.4368100000000004               13.629282
  4063   2      9.2646990000000002      6.2567050000000002               13.925913
  4064   2      9.4353569999999998      5.1335379999999997                12.92015
  4065   5      29.262595999999998      35.202941000000003      32.218226000000001
  4066   2      28.419080000000001      35.517302000000001      31.884485000000002
  4067   2               29.080489      34.310769999999998      32.524019000000003
  4068   5      28.745097000000001      7.4430690000000004      29.897749999999998
  4069   2               28.473433      7.4133120000000003      30.818096000000001
  4070   2      28.357023000000002      6.6550880000000001      29.509001000000001
  4071   5      16.716792999999999      44.251677999999998      4.0545660000000003
  4072   2      16.767084000000001               44.025185      4.9861760000000004
  4073   2      15.788683000000001      44.142558999999999      3.8324250000000002
  4074   5      42.992190000000001      27.998405000000002               16.380585
  4075   2      42.109155000000001      28.167912000000001               16.044072
  4076   2      42.862200000000001      27.830535999999999      17.317368999999999
  4077   5      40.395873999999999      26.197842999999999      7.1707320000000001
  4078   2      39.528196999999999               26.605829      7.1216540000000004
  4079   2      40.472090999999999      25.908667000000001      8.0835349999999995
  4080   5      23.041236999999999      10.896860999999999      41.935108999999997
  4081   2      23.115320000000001      10.027407999999999      41.534750000000003
  4082   2      22.198706999999999      11.233548000000001      41.619788999999997
  4083   5      36.276882000000001      38.441563000000002                5.402266
  4084   2      36.459975999999997      38.289157000000003                6.332306
  4085   2      35.950705999999997      37.596797000000002      5.0819200000000002
  4086   5      19.047232000000001                33.08625      27.461877000000001
  4087   2      18.681733000000001      32.927767000000003      26.588367999999999
  4088   2               19.744415      32.431547999999999               27.550998
  4089   5      43.406931999999998      42.562874999999998      28.831634000000001
  4090   2      43.695512999999998      41.859028000000002      28.245933000000001
  4091   2      43.779949000000002      43.360466000000002               28.447775
  4092   5               42.608072      35.298375999999998               15.779925
  4093   2      42.413960000000003      34.555756000000002      16.356605999999999
  4094   2      42.323656999999997      36.068361000000003               16.278796
  4095   5      32.353009999999998      30.533816999999999               19.955403
  4096   2      31.858038000000001               31.326376               19.734997
  4097   2      31.856784000000001      30.135134000000001      20.674745999999999
  4098   5      11.375458999999999      22.621279000000001      33.080995000000001
  4099   2      10.557949000000001      22.622675999999998               33.584384
  4100   2      11.439693999999999      23.512336999999999      32.728104999999999
  4101   5                0.000185      8.0618820000000007      8.8959670000000006
  4102   2                0.190361      8.9570039999999995      8.6055980000000005
  4103   2     0.77461999999999998      7.5570209999999998      8.6351840000000006
  4104   5      7.0348069999999998               35.741602      44.918736000000003
  4105   2      6.3605539999999996      36.420732999999998      44.995480000000001
  4106   2      7.7281250000000004      36.151980999999999      44.395722999999997
  4107   5                1.825763      18.921130000000002      8.5261999999999993
  4108   2      1.7532939999999999      19.765917999999999                 8.97654
  4109   2                1.814897      19.146899000000001      7.5926309999999999
  4110   5      17.870950000000001                25.86487      12.738977999999999
  4111   2      17.111896000000002      25.423963000000001      13.127772999999999
  4112   2      17.503655999999999                26.37743               12.014396
  4113   5      43.676231000000001      29.863603999999999     0.46193299999999998
  4114   2               42.977511               30.353047     0.90234300000000001
  4115   2      44.375914999999999      29.804960000000001                1.117407
  4116   5      35.825625000000002                0.110722      26.980571000000001
  4117   2      35.285905999999997   0.0027209999999999999      26.193954999999999
  4118   2      35.191052999999997                0.163608      27.699712000000002
  4119   5      30.152889999999999      25.601023000000001                13.45327
  4120   2      29.251083000000001      25.348026000000001      13.664129000000001
  4121   2               30.371523               26.270705      14.106237999999999
  4122   5                1.579909               28.189525      17.107392999999998
  4123   2                1.779542      27.253464999999998      17.182649000000001
  4124   2      2.0144579999999999               28.587723      17.865843999999999
  4125   5      1.6203890000000001               14.239435      25.215513999999999
  4126   2      1.6368560000000001               14.838319      24.465319999999998
  4127   2      2.0138889999999998      14.743881999999999      25.931986999999999
  4128   5      7.3514160000000004      21.303992999999998      6.3774119999999996
  4129   2      7.4007889999999996      20.556965999999999      6.9784439999999996
  4130   2      6.6399400000000002               21.077285      5.7732210000000004
  4131   5      4.1780140000000001                12.63444      14.595834999999999
  4132   2      4.1007999999999996      12.622642000000001      15.552716999999999
  4133   2      5.0867889999999996               12.899628               14.433213
  4134   5      37.804896999999997      41.141316000000003      22.888279000000001
  4135   2      38.663908999999997      41.383060999999998               22.534184
  4136   2      37.984298000000003      40.386564999999997      23.454678999999999
  4137   5      14.082057000000001      39.379337999999997      35.600647000000002
  4138   2                14.08821      40.316158000000001      35.390751000000002
  4139   2               13.406848      39.291215999999999      36.278120000000001
  4140   5      4.4151939999999996      44.285353999999998               13.144271
  4141   2      3.7073909999999999               43.729996      13.479407999999999
  4142   2      4.8908690000000004               44.565621      13.930289999999999
  4143   5      2.9607730000000001      29.637968999999998               11.167223
  4144   2      3.2602159999999998      29.751685999999999      12.072279999999999
  4145   2      2.2703259999999998               30.297069      11.059926000000001
  4146   5      7.3455859999999999      16.852647999999999     0.39558300000000002
  4147   2      8.3045539999999995               16.811221                  0.4153
  4148   2      7.1148069999999999      17.396539000000001      1.1529240000000001
  4149   5               29.961164      20.101171999999998      32.985979999999998
  4150   2      29.096509999999999      20.172989000000001      32.574956999999998
  4151   2      29.937805999999998      19.257529000000002      33.444634000000001
  4152   5      34.151423000000001                14.61426      22.997551000000001
  4153   2      33.421159000000003               15.175945                23.26764
  4154   2      34.587952000000001      15.109700999999999               22.299968
  4155   5      9.5115090000000002      19.012070999999999               26.670095
  4156   2                 10.3294      19.234867000000001      26.219383000000001
  4157   2      9.7737949999999998               18.374146                 27.3386
  4158   5               26.552073      5.2559810000000002      35.311534999999999
  4159   2      27.464434000000001      4.9996200000000002      35.157907000000002
  4160   2      26.601984999999999      5.9011180000000003               36.021428
  4161   5      38.048088999999997      44.915115999999998      38.182039000000003
  4162   2      38.359991000000001      44.999806999999997      37.278008999999997
  4163   2      38.475451999999997      44.119079999999997      38.508119999999998
  4164   5      32.824477999999999      11.176849000000001      16.907668000000001
  4165   2      33.419353000000001               10.434407      16.778714999999998
  4166   2      33.342415000000003               11.813475               17.406758
  4167   5      24.858129999999999      35.783262999999998                3.899597
  4168   2               24.708565      35.799497000000002      2.9513919999999998
  4169   2               24.093404               36.231755      4.2693120000000002
  4170   5      35.233651000000002      14.052687000000001                19.07358
  4171   2      36.033073999999999               14.208615      18.565314000000001
  4172   2      35.054457999999997      14.894365000000001      19.500323999999999
  4173   5      41.429282000000001      30.651077000000001      40.503484999999998
  4174   2      41.619351000000002      29.715803000000001      40.399275000000003
  4175   2      42.222123000000003               31.092105               40.187987
  4176   5      34.106501000000002               29.677861                4.209022
  4177   2               34.996285      29.377351999999998      4.4082819999999998
  4178   2      33.956176999999997               29.394212      3.3037100000000001
  4179   5      9.7007100000000008      22.853408999999999      2.8485830000000001
  4180   2      8.8316300000000005      23.078811999999999                2.508556
  4181   2      9.5394240000000003      22.120567999999999                3.448226
  4182   5      6.8735780000000002      27.249760999999999               13.629273
  4183   2      7.6438940000000004      26.726998999999999               13.863916
  4184   2      6.4482429999999997               26.747021               12.929999
  4185   5      5.4671609999999999               15.491082      13.165874000000001
  4186   2      6.0717489999999996               14.768741      13.351406000000001
  4187   2      5.3464429999999998      15.924868999999999      14.014341999999999
  4188   5               20.484842      33.612085999999998               12.839273
  4189   2               20.215795      33.805233999999999               11.938145
  4190   2      19.749514000000001      33.114840999999998      13.206263999999999
  4191   5               24.449776      24.241738999999999      5.9037459999999999
  4192   2      24.947987999999999               24.914797      5.4341699999999999
  4193   2      23.539791999999998               24.385596      5.6319439999999998
  4194   5               16.707656               34.387853      8.5612560000000002
  4195   2               15.997152               34.975054      8.2927339999999994
  4196   2      17.462074999999999      34.672043000000002      8.0390200000000007
  4197   5      23.436661000000001      44.514662000000001      6.0824769999999999
  4198   2               22.855452               43.969704      6.6181469999999996
  4199   2      22.970341999999999               44.612192      5.2484039999999998
  4200   5      9.9144869999999994      6.6901060000000001      22.804607000000001
  4201   2      10.758236999999999      6.6063400000000003      22.354278000000001
  4202   2      9.7009299999999996      7.6243080000000001      22.739024000000001
  4203   5               19.862606                3.036381                24.60801
  4204   2               18.954027      3.3351389999999999      24.691400000000002
  4205   2      19.787648000000001      2.1114470000000001      24.359978000000002
  4206   5      25.510035999999999                10.39954      3.4401570000000001
  4207   2      24.614356999999998               10.182814      3.1708759999999998
  4208   2               26.014225               10.387791      2.6226630000000002
  4209   5      35.443432000000001      31.909120999999999     0.52939499999999995
  4210   2      35.064393000000003      32.262587000000003      1.3375509999999999
  4211   2      34.682899999999997                31.65457  0.00077700000000000002
  4212   5               18.863654      5.5912030000000001      7.9777050000000003
  4213   2      18.251145000000001      4.8901370000000002      8.2123650000000001
  4214   2      18.299583999999999      6.3190410000000004                7.704358
  4215   5      31.144743999999999      43.716225000000001      22.277439999999999
  4216   2               31.526443      42.849142999999998      22.121877000000001
  4217   2      30.196200999999999      43.568849999999998      22.242965999999999
  4218   5               36.104402      3.7517390000000002      19.816424000000001
  4219   2      36.796836999999996      4.4158929999999996               19.782384
  4220   2      36.392024999999997      3.1422859999999999               20.500881
  4221   5      3.8469850000000001      37.007398000000002      31.042328999999999
  4222   2      4.4393140000000004      36.308714999999999      31.329927000000001
  4223   2      4.2541180000000001      37.351227999999999               30.243164
  4224   5      24.859815000000001     0.70725199999999999               13.648678
  4225   2      24.784628000000001      1.5435730000000001               13.183232
  4226   2               23.951601     0.45394000000000001      13.832038000000001
  4227   5      43.471491999999998               13.013493      16.299980000000001
  4228   2      43.493878000000002      12.054557000000001      16.340786999999999
  4229   2      44.219714000000003      13.292389999999999               16.833855
  4230   5               11.862396                11.76296      6.0214210000000001
  4231   2      12.174656000000001               10.907556      5.7172770000000002
  4232   2               11.656784               12.242296      5.2148219999999998
  4233   5      25.296503000000001      5.1895639999999998      42.468893999999999
  4234   2      24.646723999999999      4.8975049999999998      41.825299000000001
  4235   2      25.334292999999999      4.4756340000000003      43.110390000000002
  4236   5      6.7748020000000002      43.757890000000003      25.031328999999999
  4237   2      6.0049659999999996      43.209789999999998      24.862024999999999
  4238   2      7.2682010000000004      43.276009000000002      25.699902999999999
  4239   5      40.868121000000002      43.053218999999999      40.540810999999998
  4240   2      40.941155000000002      43.540022999999998      39.716546000000001
  4241   2      41.762574999999998      42.752527000000001               40.720191
  4242   5      7.7175960000000003      29.741188000000001      12.267671999999999
  4243   2      8.6667059999999996      29.812740999999999      12.141996000000001
  4244   2      7.5574180000000002      30.159296000000001               13.117478
  4245   5      38.247613999999999               31.945622      21.931149000000001
  4246   2      37.811427999999999      31.195257999999999      21.520759000000002
  4247   2      38.869790000000002               31.551707               22.547891
  4248   5               32.375805      44.088656999999998      34.360650999999997
  4249   2      33.244900000000001      44.407100999999997      34.105716999999999
  4250   2      32.116162000000003      44.660362999999997      35.087549000000003
  4251   5               21.636619      20.836448000000001      6.5918140000000003
  4252   2      22.349990999999999      20.197600999999999      6.6603700000000003
  4253   2      20.933993999999998               20.361749      6.1405690000000002
  4254   5      21.619157000000001     0.50631599999999999      34.160330000000002
  4255   2      20.783491000000001     0.87195100000000003      33.860832000000002
  4256   2      21.391127000000001   0.0022910000000000001      34.945569999999996
  4257   5      18.627248000000002      43.499431999999999               12.020445
  4258   2      18.059761000000002      44.234470000000002               11.776717
  4259   2      18.207533000000002      43.121608000000002      12.797446000000001
  4260   5      41.745871000000001               25.039576      28.656721000000001
  4261   2      42.536892000000002      25.076052000000001      28.113876000000001
  4262   2      41.548112000000003               25.959028               28.852017
  4263   5      44.428835999999997      34.582689000000002      31.341101999999999
  4264   2      43.929248999999999      34.198267999999999      30.616976000000001
  4265   2      44.176698000000002      34.061762999999999      32.107720999999998
  4266   5      5.3516260000000004               10.512876               26.999755
  4267   2      4.8510720000000003      10.735965999999999               26.211465
  4268   2      5.2283470000000003      9.5656020000000002      27.100339999999999
  4269   5               16.697754      34.047769000000002                1.474909
  4270   2      17.349544000000002      34.575974000000002      1.0081169999999999
  4271   2      16.630748000000001      34.461058999999999      2.3393989999999998
  4272   5      44.490837999999997      23.340520999999999               15.394719
  4273   2      44.623570999999998      22.395714999999999               15.501721
  4274   2               43.877457      23.413322000000001                14.65912
  4275   5               19.916197      6.5271350000000004               24.359738
  4276   2      20.679977999999998                7.070036      24.568598999999999
  4277   2      19.229551000000001      6.8435680000000003      24.952214999999999
  4278   5      26.342776000000001      3.0319400000000001      18.869244999999999
  4279   2      26.939219999999999      3.3634879999999998      19.544564999999999
  4280   2      26.307939999999999      2.0849139999999999      19.025991000000001
  4281   5      43.157240999999999      8.0530819999999999      33.008730999999997
  4282   2      42.895358000000002      8.9767379999999992      33.010074000000003
  4283   2               44.020626      8.0506589999999996      32.587777000000003
  4284   5                24.60163      4.1326029999999996      23.405746000000001
  4285   2               24.882133      5.0468580000000003      23.321007999999999
  4286   2      24.053166999999998                4.123583      24.194255999999999
  4287   5               30.031115      29.501422999999999      16.846382999999999
  4288   2      30.741956999999999      28.861098999999999               16.766306
  4289   2      30.162354000000001      29.896342000000001      17.712095999999999
  4290   5      16.706779000000001      33.701047000000003      20.379197000000001
  4291   2               15.866258      33.655349999999999               19.917503
  4292   2      16.771128999999998      34.615076000000002      20.667383999999998
  4293   5      37.190587999999998      22.223624000000001      27.288830999999998
  4294   2      37.672361000000002      22.024221000000001      26.482693000000001
  4295   2      36.289985000000001      22.382784999999998      26.995190999999998
  4296   5      30.271896999999999      44.834223000000001      29.995615999999998
  4297   2      30.161463999999999      44.977637000000001               29.052768
  4298   2      29.376875999999999      44.724260000000001      30.326505000000001
  4299   5      43.752811000000001      24.738783000000002      22.176276999999999
  4300   2      44.231256000000002      24.256837000000001      21.497644000000001
  4301   2      44.185571000000003      24.488461000000001      22.996459000000002
  4302   5      4.3999329999999999      18.355392999999999      5.9954980000000004
  4303   2                4.482437      17.474595999999998      6.3684799999999999
  4304   2      3.5839919999999998      18.697289999999999      6.3696489999999999
  4305   5                5.965122               34.838887      38.023718000000002
  4306   2      6.2385450000000002      35.727840999999998      38.261892000000003
  4307   2      6.7781120000000001      34.403111000000003      37.755786999999998
  4308   5      6.2837529999999999               36.307606      25.615687000000001
  4309   2      6.9717580000000003      35.678206000000003      25.387146999999999
  4310   2      6.7526919999999997               37.028627      26.043316000000001
  4311   5               15.977425      31.539961999999999                23.75328
  4312   2      16.396228000000001      32.388072999999999      23.588850999999998
  4313   2               15.132875      31.599132999999998      23.299544000000001
  4314   5      34.442404000000003      6.7791259999999998               36.686149
  4315   2      34.992415999999999      7.5626980000000001      36.613849000000002
  4316   2      34.756664999999998      6.3396840000000001      37.480361000000002
  4317   5      28.021830000000001      38.729657000000003      7.9018790000000001
  4318   2                27.62865      38.857926999999997      8.7682979999999997
  4319   2      27.270866000000002      38.664878999999999      7.3064809999999998
  4320   5     0.99226999999999999      30.573205000000002      40.998981999999998
  4321   2                1.814827      30.141732999999999      41.241791999999997
  4322   2     0.44718000000000002      29.865677999999999      40.645535000000002
  4323   5      11.285228999999999               36.245528      8.0982369999999992
  4324   2               10.830755      35.404392999999999      8.0106579999999994
  4325   2               11.413109      36.542743999999999      7.1938300000000002
  4326   5      25.561064999999999      25.232686999999999      32.512438000000003
  4327   2      24.795756999999998      24.670912999999999      32.369469000000002
  4328   2               25.222196      26.126301000000002      32.416184000000001
  4329   5               44.210628      14.454459999999999      39.199567999999999
  4330   2      43.611877999999997      14.484913000000001      39.949432000000002
  4331   2               44.418785      13.522220000000001      39.098368999999998
  4332   5      41.985801000000002                43.19914      26.132435000000001
  4333   2               41.781025      43.781581000000003      26.867660000000001
  4334   2               41.762687      42.321910000000003      26.453883999999999
  4335   5      10.115952999999999               19.778917               13.711554
  4336   2               10.469325      19.277048000000001               12.973326
  4337   2      9.4455600000000004                19.20504      14.090870000000001
  4338   5      41.708266000000002               32.296526      42.328569000000002
  4339   2      41.572805000000002               32.280414      43.278892999999997
  4340   2      42.582769999999996      31.918576000000002      42.205939999999998
  4341   5               19.947409      23.670311000000002                8.428623
  4342   2      20.481566999999998      22.943401000000001      8.0999870000000005
  4343   2      20.448574000000001      24.018031000000001      9.1706249999999994
  4344   5      16.624179999999999                3.426609      21.014158999999999
  4345   2      15.726525000000001                3.652663      21.268795000000001
  4346   2                16.83183                4.038818      20.303719999999998
  4347   5      21.555914999999999      43.338000999999998               21.833174
  4348   2      21.156016000000001      42.869039999999998      22.569299999999998
  4349   2      22.500931999999999      43.228575999999997               21.965878
  4350   5      36.513551999999997      8.8901109999999992      38.468313000000002
  4351   2      35.662686000000001                 9.22621      38.177126000000001
  4352   2      36.306421999999998      8.3474760000000003      39.233353000000001
  4353   5      44.996578999999997               14.875111                18.64856
  4354   2      44.653063000000003               15.745913      18.435428000000002
  4355   2      44.566822999999999               14.645298      19.476289999999999
  4356   5      31.202580999999999      8.8830170000000006               18.118133
  4357   2                31.84066                8.610652               18.781758
  4358   2      31.121849999999998      8.1215089999999996                17.53828
  4359   5               27.959142      43.264615999999997               25.897292
  4360   2      28.685220000000001      43.800204999999998               26.225438
  4361   2      28.325893000000001               42.805605      25.137392999999999
  4362   5      44.997441000000002      6.4803240000000004      41.758091999999998
  4363   2                44.55977      5.9429460000000001      41.093716999999998
  4364   2      44.522987000000001      7.3153100000000002               41.739818
  4365   5      43.260469000000001      43.653840000000002               19.571344
  4366   2      43.157286999999997      42.761552999999999      19.232371000000001
  4367   2      44.158853999999998               43.677678      19.910429000000001
  4368   5      37.628202999999999      30.197600999999999      19.142807999999999
  4369   2      38.018990000000002      29.671133000000001      19.844121999999999
  4370   2      36.900280000000002      30.658207000000001      19.567793000000002
  4371   5      41.599525999999997      7.2622150000000003      37.018366999999998
  4372   2      42.401243000000001                7.326784      37.542586999999997
  4373   2      41.839011999999997      6.6885649999999996      36.286099999999998
  4374   5               34.847932               28.175573      7.3067549999999999
  4375   2      34.417541999999997      28.080829999999999      8.1596989999999998
  4376   2      35.517116999999999      28.849409999999999                7.450895
  4377   5      36.926217000000001               38.273429      17.013235000000002
  4378   2      36.928261999999997      37.919552000000003      16.120771000000001
  4379   2      37.827796999999997      38.149991999999997      17.320737000000001
  4380   5      40.924351999999999      9.2869060000000001      27.199155000000001
  4381   2      40.006459999999997      9.3113480000000006      27.479517000000001
  4382   2      40.985021000000003      9.9655909999999999                26.52214
  4383   5               38.890746      44.048074999999997      9.0710809999999995
  4384   2      39.649486000000003      44.237986999999997      9.6278330000000008
  4385   2      39.148919999999997      43.267539999999997      8.5743379999999991
  4386   5      21.071338000000001               20.613488                3.964134
  4387   2               21.576711      21.259865999999999      3.4656180000000001
  4388   2      20.164501000000001      20.746822000000002      3.6768869999999998
  4389   5      3.0407090000000001               19.015383      20.807016000000001
  4390   2                3.503139      19.854735000000002               20.748946
  4391   2      2.3659479999999999               19.160629                21.47503
  4392   5               17.864248     0.72316800000000003                2.894225
  4393   2               18.369605                1.197219      2.2296849999999999
  4394   2               16.979581      1.0915649999999999      2.8287309999999999
  4395   5      22.067219000000001               14.175063                1.454709
  4396   2      21.112521000000001      14.162222999999999      1.3541570000000001
  4397   2      22.226261999999998      14.831861999999999      2.1373229999999999
  4398   5      19.261514999999999      20.152028000000001               38.764052
  4399   2               19.789946      19.369703000000001               38.938564
  4400   2      18.375312999999998      19.812791000000001      38.615036000000003
  4401   5      33.356107000000002      3.9882369999999998      15.414230999999999
  4402   2      33.028857000000002                3.383785               16.084508
  4403   2      32.793109000000001      4.7622020000000003               15.495801
  4404   5      7.3800090000000003      9.8658040000000007                2.921802
  4405   2                6.836239                9.272494      2.3983300000000001
  4406   2      7.9205100000000002      9.2816880000000008      3.4596770000000001
  4407   5      33.243785000000003      41.318950000000001               11.258554
  4408   2      32.394100999999999      41.645606000000001      11.563606999999999
  4409   2               33.377443               40.505471      11.751535000000001
  4410   5      4.5257059999999996      43.883020000000002               17.942943
  4411   2      5.1765220000000003      43.238745999999999      18.231169000000001
  4412   2      3.8877199999999998      43.369374000000001               17.441163
  4413   5      32.103020000000001    0.084371000000000002      17.360216999999999
  4414   2      31.210039999999999    0.089654999999999999      17.007677000000001
  4415   2      32.634520000000002     0.48782500000000001      16.669294000000001
  4416   5      25.657426000000001      39.616447000000001                12.61051
  4417   2      26.350249000000002                39.94229      13.189773000000001
  4418   2      25.164543999999999      40.402721999999997      12.362553999999999
  4419   5      7.6554820000000001      38.054048000000002      38.695689999999999
  4420   2      6.7623709999999999               38.322637               38.923589
  4421   2      7.8928510000000003      38.618822999999999      37.955874000000001
  4422   5      21.126560999999999      17.639375000000001      38.147269999999999
  4423   2      20.368165000000001      17.731998999999998               37.565908
  4424   2      20.748456999999998               17.391558      38.994776000000002
  4425   5      12.476744999999999      11.438534000000001                20.18882
  4426   2      12.370062000000001               10.552571      20.542957000000001
  4427   2               12.788755      11.300428999999999      19.290922999999999
  4428   5               16.867182      27.184208999999999      42.512396000000003
  4429   2      16.202210999999998      26.916827000000001      41.873612000000001
  4430   2      17.480993999999999      27.722594999999998      42.006413999999999
  4431   5               16.319118      10.431748000000001               16.910394
  4432   2      16.250952000000002               11.101853      16.226261999999998
  4433   2      16.081731000000001      9.6133740000000003                16.46705
  4434   5                1.825059      35.412311000000003      32.380361999999998
  4435   2      1.1918089999999999      35.063761999999997      33.012210000000003
  4436   2                1.286165      35.871946000000001               31.731538
  4437   5      40.400101999999997      2.7161840000000002      4.6450259999999997
  4438   2      40.131908000000003      3.5386920000000002      4.2287600000000003
  4439   2      41.269593999999998      2.5360170000000002                 4.27874
  4440   5      17.478090999999999      2.6838139999999999      41.486640000000001
  4441   2               16.592354      2.6059329999999998      41.124521000000001
  4442   2      17.477640999999998                2.095977      42.246304000000002
  4443   5               40.557198      5.3857999999999997      6.0365739999999999
  4444   2      40.043365999999999      5.8624169999999998                 5.38042
  4445   2      41.233390999999997      4.9325619999999999      5.5266909999999996
  4446   5               17.695055      44.965991000000002      27.814547999999998
  4447   2      16.779264000000001               44.995103      27.527836000000001
  4448   2      17.652408999999999      44.636116000000001      28.715661999999998
  4449   5      5.7999390000000002      34.118155000000002               22.181794
  4450   2      6.6316879999999996      34.211875999999997               22.652044
  4451   2                5.214321      34.751325999999999      22.604627000000001
  4452   5               12.510548      21.602046999999999      26.737016000000001
  4453   2                13.07503      22.272037000000001      26.344335999999998
  4454   2      13.113804999999999               20.896065               26.982602
  4455   5      26.729486000000001      35.735573000000002      28.994233999999999
  4456   2      25.861291000000001      35.709102000000001      29.403210999999999
  4457   2      27.337845000000002      35.549655999999999      29.713940000000001
  4458   5      35.588754999999999      23.026523999999998      7.0600300000000002
  4459   2      36.242139000000002      23.713245000000001      7.2124410000000001
  4460   2      35.504492999999997      22.584962999999998      7.9088919999999998
  4461   5      41.209063999999998      18.505216999999998               16.643186
  4462   2               40.981887      19.003229000000001      17.431919000000001
  4463   2               41.746879      17.778176999999999      16.966926999999998
  4464   5      16.770423000000001      5.2010379999999996               11.336376
  4465   2      16.010787000000001      5.7277579999999997               11.077061
  4466   2      16.460484000000001                 4.68947               12.087959
  4467   5               17.015006      8.3311740000000007      37.457827000000002
  4468   2               16.947913      7.4034659999999999      37.219959000000003
  4469   2      16.879770000000001                 8.34389      38.408717000000003
  4470   5      29.180271999999999      22.703568000000001               17.310409
  4471   2      28.356186000000001      22.896861000000001      17.763449999999999
  4472   2      29.794553000000001      22.485009000000002      18.015768000000001
  4473   5      4.1554489999999999      6.0133409999999996      16.782322000000001
  4474   2      4.2274750000000001      6.9420159999999997      17.014917000000001
  4475   2      4.9431820000000002      5.8360649999999996               16.262041
  4476   5      11.646058999999999      41.116644999999998     0.89493900000000004
  4477   2                11.99691               41.090066   0.0016739999999999999
  4478   2      12.296481999999999      40.644266999999999                1.420725
  4479   5      29.358509000000002      43.122521999999996               31.829532
  4480   2      30.116661000000001      43.571572000000003      32.210692999999999
  4481   2      29.709555000000002      42.679074999999997      31.053152999999998
  4482   5      3.2878370000000001      39.521695999999999      42.505361000000001
  4483   2      3.1206849999999999      38.697375000000001      42.042456000000001
  4484   2      3.1983389999999998      39.295695000000002      43.434637000000002
  4485   5      6.5442419999999997      42.244256999999998      16.465275999999999
  4486   2      6.7641119999999999      42.462274000000001      15.556513000000001
  4487   2      7.3809300000000002      42.302213999999999      16.933503000000002
  4488   5      23.153186999999999      33.287654000000003                 4.39534
  4489   2      22.468620000000001      33.722154000000003      4.9094449999999998
  4490   2      23.174907999999999               33.774459      3.5675780000000001
  4491   5      35.146011999999999      39.873764000000001      1.9774389999999999
  4492   2      35.662184000000003      40.339210000000001                2.639748
  4493   2      34.268788999999998      40.259272000000003                2.044562
  4494   5      38.291809000000001      30.893031000000001               28.466434
  4495   2      38.235672000000001      31.840855999999999      28.608568000000002
  4496   2                39.23424      30.707380000000001      28.466162000000001
  4497   5      7.3258720000000004      6.3892819999999997               35.091431
  4498   2      7.0876939999999999      5.9394400000000003      34.277405000000002
  4499   2      7.1360109999999999      5.7491349999999999      35.781942999999998
  4500   5      35.853603999999997      9.2456080000000007               18.769102
  4501   2      36.574624999999997                9.198359      19.401257999999999
  4502   2      35.821570000000001      8.3688769999999995      18.378001999999999
  4503   5      39.724074000000002      29.287013999999999      21.232002000000001
  4504   2                39.58005      29.491465999999999               22.158922
  4505   2      39.930599999999998      30.134668000000001      20.830166999999999
  4506   5      27.046797000000002                28.64329      29.799465000000001
  4507   2      26.741672000000001      28.221627000000002               28.992728
  4508   2      27.782181000000001      29.193221999999999      29.517638000000002
  4509   5      37.355046000000002      37.646247000000002      8.9866499999999991
  4510   2      37.690103999999998      38.189525000000003      8.2694960000000002
  4511   2      36.407319000000001      37.608924999999999      8.8347850000000001
  4512   5      35.972076999999999      37.585631999999997      29.589888999999999
  4513   2      36.587279000000002      38.301504000000001      29.414453000000002
  4514   2      35.210366999999998               38.017291               29.984997
  4515   5      30.433032999999998               23.880001      15.574723000000001
  4516   2      29.554842000000001               24.263185               15.635349
  4517   2               31.011834      24.632366000000001                15.42783
  4518   5      37.495095999999997      6.1709849999999999      2.5970770000000001
  4519   2      38.267851999999998      6.5043389999999999      2.1350720000000001
  4520   2               36.762625      6.3633670000000002      2.0062150000000001
  4521   5      41.607148000000002               31.615568      18.614906999999999
  4522   2      40.844934000000002               31.691945      18.036183000000001
  4523   2      41.265242000000001      31.188403999999998      19.404382999999999
  4524   5      38.950662000000001      9.7952270000000006      10.902293999999999
  4525   2      38.621375999999998      9.3982569999999992      10.092534000000001
  4526   2      38.987363000000002      9.0666849999999997      11.527210999999999
  4527   5               19.420752     0.91146799999999994      39.407364999999999
  4528   2      18.691251000000001                1.478065      39.145598999999997
  4529   2      19.067384000000001     0.38626700000000003      40.129817000000003
  4530   5               23.688267               28.383823      4.5093399999999999
  4531   2      23.421638000000002               29.027697                3.848992
  4532   2                24.17362               28.896936      5.1603310000000002
  4533   5      27.082698000000001               40.679783               10.290153
  4534   2               26.384511      40.036355999999998               10.432499
  4535   2      27.061185999999999      41.232604000000002               11.075372
  4536   5      30.791658999999999                8.541442                14.57447
  4537   2      30.157824999999999      8.3846080000000001               13.870635
  4538   2      30.255244999999999      8.8220209999999994      15.320244000000001
  4539   5      8.2966189999999997      35.978796000000003      37.526069999999997
  4540   2      7.9585489999999997      36.652312000000002      36.931249999999999
  4541   2      8.6466159999999999      35.300054000000003      36.943443000000002
  4542   5               20.058463      22.826830000000001      30.760777999999998
  4543   2      19.519224000000001      23.538219999999999               30.407408
  4544   2      19.734632999999999                22.70467      31.656798999999999
  4545   5      10.394978999999999      35.838667000000001      42.511651999999998
  4546   2               10.988089      36.532800000000002               42.214793
  4547   2      10.113168999999999      36.123089999999998      43.384766999999997
  4548   5      16.473175000000001      1.9831289999999999               19.323988
  4549   2               15.941689      2.4869530000000002      18.703174000000001
  4550   2      16.369171999999999                1.070978      19.041488999999999
  4551   5      36.403427000000001               34.766126      42.576842999999997
  4552   2               37.215691      34.504617000000003      43.016803000000003
  4553   2      36.529632999999997      35.697116999999999      42.376919999999998
  4554   5      2.7985859999999998               30.931721      26.519818999999998
  4555   2      3.0499679999999998      30.057635999999999      26.212399999999999
  4556   2                3.200796               31.003536      27.389136000000001
  4557   5      38.395612999999997      44.130200000000002      31.103819999999999
  4558   2      37.850411999999999      44.139541000000001      31.894006999999998
  4559   2      39.296120999999999      44.176124000000002      31.434906000000002
  4560   5      9.6358840000000008      30.308537000000001               43.331173
  4561   2      8.8843589999999999      30.755466999999999      43.727643999999998
  4562   2               10.340097                30.40774      43.976840000000003
  4563   5      7.4463229999999996      11.001492000000001      26.139932999999999
  4564   2      6.8315469999999996               11.432375      25.541505000000001
  4565   2      7.9683390000000003               10.427942               25.573204
  4566   5      3.0542790000000002      32.495019999999997      22.497049000000001
  4567   2                3.600006      33.275905000000002      22.378198999999999
  4568   2      2.4988610000000002      32.704954000000001      23.252085999999998
  4569   5      1.2174320000000001               34.553148      25.892323999999999
  4570   2     0.66489399999999999      35.206564999999998      26.327608000000001
  4571   2      1.7635700000000001               35.065424               25.290702
  4572   5      5.2740679999999998               37.507171      6.4710520000000002
  4573   2      6.0830279999999997      37.232491000000003      6.0330360000000001
  4574   2                5.503755      37.530155999999998      7.4034449999999996
  4575   5      39.462834000000001      33.330674000000002      19.446270999999999
  4576   2      39.496806999999997      32.435146000000003      19.790655999999998
  4577   2      40.371586999999998      33.528364000000003      19.206002000000002
  4578   5      15.782610999999999      37.178893000000002      23.102762999999999
  4579   2      16.128101999999998      37.936540000000001      22.624922999999999
  4580   2               14.964572      37.496267000000003      23.493566999999999
  4581   5      44.187430999999997      32.561295000000001      16.186388000000001
  4582   2      43.307459999999999               32.550255               16.570124
  4583   2      44.189931000000001               33.335518               15.617868
  4584   5      40.753748999999999      38.338529999999999      22.112166999999999
  4585   2      41.468898000000003      38.355432999999998      22.752479999999998
  4586   2      40.646284000000001      37.408065999999998               21.899258
  4587   5      4.8047459999999997      31.462610000000002               23.393449
  4588   2      5.6218430000000001      31.965903000000001      23.421250000000001
  4589   2      4.7562959999999999               31.038902               24.254127
  4590   5      34.216754999999999      32.294593999999996               11.528755
  4591   2      34.314292999999999               31.404391               11.182705
  4592   2      35.115544999999997      32.578031000000003      11.714448000000001
  4593   5      18.938130000000001               25.488906               42.475977
  4594   2               18.362109      24.721181000000001      42.498821999999997
  4595   2      19.800111999999999               25.133461      42.245134999999998
  4596   5               12.072082      43.047713999999999      43.966227000000003
  4597   2               11.170301               43.231372      44.239699000000002
  4598   2               12.424194      43.905183000000001      43.714422999999996
  4599   5               10.672098      33.569465000000001      38.533664000000002
  4600   2      10.566269999999999      34.457971999999998               38.185696
  4601   2      10.156586000000001      33.017868999999997      37.939836999999997
  4602   5      5.2255209999999996      2.6733920000000002      37.927585000000001
  4603   2      5.1666249999999998      2.5179200000000002               36.982025
  4604   2      5.5353709999999996      3.5795880000000002      38.001373999999998
  4605   5      23.673632000000001               13.267261      43.712625000000003
  4606   2               23.772807               13.951238      43.046242999999997
  4607   2               23.514854               13.749838      44.527824000000003
  4608   5      4.1851649999999996      16.599216999999999                1.118806
  4609   2      3.8278400000000001               15.930923      1.7082349999999999
  4610   2      4.4279339999999996      16.113247999999999                0.326631
  4611   5      2.9058459999999999      1.5083249999999999      43.210886000000002
  4612   2      3.0967229999999999                1.876439      44.076785999999998
  4613   2      3.2308690000000002     0.60570400000000002      43.258605000000003
  4614   5      37.779153999999998      41.602440000000001               31.444564
  4615   2      38.687846999999998      41.910744999999999      31.413709999999998
  4616   2      37.335126000000002      42.099463999999998      30.752863999999999
  4617   5      28.938151999999999      5.4446729999999999      19.951170000000001
  4618   2      28.947887000000001      4.6321890000000003      19.439799000000001
  4619   2      29.698236000000001      5.9370260000000004      19.631011000000001
  4620   5      44.389037999999999      4.3932520000000004               25.039918
  4621   2      44.500062999999997      4.4570489999999996      24.088429999999999
  4622   2      44.999943000000002      3.7011759999999998      25.305378000000001
  4623   5      39.020449999999997      31.887775999999999      41.649467999999999
  4624   2      38.840797000000002      31.342607999999998      40.879896000000002
  4625   2               39.506138      32.639619000000003      41.300927000000001
  4626   5      34.196708999999998      6.2951009999999998      40.571139000000002
  4627   2      35.099089999999997                6.616587      40.635027999999998
  4628   2      33.683701999999997      6.9199510000000002      41.089818000000001
  4629   5      23.976973000000001      6.5139860000000001      43.795053000000003
  4630   2      23.293693999999999      6.5568590000000002      43.121986999999997
  4631   2      24.686599999999999      7.0614850000000002      43.449632000000001
  4632   5               42.390991      26.499230000000001      33.516559000000001
  4633   2      41.824457000000002      25.836424000000001               33.918371
  4634   2               42.633001               26.122553      32.666742999999997
  4635   5      41.299303999999999      43.259979000000001                2.752386
  4636   2      41.923431999999998      43.978512000000002                2.626296
  4637   2      40.552573000000002      43.668185999999999      3.1978089999999999
  4638   5                1.218661      13.234189000000001      29.992080999999999
  4639   2                1.829834      13.533659999999999               30.669214
  4640   2                1.659608               13.441573               29.164313
  4641   5      33.127290000000002               30.235643      32.357638999999999
  4642   2      33.139929000000002                29.31935               32.643946
  4643   2               32.518549                30.24492      31.614678999999999
  4644   5      31.181515000000001                1.401735                1.443006
  4645   2      30.714317000000001      2.1814269999999998                1.752086
  4646   2      30.502061999999999     0.86672499999999997                1.024975
  4647   5      20.742277999999999      13.091060000000001      32.733184999999999
  4648   2               20.337937      13.931430000000001               32.505125
  4649   2      20.184685999999999      12.740068000000001      33.432139999999997
  4650   5      32.137529999999998      19.597743000000001      32.821033999999997
  4651   2               32.602314               19.020664      32.210557999999999
  4652   2      32.109054999999998      20.446425000000001      32.372069000000003
  4653   5               16.100662      44.335177000000002      22.459703000000001
  4654   2      16.358530999999999               44.764167               21.640438
  4655   2               15.741861      43.488306000000001               22.182731
  4656   5      21.159151000000001      35.000432000000004      32.718240999999999
  4657   2      21.347902000000001      34.827714999999998               31.792894
  4658   2      21.277481000000002      34.149842999999997      33.148518000000003
  4659   5      32.521433000000002               25.696026      43.917293000000001
  4660   2      31.624673999999999               26.038878      43.916246999999998
  4661   2      32.471690000000002      24.896640000000001      43.387056999999999
  4662   5               44.016987      15.410185999999999      16.143903999999999
  4663   2      43.274684000000001      15.505819000000001      16.745208000000002
  4664   2      44.545538999999998      16.198758000000002               16.290291
  4665   5      33.126865000000002      27.779561000000001      12.255615000000001
  4666   2      32.871872000000003      28.363617999999999      12.973655000000001
  4667   2      33.558615000000003      27.040406999999998               12.691373
  4668   5      29.888808000000001               -0.000115      3.8352689999999998
  4669   2      30.030380000000001     0.61635700000000004      3.1130200000000001
  4670   2      29.087109000000002                0.312635      4.2620100000000001
  4671   5      32.433829000000003               33.459978      6.2911149999999996
  4672   2               32.519672      34.406471000000003      6.1550770000000004
  4673   2      31.825424000000002      33.379513000000003      7.0300409999999998
  4674   5      21.820689000000002      7.3742140000000003      15.183554000000001
  4675   2      21.296659999999999      7.1851219999999998      15.965452000000001
  4676   2               21.898315      6.5268610000000002      14.737897999999999
  4677   5               15.917133                1.321221               13.270816
  4678   2      16.746279999999999      1.4749239999999999               13.729744
  4679   2               16.059884     0.50314099999999995      12.788106000000001
  4680   5      2.3454030000000001               10.945446      19.565045000000001
  4681   2      2.7175560000000001      11.019177000000001                20.44697
  4682   2      2.3471860000000002               11.845471      19.229493000000002
  4683   5      32.373865000000002      23.920020999999998               13.129389
  4684   2      32.323895999999998               23.565362               14.020144
  4685   2      31.484587999999999      23.816607000000001               12.781345
  4686   5      36.147786000000004      33.201040999999996      3.7770190000000001
  4687   2      36.591304999999998      33.785459000000003      4.3962690000000002
  4688   2      36.595455000000001      33.355176999999998      2.9412690000000001
  4689   5                10.16098      7.8805180000000004      3.7216140000000002
  4690   2      10.797466999999999      7.3407989999999996      3.2469429999999999
  4691   2               10.511369      8.7726959999999998      3.6592579999999999
  4692   5      39.365428999999999               18.309065      30.673853000000001
  4693   2      39.248348999999997      19.255901999999999                30.56653
  4694   2      39.973956999999999                18.06306      29.972556000000001
  4695   5      40.730874999999997      25.343730999999998      25.834931000000001
  4696   2      41.611803999999999      24.966836000000001      25.774609000000002
  4697   2               40.400824      25.043503999999999      26.685562000000001
  4698   5               18.372045      3.5986099999999999               36.647281
  4699   2      19.123608000000001      3.5032190000000001               37.237009
  4700   2               17.922324                4.387702      36.959896000000001
  4701   5      11.872942999999999                3.496756               13.264638
  4702   2      11.299187999999999      4.1873690000000003      13.604613000000001
  4703   2      11.941338999999999      3.6846209999999999               12.325132
  4704   5               42.629458      6.9908679999999999      23.747371000000001
  4705   2      43.173262000000001      6.3249589999999998                24.17465
  4706   2               43.176772      7.7802259999999999      23.745266000000001
  4707   5     0.90525999999999995      16.069289999999999               21.212215
  4708   2                0.001921               15.762945               21.321102
  4709   2     0.85593399999999997      16.707367999999999               20.495929
  4710   5      31.183337999999999               31.828992               11.377516
  4711   2      32.069332000000003                31.86814               11.745222
  4712   2      30.675118999999999      31.342324000000001      12.031358000000001
  4713   5      8.9592759999999991      40.158515999999999      39.239510000000003
  4714   2      8.0316650000000003      40.284038000000002      39.452835999999998
  4715   2      9.2733030000000003      41.037945999999998      39.014494999999997
  4716   5      43.144195000000003      26.085093000000001      14.354960999999999
  4717   2               42.394199               25.511716      14.529521000000001
  4718   2      42.911034000000001      26.542079000000001      13.542901000000001
  4719   5      20.231905000000001      32.433002999999999      37.066459999999999
  4720   2      20.205628999999998      31.475542000000001      37.132052999999999
  4721   2      21.077345000000001      32.675336999999999      37.452655999999998
  4722   5               12.577432      31.454650999999998      27.641974000000001
  4723   2      11.901338000000001      32.135311000000002               27.678348
  4724   2      12.099648999999999      30.656576000000001      27.402305999999999
  4725   5      32.833474000000002      29.497202999999999      17.055748999999999
  4726   2      32.531908000000001      30.096129000000001      16.368673999999999
  4727   2      32.459102000000001      29.854711000000002                17.86487
  4728   5      17.869665000000001               17.177626               29.471985
  4729   2      18.734211999999999      17.437968999999999      29.145631999999999
  4730   2      17.723873999999999      17.740722000000002               30.236386
  4731   5      5.6944379999999999      10.711570999999999      15.910050999999999
  4732   2      5.1437949999999999      10.729971000000001               15.123808
  4733   2      5.0699579999999997               10.741952      16.639258000000002
  4734   5      24.088532000000001      15.876366000000001      40.517632999999996
  4735   2               24.026837               15.505312      41.400944000000003
  4736   2               24.891489      15.494533000000001      40.154170000000001
  4737   5      41.825049999999997      18.965081999999999      36.346828000000002
  4738   2      40.906576000000001      19.236190000000001               36.414873
  4739   2      42.253559000000003               19.688879      35.882995999999999
  4740   5               21.105812      38.542591999999999      23.961172999999999
  4741   2               21.130347      38.144516000000003      23.087869999999999
  4742   2      21.684601000000001      37.989305000000002      24.491755999999999
  4743   5                 2.78288      35.372616000000001               14.608768
  4744   2                3.644307      34.957731000000003               14.521944
  4745   2      2.3664139999999998      34.906955000000004      15.338397000000001
  4746   5      15.764416000000001      12.300421999999999      19.790362999999999
  4747   2      16.491250000000001               12.008585               20.345582
  4748   2      15.766192999999999                13.25691      19.878505000000001
  4749   5      18.939371000000001      1.7745359999999999      18.308855000000001
  4750   2      19.356908000000001      2.2802880000000001      17.607711999999999
  4751   2      19.657457000000001                1.563939      18.911052999999999
  4752   5      29.111630000000002      16.956479999999999               11.809177
  4753   2      29.845483999999999      16.543161000000001      11.348361000000001
  4754   2               28.372021      16.361626999999999               11.661631
  4755   5               18.655334      33.025438000000001      9.6304409999999994
  4756   2      18.399533999999999      33.914498000000002                9.887079
  4757   2               18.011637      32.458119000000003      10.062233000000001
  4758   5               39.076231      9.6167859999999994      35.565066999999999
  4759   2               38.494909      8.8988879999999995      35.826625999999997
  4760   2               39.696137                 9.21096      34.953786999999998
  4761   5      24.054085000000001      22.490760999999999               42.848768
  4762   2      23.916817999999999               23.232872      43.442194000000001
  4763   2      24.750928999999999               21.977757      43.265754999999999
  4764   5      31.130354000000001      41.008730999999997      9.2070279999999993
  4765   2      31.189630000000001      40.052553000000003      9.1442969999999999
  4766   2               32.022748               41.289133      9.4253129999999992
  4767   5      38.909092999999999      40.010908999999998      38.005887999999999
  4768   2      39.809401999999999      40.251451000000003      37.775004000000003
  4769   2      38.469211000000001      39.893801000000003      37.160055999999997
  4770   5               20.746803      43.807017000000002                19.38805
  4771   2      21.303260000000002               43.076867               19.669051
  4772   2      20.180070000000001      43.428178000000003                18.71134
  4773   5      26.378026999999999               12.557817      28.560887000000001
  4774   2      25.620450000000002      12.919453000000001               28.095032
  4775   2      26.282713999999999               11.606467                28.46874
  4776   5      13.427747999999999      10.477721000000001      41.220419999999997
  4777   2      13.483449999999999      9.5405339999999992      41.019661999999997
  4778   2      12.673348000000001               10.786038      40.712026000000002
  4779   5      17.772528000000001               25.470132      30.811731999999999
  4780   2               18.359164      25.794239999999999      31.499144999999999
  4781   2      18.294035000000001               25.526574      30.007065999999998
  4782   5      33.052706999999998      20.997731000000002      14.599055999999999
  4783   2      33.582433999999999      20.498024000000001               15.224681
  4784   2      32.237870999999998               21.184376               15.072181
  4785   5      5.8472840000000001                45.00168               20.098782
  4786   2                5.148504      44.346514999999997      20.163523000000001
  4787   2      6.1247230000000004      44.964365000000001      19.179936000000001
  4788   5     0.86603699999999995      11.656135000000001      43.129331999999998
  4789   2      1.6969959999999999      11.812843000000001      42.674715999999997
  4790   2                0.391596               11.048593      42.556235999999998
  4791   5      5.7172520000000002      7.2661759999999997      32.740695000000002
  4792   2      6.5367839999999999      7.7463240000000004      32.880521000000002
  4793   2      5.0290419999999996      7.9089689999999999      32.929971999999999
  4794   5      18.863019000000001                12.35872      38.177714000000002
  4795   2      18.225618000000001      11.642315999999999      38.130723000000003
  4796   2               19.529667               12.044701      38.793843000000003
  4797   5      35.691958999999997               28.835231      41.842106999999999
  4798   2      36.316532000000002               28.148581               42.087353
  4799   2      34.883442000000002      28.359469000000001               41.635728
  4800   5      16.854219000000001      40.681220000000003      28.208262999999999
  4801   2      17.664857000000001      40.172347000000002                28.13317
  4802   2      16.340993999999998      40.427287999999997      27.437055000000001
  4803   5               15.779876      45.000096999999997      7.8461829999999999
  4804   2      16.023544999999999               44.085366                 8.00624
  4805   2      14.931539000000001      44.946100000000001      7.3989130000000003
  4806   5      11.591267999999999               16.961095      2.1267640000000001
  4807   2      11.381563999999999      17.895852999999999      2.1898260000000001
  4808   2                12.43534               16.936453      1.6689689999999999
  4809   5      13.406180000000001      27.236854000000001      37.157305000000001
  4810   2      13.367369999999999      27.803574999999999      36.383324999999999
  4811   2      12.680210000000001      26.619420000000002      37.037368999999998
  4812   5      2.0432549999999998               21.707483      20.232050000000001
  4813   2      1.7105630000000001      21.201274999999999      20.976894999999999
  4814   2      1.8642209999999999      21.153351000000001      19.468160999999998
  4815   5      39.222546999999999      4.0452329999999996      30.671061999999999
  4816   2      39.913767999999997      3.4881190000000002      30.305596999999999
  4817   2      38.434829999999998      3.8022119999999999               30.178027
  4818   5      3.5425270000000002      20.964614999999998      42.832520000000002
  4819   2      4.2562090000000001      20.343679000000002      42.668748000000001
  4820   2      2.7989899999999999      20.411829999999998      43.085942000000003
  4821   5      3.1181040000000002               24.628736      22.587610999999999
  4822   2      3.2272970000000001      25.525462999999998               22.912699
  4823   2      3.6034139999999999      24.614834999999999               21.758803
  4824   5               17.599221      9.3941680000000005      8.0787980000000008
  4825   2      17.957533999999999      8.5087010000000003      8.1751579999999997
  4826   2      16.936267999999998      9.3093400000000006      7.3889149999999999
  4827   5      31.580148000000001      25.392507999999999      35.832472000000003
  4828   2                32.42736               25.691983      35.494430000000001
  4829   2      31.413315000000001      25.956952000000001      36.591557999999999
  4830   5               12.446066      14.278161000000001      33.062716000000002
  4831   2      12.947202000000001               13.509349      33.344703000000003
  4832   2               13.066343               14.786213      32.533771999999999
  4833   5               42.524614      9.9972940000000001      42.916693000000002
  4834   2      41.953096000000002      9.6843179999999993      43.621772999999997
  4835   2      41.960340000000002               10.566504               42.387318
  4836   5               35.920738               43.821081      23.933064000000002
  4837   2      35.899020999999998      43.001939999999998               24.433325
  4838   2      35.316434000000001      43.670006999999998               23.201877
  4839   5     0.95901599999999998      44.900044000000001      6.5693029999999997
  4840   2     0.40622000000000003               44.999983      5.7907440000000001
  4841   2     0.35208600000000001      44.999913999999997      7.3070740000000001
  4842   5      24.435141999999999      35.299481999999998               15.053391
  4843   2               24.110004      36.017147999999999               14.504788
  4844   2      24.289190999999999      34.510609000000002               14.525169
  4845   5               23.351875                31.23152      29.587828999999999
  4846   2      23.558153000000001      30.300284999999999      29.697265000000002
  4847   2                23.46152      31.604825000000002      30.466045000000001
  4848   5               10.983801      27.814157999999999                5.390619
  4849   2               10.547955      27.122281000000001      5.8936789999999997
  4850   2      10.271523999999999               28.245721      4.9120200000000001
  4851   5      28.769791999999999      31.184107000000001      31.546254000000001
  4852   2      28.385463000000001               31.213676      32.425539000000001
  4853   2      29.401389000000002      31.907745999999999               31.537651
  4854   5      29.657101000000001      21.330486000000001      43.566383999999999
  4855   2      28.937460000000002               20.701376      43.656174999999998
  4856   2      30.415787999999999      20.880797000000001      43.946931999999997
  4857   5      2.9045860000000001      44.456865000000001      26.787694999999999
  4858   2      1.9781930000000001      44.210182000000003      26.839338000000001
  4859   2      2.9631970000000001      44.999189999999999      25.997067999999999
  4860   5      12.624935000000001      1.2510330000000001                1.368911
  4861   2                11.91056     0.66946799999999995      1.0984020000000001
  4862   2                12.98485     0.83602600000000005      2.1568649999999998
  4863   5      40.671633999999997      44.609020999999998               19.821641
  4864   2      41.520108999999998               44.996817      19.594861999999999
  4865   2      40.452984999999998      44.995280000000001      20.673484999999999
  4866   5      39.718981999999997               27.446603      2.5907830000000001
  4867   2      40.281843000000002               27.626953      3.3473449999999998
  4868   2      39.304164999999998      28.290687999999999      2.3956170000000001
  4869   5      13.071656000000001                3.576225      3.3863240000000001
  4870   2               13.261951      4.2368249999999996      4.0564879999999999
  4871   2               13.680667      3.7791570000000001      2.6717849999999999
  4872   5      9.1770519999999998      12.174702999999999      33.371096999999999
  4873   2      9.6252580000000005               11.339483               33.523553
  4874   2      8.3593410000000006      11.929584999999999      32.930748999999999
  4875   5               15.526565      14.852486000000001                7.072273
  4876   2      15.699789000000001      14.486219999999999      6.2018890000000004
  4877   2      16.394252000000002                14.92328                7.478167
  4878   5      8.5194700000000001               11.139986      7.1146929999999999
  4879   2      7.7640169999999999      10.547648000000001      7.1270009999999999
  4880   2      8.1402040000000007      12.006690000000001      6.9484880000000002
  4881   5      33.760697999999998      36.332427000000003      16.183865999999998
  4882   2      34.091121000000001      36.504379999999998      15.299004999999999
  4883   2      32.815230999999997      36.489457999999999               16.120023
  4884   5      44.657361000000002               18.462567      12.781781000000001
  4885   2      44.996127000000001      19.360876000000001      12.783531999999999
  4886   2      43.751361000000003      18.550008999999999      12.474925000000001
  4887   5      8.7917900000000007                3.393402                6.686223
  4888   2      8.9149960000000004      3.9680019999999998      5.9270259999999997
  4889   2      8.0715079999999997      3.7974899999999998      7.1766810000000003
  4890   5               14.489124      4.5199280000000002               13.049439
  4891   2               14.064254      3.6894990000000001               13.276589
  4892   2               13.922393      4.9007339999999999               12.373832
  4893   5      30.191752000000001               19.846321      15.684082999999999
  4894   2               29.755578               20.693973      15.570226999999999
  4895   2      29.669256000000001      19.397317999999999      16.353438000000001
  4896   5      12.906852000000001      12.999866000000001      42.267733999999997
  4897   2               12.246489               13.611608      42.601526999999997
  4898   2      12.553024000000001               12.131064               42.474204
  4899   5      40.856181999999997               12.015502               38.738875
  4900   2               40.001787               12.256529      38.373305999999999
  4901   2      41.101280000000003                12.76548                39.28669
  4902   5      41.871733999999996      37.619428999999997      28.695056000000001
  4903   2               41.454245      37.326317000000003               29.508391
  4904   2      41.138317999999998      37.791040000000002      28.098991000000002
  4905   5      26.345998000000002      38.111111000000001      27.633710000000001
  4906   2               25.554091      37.757199999999997      27.222183000000001
  4907   2      27.013314000000001      37.436126000000002      27.486312999999999
  4908   5      22.122405000000001               21.570038      40.870705999999998
  4909   2               21.475787      21.972770000000001      41.455016000000001
  4910   2               21.645094      21.426632999999999      40.049577999999997
  4911   5      33.111229000000002      1.0893889999999999      3.0428950000000001
  4912   2      33.340904999999999      1.6371089999999999      3.7972000000000001
  4913   2      32.262168000000003     0.70577000000000001      3.2765070000000001
  4914   5      34.508997999999998      2.1888990000000002     0.29078300000000001
  4915   2      33.888772000000003      2.8617530000000002  0.00041899999999999999
  4916   2      34.039346000000002      1.7135400000000001     0.98078500000000002
  4917   5      12.495471999999999               42.142502      33.510719999999999
  4918   2      12.031105999999999      41.588304000000001      34.142347999999998
  4919   2      11.892307000000001      42.212710999999999               32.766472
  4920   5      9.3448609999999999               34.072409                23.39752
  4921   2      8.9031889999999994      34.768031999999998      23.890226999999999
  4922   2      8.8133309999999998      33.967664999999997               22.604333
  4923   5      19.605875000000001      16.217528000000001      31.104217999999999
  4924   2      19.859013000000001               15.981254      31.999663000000002
  4925   2      20.142914000000001      15.648835999999999               30.546706
  4926   5               19.642636               18.313651                3.519247
  4927   2      20.582879999999999      18.305129999999998      3.7131379999999998
  4928   2      19.234221000000002               18.620542      4.3326700000000002
  4929   5      35.424247999999999      24.426303000000001      3.9067289999999999
  4930   2      35.841681999999999      25.062432000000001      4.4922319999999996
  4931   2      35.994931000000001      24.402782999999999      3.1344539999999999
  4932   5      1.5541929999999999      39.127142999999997      36.533881999999998
  4933   2      2.0839210000000001               38.334457      36.646855000000002
  4934   2                2.186944      39.847326000000002      36.593930999999998
  4935   5      19.704374999999999      9.9547799999999995      37.579706000000002
  4936   2      18.810037000000001      9.6088900000000006               37.532328
  4937   2      20.171693999999999      9.5053459999999994               36.871001
  4938   5                4.017048      37.797500999999997               10.933424
  4939   2      3.9769540000000001      38.734575999999997               11.138384
  4940   2      3.3072530000000002               37.409551               11.451428
  4941   5      40.134951000000001      28.509585000000001      5.3804959999999999
  4942   2      39.291594000000003               28.066678      5.5001119999999997
  4943   2      40.722869000000003               28.075239      6.0036639999999997
  4944   5      16.271270000000001      7.5610030000000004      9.8891449999999992
  4945   2      17.036778000000002                7.077496                9.569858
  4946   2      16.594740999999999      8.0399229999999999               10.656376
  4947   5      2.6744140000000001      23.360340000000001      5.4409739999999998
  4948   2      3.1904789999999998      22.981753000000001      6.1565669999999999
  4949   2      3.3308339999999999      23.680285999999999      4.8169639999999996
  4950   5      34.048369000000001      5.8982070000000002      24.485917000000001
  4951   2                34.10745                 6.51572                25.21866
  4952   2      34.962155000000003      5.6911880000000004      24.274301999999999
  4953   5      23.833048999999999               36.667949      30.484701000000001
  4954   2      23.992311000000001      37.614218000000001      30.454097999999998
  4955   2               23.061757      36.574119000000003      31.049454999999998
  4956   5      44.266598000000002      29.892205000000001      26.838806999999999
  4957   2      44.999344000000001      29.376608999999998      26.493887999999998
  4958   2                44.02525      29.447120000000002      27.655073999999999
  4959   5      9.9594260000000006               11.762627      26.746607000000001
  4960   2                9.839537               10.908275      27.167836000000001
  4961   2               10.699052      12.157749000000001               27.215087
  4962   5      15.844224000000001               32.611283      36.275471000000003
  4963   2      16.108160999999999      33.528298999999997      36.381037999999997
  4964   2      16.627397999999999      32.108808000000003      36.513798000000001
  4965   5      18.621767999999999                5.996391      16.849723000000001
  4966   2               18.323176      5.4075009999999999      17.546700000000001
  4967   2      19.573322999999998      5.8685070000000001      16.820896000000001
  4968   5      27.753935999999999      19.134118000000001      35.125746999999997
  4969   2      27.421769999999999      19.681270999999999      34.410193999999997
  4970   2      28.667719000000002      19.410212999999999      35.232584000000003
  4971   5                1.435891      4.4009640000000001      38.608443000000001
  4972   2      1.3056810000000001      5.2195090000000004      38.123927000000002
  4973   2     0.60878399999999999      4.2678989999999999      39.078369000000002
  4974   5      6.5727630000000001      27.417632999999999               38.871845
  4975   2                6.509665      28.194776000000001      39.432017000000002
  4976   2      6.9798109999999998               27.738927      38.063313999999998
  4977   5      37.921196999999999               25.484814      9.1674199999999999
  4978   2      38.820616999999999      25.195765000000002      9.3383590000000005
  4979   2      38.022682000000003      26.334447000000001      8.7309959999999993
  4980   5      3.7431860000000001      36.581482999999999               22.735484
  4981   2      3.4952380000000001      35.951427000000002      23.416126999999999
  4982   2      3.1040779999999999      36.437455999999997      22.033031000000001
  4983   5      31.960429999999999      2.5187309999999998               35.985464
  4984   2      31.295100999999999      3.2080099999999998      35.922556999999998
  4985   2               31.480677                1.753358               36.312089
  4986   5      12.643185000000001      23.479838000000001               11.104763
  4987   2      11.689258000000001      23.586950000000002               11.121376
  4988   2      12.838449000000001      22.960160999999999      11.888631999999999
  4989   5      41.074629000000002               16.084374      42.916035999999998
  4990   2      40.366036000000001      16.437519999999999      42.372981000000003
  4991   2      41.788887000000003      15.916188999999999      42.296204000000003
  4992   5      16.309283000000001      39.382559000000001      2.9668079999999999
  4993   2      17.130313000000001      39.501913999999999      2.4837050000000001
  4994   2               15.919606      40.260049000000002                2.995177
  4995   5      6.3913770000000003               31.180163      10.793725999999999
  4996   2      5.9597319999999998               31.696424               11.478475
  4997   2      7.3226329999999997      31.398392000000001               10.881933
  4998   5               29.283859      22.799358999999999      8.8476569999999999
  4999   2      28.917681999999999      21.914559000000001      8.9167079999999999
  5000   2      29.058008999999998      23.082101000000002      7.9578870000000004
  5001   5      23.227875999999998                18.41169      8.8256789999999992
  5002   2      22.336518000000002      18.671945000000001      9.0695490000000003
  5003   2      23.480547000000001      19.037756000000002      8.1424219999999998
  5004   5      4.8935560000000002      33.099865000000001                 0.00101
  5005   2      3.9615529999999999      33.015639999999998     0.21548700000000001
  5006   2      5.0547199999999997      34.046778000000003   0.0059069999999999999
  5007   5      5.9931989999999997      5.9481310000000001      6.0441000000000003
  5008   2      6.9145440000000002      5.9283900000000003      5.7749189999999997
  5009   2      5.9495290000000001      6.6548210000000001      6.6931950000000002
  5010   5      29.129732000000001      9.8054020000000008               23.625252
  5011   2      28.366710999999999      10.374988999999999      23.502389000000001
  5012   2      28.892278000000001                9.245851                  24.369
  5013   5               12.780403               31.797514      43.687052000000001
  5014   2               13.356239      32.146771999999999      44.371271999999998
  5015   2      12.466646000000001               30.962301      44.042886000000003
  5016   5                3.906342      6.3890650000000004               22.178355
  5017   2      4.3518169999999996      7.2391300000000003      22.152550999999999
  5018   2      4.3505419999999999      5.8665830000000003      21.505790999999999
  5019   5      41.474977000000003      24.132269000000001      22.059774000000001
  5020   2      41.594366000000001      24.961625999999999      21.591117000000001
  5021   2      41.314718999999997               24.393715      22.970051999999999
  5022   5      3.8798010000000001      2.9989400000000002      32.043824000000001
  5023   2      4.5587289999999996                2.357084      32.264735000000002
  5024   2      3.3163130000000001      2.5426950000000001      31.413772999999999
  5025   5      32.773747999999998               13.939721                9.076803
  5026   2      33.479337999999998      14.563670999999999      8.8909129999999994
  5027   2      32.051380000000002               14.485386      9.3978560000000009
  5028   5      31.979441000000001      18.007142999999999               12.643654
  5029   2      31.724011999999998      17.109549000000001               12.418253
  5030   2      32.599584999999998      17.903345000000002               13.369802
  5031   5      24.670915000000001                3.523501                10.71696
  5032   2      23.779102000000002      3.2339259999999999               10.510707
  5033   2      24.847256999999999                4.222804      10.082515000000001
  5034   5      11.388234000000001      44.504846000000001      27.366713000000001
  5035   2                12.13847               44.986494               27.722925
  5036   2      10.621562000000001      44.953465000000001      27.732223000000001
  5037   5      11.811161999999999      8.0933220000000006               10.020889
  5038   2               11.816537      8.9687280000000005      10.415048000000001
  5039   2               12.357752      8.1818770000000001      9.2360070000000007
  5040   5      43.508277999999997               27.012297               28.742905
  5041   2      43.114136000000002               27.874696               28.893386
  5042   2      43.919916999999998      27.085885999999999      27.878163000000001
  5043   5               14.305595      15.119597000000001      9.6477129999999995
  5044   2      14.789156999999999      15.908777000000001      9.3925920000000005
  5045   2                13.67347               15.428298                10.30175
  5046   5      4.7490180000000004      9.6000150000000009      40.918902000000003
  5047   2                3.806101                9.430453      40.856606999999997
  5048   2      5.0691280000000001      8.9415019999999998               41.540619
  5049   5      4.2364129999999998      24.461815999999999      41.294831000000002
  5050   2                3.740818      25.103155999999998      41.809412000000002
  5051   2      3.6339329999999999               23.720602      41.193534999999997
  5052   5      20.229676000000001      5.2385999999999999      35.144911999999998
  5053   2               20.481292      6.1554190000000002      35.011284000000003
  5054   2      19.647131999999999      5.2600689999999997               35.908341
  5055   5      39.873508000000001                5.944458      11.050326999999999
  5056   2      40.009894000000003      6.8552970000000002               10.779225
  5057   2      39.120615999999998      5.9830439999999996               11.645564
  5058   5      35.464289999999998               22.512971      16.285201000000001
  5059   2      34.847808999999998      23.095549999999999      16.734953999999998
  5060   2      35.669182999999997      22.969733000000002               15.465427
  5061   5               36.519762      33.598250999999998               17.735218
  5062   2      36.832438000000003      34.149757000000001      18.456188999999998
  5063   2      36.455010000000001               32.719617               18.117908
  5064   5               22.902542      4.5184730000000002      44.162345999999999
  5065   2               23.643062      4.3559429999999999      44.751361000000003
  5066   2      23.170902999999999      4.1255949999999997      43.327916999999999
  5067   5      14.287782999999999      36.456443999999998      6.5360199999999997
  5068   2               14.441772               35.566049      6.8603779999999999
  5069   2      14.865546999999999      36.535400000000003      5.7727389999999996
  5070   5               17.662772      2.2852250000000001      4.6106949999999998
  5071   2      17.722055000000001                3.060028      5.1745140000000003
  5072   2               18.543139                1.902064      4.6386729999999998
  5073   5      38.284782999999997                9.269914      33.255575999999998
  5074   2      37.627583000000001      9.8907089999999993      33.578727000000001
  5075   2      38.823745000000002      9.7864059999999995      32.651094000000001
  5076   5               25.143231      10.149006999999999      33.548104000000002
  5077   2      24.220037000000001      9.9195390000000003      33.418559000000002
  5078   2                25.54917      9.3366830000000007      33.861130000000003
  5079   5      13.871062999999999      39.622441000000002               21.840771
  5080   2      13.047371999999999               40.100451      21.962282999999999
  5081   2      14.336778000000001      40.118428000000002      21.162724000000001
  5082   5      24.107541000000001      9.1659249999999997      5.9544199999999998
  5083   2      23.469111000000002      8.4640160000000009      6.1008979999999999
  5084   2      23.819414999999999      9.5839549999999996      5.1390200000000004
  5085   5      14.373654999999999      18.740708999999999      7.3112000000000004
  5086   2               14.426822               19.676838      7.1048970000000002
  5087   2               14.806049      18.659804000000001      8.1650919999999996
  5088   5      39.524948999999999               36.150596               16.271366
  5089   2      40.199154999999998      36.171649000000002      16.954540999999999
  5090   2      39.314746999999997      37.074764999999999      16.115262000000001
  5091   5      39.107984000000002               14.891022      27.339708000000002
  5092   2      39.725098000000003      15.610701000000001               27.188191
  5093   2      38.375602000000001               15.299562      27.808060000000001
  5094   5      7.6006600000000004      9.4843890000000002               20.280192
  5095   2      7.0896970000000001      8.6736920000000008      20.221785000000001
  5096   2                8.398339      9.2300719999999998      20.751014000000001
  5097   5               12.141168      37.363416000000001                1.422612
  5098   2      12.681089999999999      36.713841000000002      1.8789709999999999
  5099   2               12.774773      37.916414000000003     0.95852099999999996
  5100   5      36.897195000000004      28.578931000000001               25.757348
  5101   2      37.767614000000002      28.687436999999999      26.147632999999999
  5102   2      36.385240000000003      29.311717000000002      26.108872000000002
  5103   5      14.664414000000001                1.198442               42.289738
  5104   2      15.017708000000001      2.0503680000000002      42.556441999999997
  5105   2               15.272902     0.88894700000000004      41.614018000000002
  5106   5      14.759626000000001      24.393433999999999      31.799506000000001
  5107   2               15.445943      24.916367000000001      31.378513000000002
  5108   2      14.301330999999999      23.969491999999999      31.069520000000001
  5109   5      42.509962000000002      8.8481710000000007               14.661617
  5110   2      43.456874999999997      8.7594320000000003      14.792789000000001
  5111   2      42.234053000000003      7.9906649999999999      14.328150000000001
  5112   5                5.328805      17.092465000000001      11.004588999999999
  5113   2      4.8743910000000001               17.876842               11.320795
  5114   2      6.1266420000000004      17.430084000000001      10.589726000000001
  5115   5               15.068379               26.731652      25.291589999999999
  5116   2               15.517614      26.126909999999999               25.886737
  5117   2               15.148266               27.588818      25.717649000000002
  5118   5      3.5873629999999999      12.896421999999999      42.977373999999998
  5119   2      3.4391289999999999               12.530253               43.852401
  5120   2      4.2811979999999998               13.548102      43.106017000000001
  5121   5      5.3332930000000003      37.206940000000003      3.6228820000000002
  5122   2      6.1154109999999999      37.728816999999999                3.428817
  5123   2      4.8562250000000002      37.725906999999999      4.2753550000000002
  5124   5      36.861893000000002      42.498817000000003      33.229965999999997
  5125   2               37.336264      43.128180999999998               33.778233
  5126   2      36.905852000000003               41.674346      33.720838999999998
  5127   5               25.363619      37.287551000000001      5.7265230000000003
  5128   2      26.086677999999999      36.889848000000001      6.2171770000000004
  5129   2      25.791250999999999      37.915565000000001      5.1388400000000001
  5130   5               14.767336      29.289038000000001      27.459731999999999
  5131   2               14.592131               28.375681      27.698073999999998
  5132   2               13.971105      29.573453000000001               27.003919
  5133   5                3.979352               25.018348      26.794550000000001
  5134   2      4.7355640000000001      25.188642999999999      26.228097000000002
  5135   2      3.6712090000000002      24.149121999999998      26.525970000000001
  5136   5      7.3593219999999997      31.064347999999999      27.183956999999999
  5137   2      6.5272249999999996      30.708210999999999      26.863790999999999
  5138   2                7.565315               31.775717      26.572268000000001
  5139   5      15.827800999999999      25.275148000000002      3.9355530000000001
  5140   2               15.939847      25.654693999999999      4.8102619999999998
  5141   2               14.956788      25.569662999999998                3.657635
  5142   5      27.526844000000001      5.9817710000000002               22.481344
  5143   2                28.26867      5.5470160000000002      22.054252999999999
  5144   2      27.003239000000001      6.3287490000000002      21.754649000000001
  5145   5               37.866194                3.826921      2.1931099999999999
  5146   2                38.08314      2.9284330000000001                 2.45268
  5147   2               37.049692      4.0196810000000003                2.660882
  5148   5                0.339007      10.156257999999999      26.698139000000001
  5149   2                0.507579                11.09323      26.822202000000001
  5150   2     0.66862900000000003      9.9695219999999996      25.815460999999999
  5151   5      28.345766999999999      39.641269000000001                11.88721
  5152   2               29.232702      39.426582000000003      11.588915999999999
  5153   2      28.481107999999999               40.152721               12.688922
  5154   5      7.7120850000000001      6.9159009999999999               43.543084
  5155   2      6.9676600000000004      6.3644910000000001      43.795082000000001
  5156   2      7.7791329999999999      7.5633379999999999      44.249462999999999
  5157   5      5.6768939999999999     0.36828300000000003      35.018492000000002
  5158   2      4.9458659999999997     0.93285499999999999      34.756610000000002
  5159   2                6.454326     0.80232300000000001      34.658141999999998
  5160   5               22.264571      30.863993000000001               38.128625
  5161   2               22.942076      31.530781000000001      37.994067999999999
  5162   2               22.545451      30.125160000000001      37.582847999999998
  5163   5      30.381374000000001                13.10726      35.332186999999998
  5164   2               31.254275      12.935423999999999      34.971297999999997
  5165   2               30.299139               12.488446      36.062220000000003
  5166   5      18.217894000000001      24.701685000000001      5.1697170000000003
  5167   2               18.949925               24.099287      5.3212830000000002
  5168   2      17.713218999999999               24.290668                4.463311
  5169   5               21.284125      43.011024999999997               30.828706
  5170   2               21.281962      42.102158000000003      31.138027999999998
  5171   2      21.363385999999998      43.535288999999999               31.629648
  5172   5      20.187936000000001                6.998532      37.752384999999997
  5173   2               20.408237      7.3192969999999997      36.874716999999997
  5174   2      19.794944000000001      7.7569340000000002      38.191732000000002
  5175   5      40.676546000000002      6.2795339999999999      43.558413999999999
  5176   2      40.535665000000002                6.664218      42.690142000000002
  5177   2               41.626517                6.146757               43.609088
  5178   5               11.295081      23.392852999999999      27.248947999999999
  5179   2                 11.2563      23.011178999999998      28.129031000000001
  5180   2                10.71269      24.155377999999999      27.293876999999998
  5181   5      41.499282999999998      21.544018000000001      34.868620999999997
  5182   2                40.99682               22.160072      35.406889999999997
  5183   2      41.632747999999999               22.007223               34.037796
  5184   5      11.849159999999999               27.347787               14.198715
  5185   2      12.419612000000001      27.717715999999999      14.876550999999999
  5186   2               11.022003      27.170680999999998               14.653782
  5187   5               33.411144      24.089936000000002      24.660063999999998
  5188   2      32.879202999999997      24.341978999999998      23.901620000000001
  5189   2      32.801538000000001      24.126211999999999      25.401485999999998
  5190   5      39.197391000000003      33.889977000000002      16.850885000000002
  5191   2      40.147787000000001      33.980195999999999      16.749241000000001
  5192   2      38.984065999999999      34.447648999999998               17.603306
  5193   5      19.718246000000001      43.858341000000003                33.45091
  5194   2                20.19228      43.023879999999998      33.424613999999998
  5195   2               19.099992      43.804550999999996      32.717759000000001
  5196   5      6.1701350000000001      15.870081000000001      6.0601580000000004
  5197   2      6.9911070000000004               15.376218      6.1220400000000001
  5198   2      5.7453969999999996               15.528426      5.2692649999999999
  5199   5      26.521768000000002      5.4810930000000004      31.052247999999999
  5200   2               26.489753      5.6637329999999997      30.110258999999999
  5201   2      25.929822000000001      6.1299239999999999      31.441172000000002
  5202   5               15.462705      8.5293869999999998      4.9496469999999997
  5203   2      14.870162000000001      8.9626649999999994      5.5684259999999997
  5204   2      16.267344999999999      8.3823299999999996      5.4532049999999996
  5205   5      42.267853000000002      9.0877309999999998      35.924498999999997
  5206   2      42.477514999999997      9.7367019999999993      35.248775000000002
  5207   2      42.614763000000004      9.4675580000000004      36.735686999999999
  5208   5      19.446619999999999      16.248083999999999      6.6451349999999998
  5209   2      18.608976999999999      16.425343999999999      6.2107859999999997
  5210   2      19.528701000000002               15.291302      6.6233890000000004
  5211   5      3.8830119999999999      32.832442999999998               25.242113
  5212   2      3.1604199999999998      33.387478000000002               25.544639
  5213   2      4.2454070000000002               33.303213               24.487337
  5214   5      8.2788489999999992      11.736947000000001      4.3805860000000001
  5215   2      7.9623650000000001                11.05325      4.9756660000000004
  5216   2      8.9140040000000003      12.232803000000001      4.9034129999999996
  5217   5      43.691433000000004      11.947426999999999      8.6013570000000001
  5218   2      42.771380000000001               11.822697      8.8456309999999991
  5219   2      43.659252000000002               12.538378      7.8447969999999998
  5220   5      34.237810000000003      39.716513999999997      42.277009999999997
  5221   2      33.333837000000003      39.577030000000001      41.985286000000002
  5222   2      34.179707000000001      40.454797999999997               42.888731
  5223   5      22.200683999999999               34.979844                12.33329
  5224   2      22.561668000000001      34.888002999999998               13.218152
  5225   2      22.941669999999998               35.285584      11.804040000000001
  5226   5      30.766397999999999      39.343128999999998               14.596848
  5227   2               30.325644      39.700113000000002               13.822236
  5228   2      31.359376999999999      38.673639000000001      14.246418999999999
  5229   5      33.659305000000003      24.219950999999998      9.1469629999999995
  5230   2      33.862754000000002      24.368825999999999               10.073338
  5231   2      33.157260000000001      23.401071000000002      9.1417190000000002
  5232   5      32.334902999999997      6.7857580000000004      10.202595000000001
  5233   2      31.858432000000001      6.0000730000000004      9.9243869999999994
  5234   2      32.943429999999999      6.4698650000000004      10.875311999999999
  5235   5               26.816844      14.847778999999999                1.011134
  5236   2      27.681940000000001               14.484589      1.2146699999999999
  5237   2               27.003238               15.713412     0.63887099999999997
  5238   5      21.996268000000001               17.251776      5.0284490000000002
  5239   2      22.496486000000001               17.205081      5.8465730000000002
  5240   2      21.312864999999999      16.584233999999999      5.1283989999999999
  5241   5      9.3177079999999997               24.395643      41.555841999999998
  5242   2      9.2467100000000002      24.117692999999999      42.472045000000001
  5243   2      9.1348699999999994      23.599606999999999      41.050333000000002
  5244   5      35.659314999999999      28.260639000000001      19.235078999999999
  5245   2      35.894714999999998      28.949007000000002               18.608611
  5246   2      36.454320000000003      28.132860999999998               19.758799
  5247   5      19.511935000000001      32.916263000000001      32.701636000000001
  5248   2      19.104099999999999               32.081232               32.942715
  5249   2      19.004038000000001               33.220025      31.945056999999998
  5250   5                12.73386      42.923394999999999      41.645935999999999
  5251   2               12.338122      42.069602000000003      41.836078999999998
  5252   2               13.640632      42.717557999999997      41.405026999999997
  5253   5      24.499742000000001      5.2942640000000001                37.24483
  5254   2      25.232410000000002      5.3277029999999996      37.864350000000002
  5255   2      23.966971000000001      4.5536810000000001      37.545383999999999
  5256   5     0.67951300000000003      30.878122000000001      16.269898000000001
  5257   2     0.90102899999999997      29.976490999999999                16.02553
  5258   2                1.218062               31.421688               15.689257
  5259   5      30.419070999999999      9.5921590000000005      39.695495999999999
  5260   2      29.857721999999999      9.0556809999999999               40.260123
  5261   2      29.817471000000001                10.22185      39.290269000000002
  5262   5      10.778657000000001               34.094611               12.794141
  5263   2               11.626325               34.545223      12.805645999999999
  5264   2               10.905654      33.363281999999998               12.184493
  5265   5      42.835673999999997      14.930566000000001      5.7356309999999997
  5266   2      42.069834999999998      14.445399999999999      5.4196739999999997
  5267   2      43.001344000000003      15.585532000000001      5.0528320000000004
  5268   5               43.978437               13.808163      23.559681000000001
  5269   2      44.621701000000002      13.985760000000001      24.249894999999999
  5270   2      44.369152999999997      14.184590999999999      22.767036000000001
  5271   5      9.1862890000000004               14.029418      37.987568000000003
  5272   2      9.4864130000000007               13.645384      38.814712999999998
  5273   2                8.257892               14.224415      38.138218999999999
  5274   5      39.761093000000002      39.019905999999999               17.907149
  5275   2      39.640528000000003      39.325544999999998      18.809242999999999
  5276   2      40.013860999999999      38.097839999999998               17.999585
  5277   5      8.3344400000000007      22.832038000000001      31.893574999999998
  5278   2      8.7760069999999999      21.984663999999999      31.986848999999999
  5279   2      8.1530640000000005      22.904136999999999      30.953071000000001
  5280   5      44.388530000000003      5.9194380000000004               22.155645
  5281   2      43.777000000000001      5.3504329999999998               21.682371
  5282   2      44.283391000000002      6.7795240000000003      21.741109999999999
  5283   5      38.949139000000002     0.82401599999999997               44.249333
  5284   2      39.634251999999996     0.82532399999999995      44.921899000000003
  5285   2      39.424823000000004     0.69634600000000002      43.424670999999996
  5286   5               25.404163               17.676434      13.768186999999999
  5287   2               24.888012      17.140167999999999               14.374596
  5288   2      26.140868000000001      17.992554999999999      14.297313000000001
  5289   5               12.545973      25.108969999999999      28.050039999999999
  5290   2               12.760588      24.514541000000001      28.772756999999999
  5291   2               13.349262               25.145287      27.524636000000001
  5292   5      12.219804999999999      1.0030559999999999      17.209375999999999
  5293   2                11.50597     0.57368600000000003      17.686665000000001
  5294   2               11.796061      1.3776360000000001      16.432991999999999
  5295   5               10.019442      32.428209000000003               25.472348
  5296   2      9.7592970000000001      32.173954999999999      26.360831999999998
  5297   2      9.8361499999999999      31.650926999999999               24.938609
  5298   5      40.964424999999999      36.500931999999999                11.91483
  5299   2               40.269565      36.232425999999997                12.52047
  5300   2      41.636567999999997      35.820891000000003               12.006537
  5301   5      11.397263000000001      37.525329999999997               36.361342
  5302   2               11.267562      38.113534999999999      37.108950999999998
  5303   2               12.039382      36.882281999999996      36.672491999999998
  5304   5      34.174064000000001      3.8690519999999999                2.555952
  5305   2      34.235774999999997                4.314997      1.7079839999999999
  5306   2      33.315142999999999      3.4394520000000002      2.5374680000000001
  5307   5      14.156974999999999      27.647286999999999      31.983944999999999
  5308   2               15.087434      27.815926000000001               31.818016
  5309   2               13.699154      28.338114999999998      31.498353999999999
  5310   5               13.549149      34.402608999999998      8.5001189999999998
  5311   2      13.265235000000001      33.765602999999999      9.1599219999999999
  5312   2               12.872016      34.359515999999999      7.8202090000000002
  5313   5               14.258841      37.070627000000002      18.880293999999999
  5314   2      14.784871000000001      37.690607999999997      19.390823999999999
  5315   2               14.906241      36.540793000000001               18.408286
  5316   5      9.3578290000000006      4.3460970000000003               17.631097
  5317   2      9.4160579999999996                5.299607      17.535426999999999
  5318   2                10.24658                4.076327      17.876021000000001
  5319   5               25.698584               13.248792      15.630005000000001
  5320   2      25.830895999999999      12.651740999999999      16.370104999999999
  5321   2      26.522604000000001               13.738533      15.568478000000001
  5322   5      19.191265999999999      24.632501000000001      38.207107000000001
  5323   2      18.521823000000001      23.944953999999999      38.236268000000003
  5324   2               19.720164      24.483885000000001                38.99503
  5325   5      21.454450999999999               30.061505               12.863061
  5326   2      22.260383999999998      29.565297999999999               12.701888
  5327   2               20.871205      29.434287999999999               13.297877
  5328   5      30.669377000000001      9.1061750000000004                26.19839
  5329   2               30.220986      9.9463249999999999               26.320124
  5330   2      30.754356999999999      8.7503770000000003      27.086549999999999
  5331   5      41.878163999999998      25.104458000000001      9.9593059999999998
  5332   2      42.816868999999997      25.264651000000001               10.081362
  5333   2      41.839480000000002               24.393048      9.3150689999999994
  5334   5               14.458831               41.074081      40.046396999999999
  5335   2               13.920859      40.305044000000002               40.248618
  5336   2               14.397587      41.163617000000002      39.091999000000001
  5337   5      4.3245519999999997      41.365161999999998      16.646062000000001
  5338   2      4.9999690000000001      40.738653999999997      16.916291999999999
  5339   2      3.5161069999999999      40.847177000000002               16.618703
  5340   5               39.189003      11.002511999999999      2.1966049999999999
  5341   2      39.513219999999997               10.240777      1.7104299999999999
  5342   2                38.61694               11.457355                1.573304
  5343   5      30.669875999999999      23.531473999999999      44.184857000000001
  5344   2      31.406345000000002               22.986241      43.898395999999998
  5345   2      31.043810000000001      24.100394000000001      44.862459999999999
  5346   5      43.330781999999999      2.1087739999999999      29.279109999999999
  5347   2      42.743754000000003      2.7612739999999998      28.890052000000001
  5348   2      42.746423999999998                1.523493               29.767592
  5349   5               11.798384      43.073089000000003               39.385306
  5350   2               11.082998      43.394122000000003      39.939278999999999
  5351   2               12.477452      43.748578999999999      39.457571000000002
  5352   5      19.342283999999999               24.052215      2.9577040000000001
  5353   2      19.525179999999999      24.919751999999999      3.3260160000000001
  5354   2      19.945692000000001               23.976813                2.214162
  5355   5      29.735620999999998      22.101168000000001               13.598195
  5356   2      30.618507999999999      22.181643999999999                13.96665
  5357   2      29.237113000000001               22.807243      14.017227999999999
  5358   5      17.418690000000002      32.247779000000001      3.1976040000000001
  5359   2               18.337557      32.439394999999998      3.3993280000000001
  5360   2      17.446211999999999               31.404512      2.7384909999999998
  5361   5               12.031585               33.329929      22.568125999999999
  5362   2      12.661129000000001      33.007275999999997      21.919053999999999
  5363   2               12.010154      34.279919999999997      22.427772000000001
  5364   5               15.481942      4.4391870000000004      9.0783889999999996
  5365   2      16.178944000000001      5.0917649999999997      8.9781089999999999
  5366   2      15.111428999999999      4.3486750000000001      8.1968169999999994
  5367   5      35.665560999999997      28.566880999999999               31.789209
  5368   2      35.862882999999997      27.736909000000001      32.229590000000002
  5369   2      35.323957999999998      29.131716000000001      32.487000000000002
  5370   5               28.738695     0.96833400000000003      32.332075000000003
  5371   2      27.882155000000001                1.060033               31.908217
  5372   2      28.851171999999998                1.786891               32.821928
  5373   5      5.9000339999999998               11.862093      20.814437999999999
  5374   2      6.0866049999999996               12.571985      20.195592999999999
  5375   2      4.9805640000000002               11.994337      21.058831000000001
  5376   5      6.8774749999999996                8.030348      8.7304809999999993
  5377   2      6.5364930000000001      8.0200370000000003      9.6278930000000003
  5378   2      7.0863079999999998      8.9532589999999992      8.5653559999999995
  5379   5      7.0737360000000002               23.762974      42.533197000000001
  5380   2      6.2709840000000003      23.923981999999999      42.031807999999998
  5381   2      6.7877609999999997               23.770878      43.450147000000001
  5382   5      24.207297000000001      23.062529000000001      11.060022999999999
  5383   2               24.220551      22.103217999999998                11.02436
  5384   2      23.914128999999999      23.263926000000001      11.952286000000001
  5385   5               19.253332               12.466735      8.3215769999999996
  5386   2      19.649705999999998      12.830564000000001      9.1167130000000007
  5387   2      19.907046999999999               12.624374      7.6356849999999996
  5388   5      16.071950999999999      36.424708000000003      1.1242799999999999
  5389   2               15.386412               36.405065                1.796125
  5390   2      15.605646999999999      36.646104999999999     0.31422699999999998
  5391   5      40.220681999999996      14.104445999999999      36.616751999999998
  5392   2      40.327267999999997               15.003441      36.936396000000002
  5393   2      40.981413000000003      13.634760999999999      36.967933000000002
  5394   5      7.9713479999999999      43.696330000000003      19.637405999999999
  5395   2                8.183681      44.280455000000003      18.905670000000001
  5396   2      7.2889189999999999      43.116742000000002               19.289541
  5397   5      5.5147050000000002      22.130500000000001      40.753324999999997
  5398   2      5.5900850000000002      21.220262999999999      40.457501999999998
  5399   2      5.1426350000000003      22.596001999999999      39.999989999999997
  5400   5      43.960648999999997                2.117194      6.8052080000000004
  5401   2      44.846370999999998      2.4876149999999999      6.8020350000000001
  5402   2      43.422595999999999      2.7894220000000001      7.2309429999999999
  5403   5      8.3256340000000009      42.429707999999998      6.9064439999999996
  5404   2      8.2481299999999997      43.347400999999998                 6.63523
  5405   2      7.9667760000000003      41.931626999999999      6.1676770000000003
  5406   5      41.549934999999998      27.782931999999999      25.948097000000001
  5407   2               40.679496               27.533286      25.629131999999998
  5408   2      41.645037000000002      27.308274999999998               26.777735
  5409   5      15.518936999999999               10.002155                 14.3111
  5410   2                15.34186               10.433263      13.471747000000001
  5411   2               15.808066      9.1187129999999996      14.069070999999999
  5412   5      3.6197360000000001               12.859942               28.357999
  5413   2      3.4350510000000001                12.15799               28.986393
  5414   2      4.4557039999999999               13.229967               28.652752
  5415   5      7.0106919999999997      4.4539119999999999      4.1447180000000001
  5416   2      6.1073950000000004      4.7635009999999998      4.0450499999999998
  5417   2      6.9717469999999997                3.837793      4.8806000000000003
  5418   5      39.499809999999997      36.654597000000003      25.944348999999999
  5419   2      39.704323000000002      37.430385999999999      26.471654000000001
  5420   2      39.779505999999998      35.915063000000004      26.489785000000001
  5421   5      34.461661999999997      40.532426999999998      16.167763000000001
  5422   2      33.680984000000002               41.090114      16.132377999999999
  5423   2      35.192749999999997      41.135443000000002      16.011164000000001
  5424   5               28.458845               42.000501      43.942354999999999
  5425   2      27.926849000000001               41.641005      44.656125000000003
  5426   2               27.904021      41.911543999999999      43.163317999999997
  5427   5      31.443501999999999      37.861780000000003      39.133519999999997
  5428   2               32.129517               37.401235      38.644638999999998
  5429   2      31.510781000000001      37.512064000000002      40.025604999999999
  5430   5      7.8015189999999999      9.5140139999999995      43.233423999999999
  5431   2      8.2645359999999997      9.7462160000000004                44.04177
  5432   2      8.5015719999999995      9.3446200000000008               42.597915
  5433   5      33.297412999999999               31.747097      27.510833000000002
  5434   2      32.549982999999997      31.207501000000001      27.778991999999999
  5435   2      32.969042000000002      32.255488999999997      26.764942999999999
  5436   5      9.0959280000000007      15.668494000000001      35.888964000000001
  5437   2      9.2225599999999996      16.573816999999998      36.182358000000001
  5438   2      9.7615259999999999               15.543286      35.207828999999997
  5439   5      5.8172610000000002               29.161797      23.061209999999999
  5440   2      6.4006590000000001               29.794743      23.486357999999999
  5441   2      5.1766949999999996      28.934639000000001      23.739971000000001
  5442   5      23.180489000000001               38.809652      21.252891999999999
  5443   2      22.998315000000002      39.491058000000002      21.904216000000002
  5444   2      24.074902000000002      38.996184999999997               20.956457
  5445   5      44.021625999999998               34.805436      21.870847999999999
  5446   2      44.263615999999999      34.790605999999997      22.799796000000001
  5447   2      43.492671000000001      34.012883000000002      21.749569000000001
  5448   5      31.852302000000002      2.1879249999999999      9.5325439999999997
  5449   2               31.717423      2.6545570000000001      10.360666999999999
  5450   2      32.063372999999999      1.2889660000000001      9.7970500000000005
  5451   5      18.544156999999998      43.836579999999998      1.9768019999999999
  5452   2      17.802364000000001      43.260280000000002                1.778443
  5453   2      19.088267999999999      43.325398999999997      2.5811839999999999
  5454   5      8.6423950000000005      13.100751000000001      20.856255000000001
  5455   2      7.9192410000000004      12.772826999999999                21.39592
  5456   2      8.3842529999999993      13.998250000000001      20.631533999999998
  5457   5      38.452464999999997               18.400039      21.820824000000002
  5458   2               38.097268      17.833417000000001      22.509664000000001
  5459   2      38.249110000000002      17.938027000000002      21.003613999999999
  5460   5                0.021009      35.716512999999999      29.173605999999999
  5461   2                 0.10822      36.299796000000001      29.931166999999999
  5462   2     0.69154700000000002      36.023285999999999      28.558047999999999
  5463   5      33.505654999999997               15.460583               10.899129
  5464   2      34.023032999999998               14.703821               11.184362
  5465   2      33.594377999999999      16.093872999999999      11.615868000000001
  5466   5      15.795355000000001               43.048178      27.697106000000002
  5467   2      16.715025000000001      42.839346999999997      27.876888000000001
  5468   2      15.756760999999999      43.153044999999999      26.743085000000001
  5469   5      15.914146000000001      20.581257000000001               12.360163
  5470   2               16.077496      20.122706999999998      11.532652000000001
  5471   2      16.476552999999999      20.132459999999998               12.996497
  5472   5               24.058152               40.828277      42.363089000000002
  5473   2      23.350245000000001      41.111044999999997      42.946728999999998
  5474   2      24.647161000000001      40.323703999999999      42.929760000000002
  5475   5      30.972131000000001               12.313886               20.252765
  5476   2      30.247057000000002      12.911167000000001      20.450876999999998
  5477   2      30.669187999999998               11.816165      19.489128000000001
  5478   5      12.012306000000001               26.968498      3.1699130000000002
  5479   2      12.841462999999999               26.486946      3.1216279999999998
  5480   2               11.364201      26.303329000000002      3.4151720000000001
  5481   5      10.860082999999999               19.477311      5.8573259999999996
  5482   2               11.354746      18.937038999999999      6.4779220000000004
  5483   2      9.9685819999999996      19.495007999999999      6.2144729999999999
  5484   5      27.325842999999999      15.779280999999999      7.4972000000000003
  5485   2      28.130690999999999      16.103497000000001      7.9080870000000001
  5486   2               26.919072               15.228882      8.1711740000000006
  5487   5               44.578854      8.4043949999999992      12.848691000000001
  5488   2      44.980674999999998                7.534656      12.910481000000001
  5489   2      43.652290000000001      8.2266969999999997               12.668291
  5490   5      41.095635999999999               12.431621      17.691306999999998
  5491   2      41.350369000000001               12.814161      16.848396999999999
  5492   2      40.969608000000001      13.188985000000001               18.268507
  5493   5      38.991407000000002      38.738641000000001      43.092156000000003
  5494   2      38.521510999999997      38.063101000000003               42.597617
  5495   2      39.664377000000002      39.054625999999999      42.483956999999997
  5496   5      28.836673000000001               31.095177      19.298466000000001
  5497   2      29.664286000000001               31.535632      19.091626999999999
  5498   2      28.271146999999999               31.284485      18.545483000000001
  5499   5      10.933522999999999      6.9529300000000003      27.801252999999999
  5500   2               10.148861      6.9184109999999999               28.353375
  5501   2               10.652198      7.4303860000000004               27.016693
  5502   5      44.250323000000002               13.338383      4.8007920000000004
  5503   2      43.668663000000002      13.684563000000001                4.119942
  5504   2               44.990876               12.966357      4.3151789999999997
  5505   5               22.694685               12.037644      34.284441999999999
  5506   2               23.375149               11.498414      34.694229999999997
  5507   2      22.240493000000001               11.436344      33.688800000000001
  5508   5     0.87213399999999996      9.9152140000000006      44.474429999999998
  5509   2     0.77593500000000004      9.0011519999999994               44.751852
  5510   2                1.817652      10.027787999999999      44.348083000000003
  5511   5               41.827728      22.853287000000002      28.150220000000001
  5512   2      41.337153999999998      23.086075000000001      27.358467000000001
  5513   2      41.245356000000001      22.254114999999999      28.624010999999999
  5514   5      19.411557999999999      3.7040310000000001               20.261792
  5515   2      18.956033999999999      2.9057019999999998               20.539088
  5516   2      18.887478000000002      4.0349130000000004               19.527967
  5517   5      2.6081599999999998      8.8890290000000007                 10.1683
  5518   2      3.5118360000000002                9.059374                10.44412
  5519   2      2.6934969999999998      8.2605520000000006      9.4469290000000008
  5520   5      21.931508999999998      25.793486999999999      12.215871999999999
  5521   2      21.208034000000001      26.414968999999999      12.106009999999999
  5522   2      22.641756000000001               26.318669                 12.5932
  5523   5               32.424166      26.818131000000001      19.724803000000001
  5524   2      31.468333000000001      26.728964999999999               19.737295
  5525   2      32.574348999999998               27.751998      19.557532999999999
  5526   5      9.7837700000000005      44.076123000000003      21.536325999999999
  5527   2      9.8012320000000006      43.127935999999998               21.386789
  5528   2      9.9167369999999995      44.170706000000003      22.482907000000001
  5529   5      34.408757999999999               14.134547      14.855221999999999
  5530   2      35.263750000000002               13.825766      14.546405999999999
  5531   2      33.813425000000002               13.400988               14.681697
  5532   5      22.076008999999999               13.241873      10.349489999999999
  5533   2      22.010860999999998               12.470634      9.7814490000000003
  5534   2      23.009385000000002      13.297954000000001               10.569279
  5535   5      41.652729999999998               12.456757      25.944648999999998
  5536   2               42.325578                11.79945      26.136869999999998
  5537   2      40.961848000000003      11.965661000000001      25.492819999999998
  5538   5      37.357345000000002      32.720225999999997               12.670881
  5539   2      37.933214999999997      32.907243000000001               11.925815
  5540   2      37.455244999999998      33.483738000000002      13.245430000000001
  5541   5      33.929540000000003      14.265409999999999               27.297673
  5542   2      33.179031000000002               13.784148      26.941514000000002
  5543   2      34.130749999999999      14.923329000000001      26.627375000000001
  5544   5      29.815770000000001     0.58184400000000003      41.621825999999999
  5545   2      30.703711999999999     0.47092499999999998      41.969650000000001
  5546   2      29.848164000000001                0.176313      40.751690000000004
  5547   5               42.609724      30.252299000000001      16.520665999999999
  5548   2      42.437658999999996      30.726406999999998               15.703757
  5549   2               43.551634               30.367673      16.669446000000001
  5550   5      7.9950539999999997      39.217528000000001      4.6663100000000002
  5551   2      8.6540940000000006      38.548293000000001      4.4675250000000002
  5552   2      8.4486129999999999               39.833734      5.2470129999999999
  5553   5      21.818425999999999      38.768099999999997      36.730300999999997
  5554   2      22.655342000000001      38.411152999999999               37.036707
  5555   2      21.555561999999998      39.384112000000002                37.41883
  5556   5      28.081009000000002      33.302503999999999      37.496341000000001
  5557   2      27.317955000000001      32.762459999999997               37.715035
  5558   2      28.737857999999999      33.065350000000002      38.155847999999999
  5559   5      20.397915000000001      34.840721000000002      2.1531419999999999
  5560   2      20.320008000000001      35.750768999999998      1.8573919999999999
  5561   2      19.741506999999999      34.365423999999997      1.6375230000000001
  5562   5      21.638007999999999      22.707968999999999                11.66996
  5563   2      21.718616000000001      23.552690999999999      12.119039000000001
  5564   2      20.804320000000001      22.768142000000001               11.196688
  5565   5      29.585654999999999      37.713768000000002      19.753474000000001
  5566   2      29.643505000000001      37.688192999999998      18.795494000000001
  5567   2      29.878907000000002      38.598264999999998      19.986519000000001
  5568   5               21.355286      4.9074210000000003      23.970400000000001
  5569   2      21.856746999999999      4.0990489999999999      24.100003999999998
  5570   2      20.702902999999999      4.6789649999999998      23.303432000000001
  5571   5      17.742287999999999      25.437353000000002      39.658399000000003
  5572   2      17.394369999999999               26.142647      40.209071000000002
  5573   2      17.012765999999999               24.818102      39.574922000000001
  5574   5      38.674548000000001      18.013666000000001      10.905753000000001
  5575   2      38.448033000000002      17.080846000000001      10.889540999999999
  5576   2      38.053449999999998               18.420472      10.296336999999999
  5577   5      26.392552999999999      33.566225000000003      28.737448000000001
  5578   2      27.330781999999999                33.52675      28.537717000000001
  5579   2               26.333205      33.297778999999998               29.657805
  5580   5      40.790461999999998      41.436376000000003      18.636821999999999
  5581   2      41.166890000000002      42.294825000000003               18.429236
  5582   2      40.712954000000003      40.997900000000001               17.785722
  5583   5               17.272796                 10.3088      28.051117999999999
  5584   2               17.250657      9.3502120000000009      28.099533999999998
  5585   2               16.814888      10.516840999999999               27.232778
  5586   5      16.787451000000001               22.262497      4.4507669999999999
  5587   2               16.026923      22.846893999999999      4.4932369999999997
  5588   2      16.618082999999999      21.601268999999998      5.1265890000000001
  5589   5               14.310468                1.320648      44.706414000000002
  5590   2      14.759207999999999      2.1185339999999999      44.995783000000003
  5591   2               15.021338     0.70564300000000002      44.508740000000003
  5592   5     0.15890799999999999      9.8036259999999995               21.920821
  5593   2     0.34553899999999999      9.9318229999999996      22.853805000000001
  5594   2     0.73460800000000004      10.429588000000001               21.474297
  5595   5      18.218433999999998      13.721450000000001      36.553769000000003
  5596   2               17.875646      14.617634000000001      36.520981999999997
  5597   2      17.443777000000001      13.175435999999999      36.710030000000003
  5598   5               14.658054      9.5014850000000006      1.9775560000000001
  5599   2               13.820898      9.0861839999999994                1.757514
  5600   2      14.742285000000001               10.218551      1.3440240000000001
  5601   5      7.9107089999999998      27.186737999999998      4.8853619999999998
  5602   2      7.2287369999999997      26.637640999999999      5.2792279999999998
  5603   2      8.6838259999999998      26.617827999999999                4.849685
  5604   5      36.452756000000001               10.008842               11.265556
  5605   2      36.642622000000003      10.679297999999999               10.605129
  5606   2      36.276370999999997      9.2145250000000001               10.755075
  5607   5      27.806878000000001      9.3465629999999997      39.370863999999997
  5608   2      27.386248999999999      9.4635359999999995      40.225915999999998
  5609   2      27.091508999999999      9.0806520000000006               38.787613
  5610   5      9.6437430000000006      32.626719999999999      31.625171000000002
  5611   2               10.172001      33.025733000000002      32.320481000000001
  5612   2      9.2329650000000001      31.866351000000002      32.044386000000003
  5613   5               12.634019      27.037831000000001      7.1782300000000001
  5614   2      12.691717000000001      26.733308999999998      6.2695699999999999
  5615   2               11.886201                26.55819      7.5434080000000003
  5616   5      5.9612879999999997                2.142452      20.558374000000001
  5617   2      6.7243870000000001      1.7861720000000001      21.019317999999998
  5618   2      6.2070020000000001      2.1105680000000002      19.630337999999998
  5619   5               18.345336      8.4250769999999999      33.075749999999999
  5620   2               18.696693                7.741555      33.651136999999999
  5621   2               19.087173      8.6713559999999994      32.517479000000002
  5622   5      29.183382000000002      37.367586000000003      9.2158549999999995
  5623   2      29.986584000000001      37.595036999999998      9.6900469999999999
  5624   2      29.443048999999998      36.643498999999998      8.6406050000000008
  5625   5      40.124751000000003      43.027594000000001               16.204946
  5626   2      39.990020000000001      43.870089999999998      16.645143000000001
  5627   2      40.527659999999997      43.259503000000002      15.364395999999999
  5628   5               14.703619      37.482608999999997      9.8081510000000005
  5629   2      15.039142999999999      36.591920000000002      9.9339379999999995
  5630   2      13.956094999999999      37.374217999999999      9.2147699999999997
  5631   5      36.361139000000001               19.984164                21.60389
  5632   2      35.662514000000002      20.457526999999999               22.061684
  5633   2      36.379049999999999      19.120609000000002      22.024121999999998
  5634   5      38.078473000000002      17.528093999999999               38.175815
  5635   2      39.011961999999997      17.548756999999998      37.952441999999998
  5636   2      37.956831000000001      18.279440999999998      38.761752999999999
  5637   5      6.5415669999999997      44.158676999999997      11.076530999999999
  5638   2      7.4407249999999996      44.379646999999999      10.822737999999999
  5639   2      6.3373559999999998               44.770854               11.787993
  5640   5      6.1255750000000004      7.4484250000000003      38.706052999999997
  5641   2      6.7115640000000001      7.2572140000000003                39.44211
  5642   2      6.3110520000000001      6.7553799999999997      38.067360000000001
  5643   5      2.1011380000000002      22.076385999999999      9.7455320000000007
  5644   2      1.1492290000000001      22.130175999999999      9.8582380000000001
  5645   2                2.327563      22.867146999999999      9.2494770000000006
  5646   5      43.289799000000002      40.818036999999997      8.2334139999999998
  5647   2      43.800378000000002      40.833576000000001      9.0463059999999995
  5648   2      43.010841999999997               39.903202      8.1445179999999997
  5649   5      5.9653320000000001      11.757184000000001      6.7056570000000004
  5650   2      5.2471639999999997      12.370238000000001      6.5320900000000002
  5651   2      5.6094600000000003                11.15268      7.3618370000000004
  5652   5      29.578686999999999      33.709251000000002      6.3547060000000002
  5653   2               30.062362      33.488939000000002      5.5551769999999996
  5654   2      28.693529000000002      33.920546999999999      6.0473109999999997
  5655   5               11.983494      40.344154000000003               10.035542
  5656   2               12.648239      39.677565999999999               10.223955
  5657   2      12.467917999999999      41.173533999999997               10.045766
  5658   5               35.562407               31.946313      39.025584000000002
  5659   2      35.967345999999999      31.095382000000001      39.209063999999998
  5660   2      35.306044999999997      32.279546000000003      39.889225000000003
  5661   5      28.151810000000001      44.227386000000003                2.289256
  5662   2      27.357220000000002      44.478236000000003      2.7661479999999998
  5663   2      28.366095999999999      44.999791999999999                    1.76
  5664   5      40.141879000000003      28.915548999999999      17.065238000000001
  5665   2      40.358783000000003      28.029185999999999      17.363631000000002
  5666   2      39.234172000000001      28.848355000000002      16.758324000000002
  5667   5               19.927909      14.961133999999999      9.5812799999999996
  5668   2      19.858461999999999               15.514666      10.362628000000001
  5669   2      19.194824000000001               15.239018                9.026294
  5670   5      33.905889999999999     0.34364400000000001      22.910903999999999
  5671   2      33.081707999999999     0.50004199999999999      22.444012000000001
  5672   2      33.634596000000002                0.115287               23.803594
  5673   5                3.185298      6.9739190000000004      31.696186999999998
  5674   2                2.226947      6.9696389999999999                31.75337
  5675   2                3.470926      6.4372780000000001               32.439878
  5676   5      18.754107999999999      43.175891999999997               22.638064
  5677   2      18.263687000000001               43.964157      22.393419999999999
  5678   2               18.100448      42.607756000000002               23.053507
  5679   5      3.0323560000000001      29.536650000000002      15.587554000000001
  5680   2      3.9197470000000001      29.640709000000001               15.236221
  5681   2      2.6661440000000001               28.797625                15.09524
  5682   5      40.416815999999997      29.918738000000001      31.261631000000001
  5683   2      40.716147999999997               30.712691               31.710811
  5684   2      39.508664000000003      29.807379999999998      31.554037999999998
  5685   5      23.785858000000001                39.94455               28.476785
  5686   2      24.492343000000002      40.500115999999998      28.814350000000001
  5687   2               24.202434      39.091425000000001      28.330898000000001
  5688   5               31.792856      8.4474499999999999               30.716289
  5689   2      31.738119000000001      7.8870480000000001      31.493901000000001
  5690   2      32.322946000000002                7.941935      30.094919000000001
  5691   5      6.0858739999999996      4.1197920000000003               22.229761
  5692   2      6.0716999999999999      5.0144330000000004      22.577815000000001
  5693   2      6.8079460000000003      4.1218009999999996      21.596319000000001
  5694   5      30.765844999999999               13.075236      40.570768000000001
  5695   2      30.391611999999999               12.373861      40.032485999999999
  5696   2      31.208856000000001      12.614800000000001      41.287972000000003
  5697   5      43.738753000000003      35.367018999999999      7.3097099999999999
  5698   2      44.086668000000003      36.218882000000001      7.5835900000000001
  5699   2      42.785350000000001      35.469759000000003      7.3654799999999998
  5700   5      19.672972000000001      12.240750999999999      29.959026999999999
  5701   2      19.727333000000002               12.582881      30.854413999999998
  5702   2      19.233139999999999      11.392158999999999               30.054326
  5703   5      5.2683739999999997      31.594491999999999      31.485327000000002
  5704   2      4.3832370000000003      31.412493000000001               31.161082
  5705   2      5.2106979999999998      31.445347000000002      32.432465000000001
  5706   5               32.091175      29.101133999999998      44.727960000000003
  5707   2      31.865808999999999      28.336628000000001      44.192737000000001
  5708   2      31.596209000000002      29.823208000000001      44.332662999999997
  5709   5      33.179979000000003      37.325629999999997               27.703028
  5710   2      33.951307999999997               37.597085      28.206105999999998
  5711   2               32.517395      37.128897000000002      28.370052000000001
  5712   5      5.6329060000000002      38.579445999999997      35.480119999999999
  5713   2      4.8583350000000003      38.012847999999998      35.453085999999999
  5714   2      6.2913589999999999      38.060920000000003      35.949388999999996
  5715   5      6.0657300000000003      7.9758319999999996      24.435808999999999
  5716   2      5.9280660000000003      8.8204809999999991      24.870940999999998
  5717   2      5.2669220000000001      7.4771150000000004               24.625093
  5718   5      23.134748999999999      43.163631000000002      32.982590999999999
  5719   2               22.381484      43.287058999999999      33.564897999999999
  5720   2      22.960571999999999      42.328484000000003                32.54119
  5721   5      1.9703269999999999      34.580314999999999      1.1174539999999999
  5722   2      1.2423109999999999      34.996453000000002     0.64996399999999999
  5723   2      1.5572699999999999      33.876046000000002      1.6234489999999999
  5724   5      33.652906999999999      18.573696000000002      10.292146000000001
  5725   2      34.474893000000002      18.272507999999998      10.686291000000001
  5726   2      32.980569000000003               18.009518               10.682409
  5727   5               22.391914      14.646133000000001               30.472617
  5728   2      21.900448999999998      13.821502000000001      30.459537999999998
  5729   2               23.089081               14.498011      31.116558000000001
  5730   5      4.1183230000000002      32.170915000000001      16.351320999999999
  5731   2      3.7176900000000002      32.104264999999998      15.481393000000001
  5732   2                3.818867               33.019472      16.687353999999999
  5733   5      43.819343000000003      35.451822999999997               13.563267
  5734   2      43.457920999999999      34.633170999999997      13.215548999999999
  5735   2      44.291369000000003      35.186121999999997      14.356510999999999
  5736   5               34.224024      9.2207419999999995      39.832678000000001
  5737   2      34.581462000000002      9.4132850000000001      40.702672999999997
  5738   2      33.639845000000001      9.9600080000000002      39.645963000000002
  5739   5      31.756520999999999      18.938939999999999      40.471443999999998
  5740   2      32.103374000000002      19.820029000000002      40.629876000000003
  5741   2      31.124403000000001      18.800342000000001      41.181274000000002
  5742   5      22.740220999999998      22.105578000000001      31.498155000000001
  5743   2      23.361463000000001      22.784493999999999      31.224554999999999
  5744   2      22.162057000000001      22.549537999999998      32.123668000000002
  5745   5               13.788777      39.554609999999997      12.566706999999999
  5746   2      12.854210999999999      39.686700999999999               12.391024
  5747   2               13.812507      38.834679999999999               13.202143
  5748   5      5.4001330000000003      40.172099000000003      42.509734999999999
  5749   2                4.938898      41.012238000000004      42.565886999999996
  5750   2      6.1231799999999996      40.337378000000001      41.899383999999998
  5751   5               13.421607      30.078005999999998      41.256174000000001
  5752   2               13.157731      30.955386000000001               41.543053
  5753   2      14.353357000000001      30.023150000000001      41.483054000000003
  5754   5               26.362779      9.1221820000000005               31.460756
  5755   2      26.565083000000001      8.2191399999999994      31.716318999999999
  5756   2      25.720417999999999      9.0313009999999991      30.752410000000001
  5757   5               15.771877      5.6559080000000002      26.664681000000002
  5758   2      16.468288000000001      5.7579390000000004      26.011742999999999
  5759   2      16.177077000000001      5.9321339999999996      27.490607000000001
  5760   5      29.193270999999999      7.2415770000000004               16.959208
  5761   2      28.653438000000001      7.4111979999999997               16.183622
  5762   2               28.611165      6.7630460000000001               17.554862
  5763   5      2.8256939999999999      5.4227600000000002      27.116831000000001
  5764   2                3.097404      4.5596779999999999      26.795912000000001
  5765   2      3.3990879999999999      5.5886740000000001      27.869382999999999
  5766   5      7.9926529999999998      26.928498999999999      17.224640000000001
  5767   2      8.6057939999999995                26.55997      16.584351999999999
  5768   2      8.5558840000000007               27.286078      17.915690000000001
  5769   5               35.434075               16.202171      3.0735999999999999
  5770   2      35.196339000000002               15.596657      2.3675109999999999
  5771   2      34.641506999999997      16.725957000000001      3.2154669999999999
  5772   5      33.096358000000002      34.072274999999998                38.65663
  5773   2      33.943925999999998      33.676482999999998      38.872739000000003
  5774   2      32.877588000000003      33.711077000000003      37.793891000000002
  5775   5      10.015470000000001               41.732529      27.823025000000001
  5776   2                10.65165      41.199190999999999               28.305259
  5777   2      9.2242449999999998      41.188864000000002      27.790873000000001
  5778   5      6.1603019999999997               13.644567      16.862456000000002
  5779   2      5.7183830000000002               12.809092      17.031023999999999
  5780   2      5.6081329999999996      14.078383000000001      16.207052000000001
  5781   5      10.294696999999999               21.649003      5.9128170000000004
  5782   2               10.307769      22.521024000000001      6.3142310000000004
  5783   2      9.3940760000000001      21.546271000000001      5.5950600000000001
  5784   5      33.966850999999998      10.896297000000001               11.997741
  5785   2      34.275109999999998                10.13184      11.505494000000001
  5786   2      34.633600000000001                11.02745      12.676627999999999
  5787   5      41.922750999999998      9.7012900000000002      8.3195420000000002
  5788   2      41.167357000000003               10.232797      8.0576170000000005
  5789   2      41.577556000000001      9.1135140000000003      8.9962999999999997
  5790   5      5.7194560000000001      23.226773999999999      23.609096000000001
  5791   2      5.6227790000000004      22.274775000000002      23.531144000000001
  5792   2                5.170121               23.580658      22.905080999999999
  5793   5      37.828105999999998      22.215430000000001      3.9876960000000001
  5794   2      37.645029000000001      23.123070999999999      4.2414579999999997
  5795   2               38.469794      22.291364999999999      3.2769840000000001
  5796   5      4.7662000000000004      38.967348000000001      40.221263999999998
  5797   2                4.384728      38.162004000000003      39.864015999999999
  5798   2      4.0920420000000002      39.635764999999999      40.075079000000002
  5799   5      40.624704999999999      40.323293999999997      35.513669999999998
  5800   2      40.096378000000001      39.546788999999997      35.712757000000003
  5801   2      41.413589999999999      40.219282999999997               36.051707
  5802   5      43.988230999999999      23.522093999999999      8.5971379999999993
  5803   2      44.178392000000002      22.709326999999998                9.071453
  5804   2      44.496653000000002      24.192824999999999      9.0600310000000004
  5805   5                44.03434      20.162386000000001      19.444379000000001
  5806   2               44.519931      19.359463999999999               19.647461
  5807   2      44.574098999999997      20.607437000000001               18.786175
  5808   5      35.192112999999999      11.644486000000001      9.1750679999999996
  5809   2      34.625093999999997               12.409704      9.2961310000000008
  5810   2      35.086528999999999                11.41367      8.2486669999999993
  5811   5      8.6982370000000007      10.236216000000001      37.350582000000003
  5812   2                9.210089               10.176556      38.160626999999998
  5813   2      8.2283059999999999                11.07052      37.426380999999999
  5814   5      2.1129630000000001      6.3185120000000001      6.3135640000000004
  5815   2      1.2655099999999999      6.2331750000000001      6.7565840000000001
  5816   2      2.4993880000000002      7.1136249999999999      6.6892149999999999
  5817   5      3.4480680000000001               10.726499      8.5644790000000004
  5818   2      4.2804700000000002               10.531276      9.0011949999999992
  5819   2      3.3378770000000002      11.674384999999999      8.6740790000000008
  5820   5               42.209063      44.371389000000001      11.624618999999999
  5821   2               43.083371      44.602853000000003               11.302541
  5822   2      42.343237999999999      44.168672000000001      12.553890000000001
  5823   5      36.933535999999997               12.625204      7.6811579999999999
  5824   2      37.127481000000003               13.551696      7.8415439999999998
  5825   2      36.997683000000002                12.52979      6.7275210000000003
  5826   5      4.1544119999999998      3.7849210000000002      39.698892999999998
  5827   2      3.7380369999999998                2.955212      39.943719999999999
  5828   2      3.5830479999999998      4.1461800000000002      39.016488000000003
  5829   5      4.9643620000000004               29.020083      35.367570000000001
  5830   2      5.3166120000000001      28.427797000000002      34.699108000000003
  5831   2      4.7623600000000001      28.446912000000001      36.111418999999998
  5832   5                20.55978      5.5893839999999999      44.043709999999997
  5833   2      20.337534999999999      6.3835610000000003      43.552166999999997
  5834   2               19.888517      5.5373210000000004      44.728791000000001
  5835   5      11.375310000000001      29.107016000000002      9.0017479999999992
  5836   2               12.088884      28.552485999999998      8.6776590000000002
  5837   2      11.371715999999999      28.960394000000001      9.9510269999999998
  5838   5                15.37321      39.377550999999997      17.306357999999999
  5839   2               15.983699      38.887424000000003      16.750655999999999
  5840   2               14.655687               38.761246      17.473600000000001
  5841   5      43.935296999999998               39.525084      34.467083000000002
  5842   2      43.129148999999998      39.004958999999999      34.430759000000002
  5843   2      44.007559999999998      39.788882999999998      35.387860000000003
  5844   5      1.4197310000000001      20.993452000000001               12.292121
  5845   2      1.5922460000000001               20.429447      11.534584000000001
  5846   2      2.0616829999999999      21.703451999999999               12.211876
  5847   5      4.2136120000000004      13.765349000000001      35.244674000000003
  5848   2      4.4535429999999998      13.030101999999999      35.813505999999997
  5849   2      4.1931719999999997                14.52477      35.832470000000001
  5850   5      41.783014000000001                5.390288               30.813848
  5851   2      41.894654000000003      6.2748489999999997      31.169955000000002
  5852   2      41.166845000000002      4.9665710000000001      31.416709999999998
  5853   5      38.829027000000004               11.513887      9.5387550000000001
  5854   2      38.692616999999998      12.433731999999999      9.7775079999999992
  5855   2      38.054937000000002               11.285413      9.0179620000000007
  5856   5      26.962122999999998                4.855791      39.808824999999999
  5857   2      26.085726000000001      5.1177440000000001      40.100431999999998
  5858   2      27.020022000000001      3.9240200000000001      40.034860000000002
  5859   5      41.696604000000001      7.7157309999999999               17.673271
  5860   2               40.840491                7.902596               17.281001
  5861   2      41.508144000000001      7.0734079999999997      18.362144000000001
  5862   5               24.328623                3.877904      5.5142720000000001
  5863   2      24.492367999999999      4.8230779999999998                5.474774
  5864   2               24.797815      3.5872850000000001      6.3004280000000001
  5865   5      7.2999369999999999               32.883969               17.629541
  5866   2      8.0884429999999998      32.572127000000002      18.079802999999998
  5867   2      7.0628909999999996      33.690254000000003               18.094683
  5868   5      42.619771999999998      26.031676000000001      6.5846879999999999
  5869   2      43.032080000000001      25.173121999999999      6.4638039999999997
  5870   2      43.335239999999999      26.600248000000001      6.8804470000000002
  5871   5      35.961804000000001      25.219024000000001               12.459546
  5872   2      35.498046000000002               26.057572               12.400461
  5873   2      36.742932000000003      25.339583000000001               11.913701
  5874   5      4.6565630000000002      21.538886000000002               13.159509
  5875   2                3.815169               21.568538               13.620922
  5876   2      4.4858469999999997      21.980433999999999      12.323726000000001
  5877   5               17.388603      29.746500000000001      5.1793709999999997
  5878   2               16.547884      29.905708000000001      4.7439739999999997
  5879   2      17.150145999999999      29.344885999999999      6.0187080000000002
  5880   5      34.872950000000003      22.999009000000001      32.469205000000002
  5881   2      34.505937000000003      23.219187999999999               31.609817
  5882   2      34.410938999999999               22.197471      32.727518000000003
  5883   5               27.471878      35.382145000000001      43.346615999999997
  5884   2      26.617525000000001      34.946921000000003               43.297767
  5885   2      27.953299000000001      35.048509000000003      42.585324999999997
  5886   5                3.635284      44.825142999999997      10.906670999999999
  5887   2      2.9287359999999998      44.453705999999997      10.373239999999999
  5888   2      4.4396240000000002      44.481450000000002      10.509740000000001
  5889   5      24.036414000000001      33.344768999999999      11.632967000000001
  5890   2      23.749355000000001      32.587684000000003      12.148858000000001
  5891   2      23.484646999999999      33.320815000000003               10.847078
  5892   5      43.792062999999999      32.832278000000002                 6.36829
  5893   2      43.833269000000001      33.071178000000003      7.2972429999999999
  5894   2      43.774050000000003      33.674156000000004      5.9061659999999998
  5895   5      34.122478999999998      7.1271659999999999      6.8757469999999996
  5896   2      33.821925999999998      6.2856889999999996      6.5245930000000003
  5897   2      35.067205000000001      7.0087840000000003                7.002713
  5898   5      6.4086650000000001               14.457542      21.480035999999998
  5899   2      5.5320299999999998               14.722992      21.767738999999999
  5900   2      6.9557460000000004      14.552396999999999      22.263839000000001
  5901   5      26.934100000000001                9.204034      15.058310000000001
  5902   2      27.460522999999998                9.246124               15.860078
  5903   2      27.257830999999999      8.4237110000000008      14.601214000000001
  5904   5      11.770587000000001      7.8443350000000001      30.316839999999999
  5905   2               11.885289      6.9883160000000002      29.897556000000002
  5906   2      11.361020999999999      8.3885939999999994      29.639579999999999
  5907   5      35.818370000000002      36.966335000000001      22.644379000000001
  5908   2      34.970213999999999      37.213864000000001      23.019992999999999
  5909   2      36.294755000000002      37.796497000000002               22.563578
  5910   5      6.8252499999999996      38.998632999999998      24.253537999999999
  5911   2      6.2071259999999997      38.380685999999997      23.856311000000002
  5912   2      7.5235719999999997               39.090384      23.600415000000002
  5913   5                 1.12262      41.213166000000001               35.245835
  5914   2                0.392401      41.739286999999997      34.911613000000003
  5915   2      1.0247729999999999               40.363968      34.807735999999998
  5916   5      1.7747329999999999      34.593632999999997      29.835564999999999
  5917   2                1.874463               33.646417      29.714901000000001
  5918   2                2.582678               34.863844      30.279247000000002
  5919   5      13.815333000000001               25.206702      41.976852999999998
  5920   2               13.854479      25.405930999999999      42.915202999999998
  5921   2               14.250748               25.952534      41.556386000000003
  5922   5      5.7219410000000002      37.588208000000002      42.462949999999999
  5923   2      6.3642349999999999      37.642893999999998               43.174422
  5924   2      6.0917380000000003      38.135210000000001      41.765324999999997
  5925   5      8.2362280000000005               18.339993               11.230124
  5926   2      7.7129450000000004      18.769210000000001               11.911059
  5927   2      9.0726270000000007               18.144368               11.660019
  5928   5      43.958222999999997               21.751469      31.986239999999999
  5929   2      43.569662000000001      22.452832999999998               31.458192
  5930   2      43.293999999999997      21.559011999999999      32.652881000000001
  5931   5      23.311731999999999      38.615837999999997      39.839621000000001
  5932   2               22.777936               38.551378      40.635002999999998
  5933   2      22.778117999999999      39.138964999999999      39.236100999999998
  5934   5      20.727377000000001               33.461337               30.184358
  5935   2      21.422104000000001      32.883225000000003               30.508187
  5936   2      20.105094000000001      32.868920000000003      29.754884000000001
  5937   5      30.644836999999999      41.446620000000003      37.498337999999997
  5938   2      31.572005000000001      41.456172000000002      37.249355999999999
  5939   2               30.583164      42.085908000000003      38.212584999999997
  5940   5               42.092706               33.027507      14.811579999999999
  5941   2               41.321168      32.524309000000002               15.082219
  5942   2      41.748454000000002               33.678618      14.194986999999999
  5943   5      4.6187290000000001               29.244854      28.618027000000001
  5944   2      5.5647950000000002      29.323633000000001               28.761129
  5945   2      4.5198070000000001               29.262356      27.662752000000001
  5946   5      39.843767999999997      17.887135000000001      32.921742000000002
  5947   2      40.052745000000002      16.983972000000001               32.672041
  5948   2      40.244985999999997               17.993948      33.787916000000003
  5949   5      36.993096999999999      2.3117589999999999      28.751556000000001
  5950   2      36.126342000000001                1.988726      28.494437000000001
  5951   2      37.268692999999999      1.7200340000000001      29.456219000000001
  5952   5                10.74549      41.186112999999999      12.682244000000001
  5953   2               11.132726      40.666358000000002      13.390499999999999
  5954   2               10.135543      40.583016999999998               12.249946
  5955   5      4.0397489999999996      33.298233000000003      29.787431999999999
  5956   2      4.9402929999999996      33.611286999999997      29.900313000000001
  5957   2      4.1300270000000001               32.493744      29.270430999999999
  5958   5      8.6511689999999994      27.199877999999998      42.302709999999998
  5959   2      9.0078619999999994               26.627319               41.619577
  5960   2                8.518497               26.618541      43.055762000000001
  5961   5      33.478149999999999      32.135483999999998               31.031015
  5962   2      33.927019000000001      32.186245999999997               30.183864
  5963   2      34.187564999999999      32.038502999999999      31.671303000000002
  5964   5      13.096144000000001      6.7927980000000003      38.344839999999998
  5965   2      12.790252000000001                 5.96807      37.960160999999999
  5966   2      12.575727000000001                7.469068               37.903855
  5967   5      21.256049000000001      3.5981839999999998      18.029381000000001
  5968   2      20.835495999999999      4.2663070000000003      18.575707000000001
  5969   2      22.194928999999998      3.7061139999999999      18.201128000000001
  5970   5               40.638976               31.648539      11.159103999999999
  5971   2               39.727269      31.936018000000001                11.07039
  5972   2      40.762017999999998      31.021246999999999               10.442161
  5973   5      5.3429609999999998      29.025037000000001      10.900880000000001
  5974   2      4.6858000000000004               28.338072               10.766926
  5975   2      5.9376749999999996      28.660568999999999               11.561273
  5976   5      16.583438000000001      20.045469000000001                0.248192
  5977   2               17.322661      20.049928999999999     0.86077099999999995
  5978   2      16.278649999999999      19.134564999999998                0.248943
  5979   5               19.149507      34.991725000000002      30.267292000000001
  5980   2      19.717873999999998      35.749873000000001                30.11271
  5981   2               18.622235                35.24071      31.030595000000002
  5982   5      42.597149000000002      15.242642999999999      32.790669999999999
  5983   2      42.528072000000002      14.432563999999999      32.280056000000002
  5984   2      42.364040000000003               15.936881      32.169111000000001
  5985   5      43.068269999999998      8.8862269999999999      26.378409999999999
  5986   2      43.170256999999999      9.7874870000000005      26.693138000000001
  5987   2      43.733969000000002      8.7966879999999996      25.691773999999999
  5988   5               16.374416                10.58135      30.825133999999998
  5989   2               15.967563      10.042897999999999               30.142298
  5990   2      17.281058999999999      10.267022000000001               30.868026
  5991   5      30.819652000000001      4.7630980000000003      1.0320039999999999
  5992   2      31.555309000000001                4.372547      1.5095019999999999
  5993   2      30.404098999999999      4.0209060000000001     0.58578699999999995
  5994   5      32.172935000000003      8.5980659999999993      5.4034250000000004
  5995   2               31.611072      8.8288740000000008      6.1469050000000003
  5996   2               32.407218      7.6794099999999998      5.5577800000000002
  5997   5                5.847003      18.535451999999999      19.428246999999999
  5998   2      5.8343860000000003               19.300576               20.008032
  5999   2      5.7950809999999997      17.783875999999999      20.024132000000002
  6000   5               36.432848               14.351167      30.826786999999999
  6001   2      37.003022999999999      13.730676000000001               31.286804
  6002   2      35.745069000000001               13.802412      30.441469000000001
  6003   5      8.1141020000000008               16.701971               24.494512
  6004   2      7.9112039999999997      17.515277000000001      24.026440000000001
  6005   2      7.5060719999999996      16.056425000000001      24.125443000000001
  6006   5      26.186858000000001      7.1903620000000004      40.826923000000001
  6007   2               25.959861      7.6517010000000001               40.016143
  6008   2      26.443767000000001                7.888503               41.434573
  6009   5      39.578446999999997      34.152473999999998               11.159706
  6010   2      39.888300999999998      34.113419999999998               12.067556
  6011   2      40.192931999999999      34.748071000000003      10.723456000000001
  6012   5      38.879725999999998      36.659798000000002               23.555221
  6013   2      38.610396999999999      35.754984999999998               23.380578
  6014   2      39.814374999999998      36.593764999999998               23.766672
  6015   5      38.337173999999997      44.318100000000001      11.602517000000001
  6016   2      39.014324000000002      44.998586000000003      11.591055000000001
  6017   2      38.777845999999997      43.549446000000003      11.973489000000001
  6018   5               23.651923               21.346746      8.5027910000000002
  6019   2      22.825503000000001      21.734535000000001      8.2055120000000006
  6020   2      23.433375000000002      20.934245000000001      9.3422680000000007
  6021   5               40.508395      41.733977000000003      29.267337999999999
  6022   2      39.783887999999997      42.310550999999997      29.521066000000001
  6023   2      40.760320999999998      42.038746000000003      28.391957000000001
  6024   5      39.279567999999998      18.553353000000001                6.276643
  6025   2      38.720576000000001      19.157941000000001      6.7703300000000004
  6026   2      38.830905999999999      18.448087000000001                5.433872
  6027   5      3.6272530000000001      37.052570000000003      19.215015000000001
  6028   2      3.2846829999999998      36.880598999999997      18.334789000000001
  6029   2      3.9379770000000001      36.196845000000003      19.521325999999998
  6030   5      6.9649590000000003      42.693950000000001      34.076695000000001
  6031   2      6.1548449999999999      42.725270000000002               33.562438
  6032   2      6.7257230000000003      42.206446999999997      34.869000999999997
  6033   5      18.272849999999998      1.6348720000000001      25.903079000000002
  6034   2               17.797929                1.023757      25.335000000000001
  6035   2      18.921382000000001      1.0873630000000001      26.352837000000001
  6036   5      34.199696000000003      7.0160439999999999               17.597769
  6037   2      34.087595999999998      6.3071960000000002      16.960042999999999
  6038   2      33.305276999999997      7.3121270000000003      17.784832999999999
  6039   5      42.543219999999998      3.3786100000000001               22.630457
  6040   2      42.322557000000003      3.8207450000000001      23.453590999999999
  6041   2      42.524304999999998      2.4435750000000001      22.849533999999998
  6042   5      15.695842000000001               18.202624      27.724882999999998
  6043   2      16.049783999999999      18.059432999999999      28.605761000000001
  6044   2      16.284569999999999               18.853348               27.334242
  6045   5      38.886394000000003                 10.5486      23.551694999999999
  6046   2      39.699199999999998      10.787580999999999               23.100078
  6047   2      38.746588000000003      9.6271319999999996      23.319331999999999
  6048   5                4.916919               35.321849      35.080184000000003
  6049   2      4.9010449999999999      35.446738000000003      36.031959000000001
  6050   2      4.0090130000000004      35.105789000000001      34.852884000000003
  6051   5      19.412704999999999      17.283390000000001      42.625114000000004
  6052   2               18.522247      17.591830999999999      42.808619999999998
  6053   2      19.670615999999999      17.758275000000001      41.831004999999998
  6054   5      32.962798999999997               13.165065      31.151834999999998
  6055   2      32.184691999999998               13.679529      30.924675000000001
  6056   2      32.646661000000002      12.258843000000001      31.190045000000001
  6057   5      31.333030000000001               28.007887      38.703611000000002
  6058   2      31.561489000000002      28.621075999999999      38.001094000000002
  6059   2      32.156902000000002      27.556108999999999      38.903044000000001
  6060   5      11.509486000000001      2.8005610000000001      7.5216580000000004
  6061   2      12.363657999999999      2.8702040000000002      7.0889179999999996
  6062   2               11.325682      1.8578790000000001      7.5361190000000002
  6063   5      2.5892629999999999      29.542739000000001     0.38986799999999999
  6064   2      2.2487659999999998      28.651250000000001     0.49491200000000002
  6065   2      1.8602050000000001      30.032081999999999  0.00043300000000000001
  6066   5     0.56570500000000001                7.687729               27.158445
  6067   2                1.500308      7.8902650000000003      27.073467999999998
  6068   2     0.32690900000000001      8.0234959999999997      28.026130999999999
  6069   5      3.5867779999999998               19.232198      23.428353999999999
  6070   2                3.933967      18.444945000000001      23.002421999999999
  6071   2                 2.89527      18.904032000000001      24.008669000000001
  6072   5      3.9353739999999999               13.930474                3.536095
  6073   2      4.8237880000000004               13.778831                3.866927
  6074   2                3.701282               14.799687      3.8712260000000001
  6075   5               30.525682      42.274287000000001      6.9844189999999999
  6076   2      30.723013000000002      41.403632999999999      6.6312220000000002
  6077   2      31.265436000000001      42.469228000000001      7.5652840000000001
  6078   5      42.286275000000003      3.2396759999999998      35.718000000000004
  6079   2      42.820766999999996      4.0187460000000002      35.888567999999999
  6080   2      42.744880000000002      2.7872029999999999      35.005546000000002
  6081   5               16.748687      26.926611000000001      37.692042999999998
  6082   2               16.125788      27.432217000000001      37.164706000000002
  6083   2               16.197011               26.338023      38.213444000000003
  6084   5      33.645156999999998      19.591049999999999      6.1376759999999999
  6085   2      33.406222999999997               18.864863      5.5569110000000004
  6086   2      34.586561000000003      19.713519999999999      5.9913850000000002
  6087   5      1.4087810000000001               21.890003      35.989573999999998
  6088   2      1.5162389999999999      21.635300999999998      36.908979000000002
  6089   2      2.0761129999999999      22.566645000000001      35.850053000000003
  6090   5               13.896582      6.1803020000000002      43.020772000000001
  6091   2               13.956692      6.0403209999999996      42.072870999999999
  6092   2      13.002003999999999      5.9119359999999999               43.245165
  6093   5      4.9367219999999996      27.536353999999999      26.307587999999999
  6094   2      4.2361940000000002      27.225079000000001               26.885596
  6095   2      4.4745210000000002      27.949204000000002      25.573716000000001
  6096   5      27.551618000000001      33.853816999999999      14.790997000000001
  6097   2      26.768861000000001      33.298825999999998               14.822638
  6098   2                28.14498      33.466366000000001               15.439415
  6099   5               17.821856      40.333114999999999      9.2579960000000003
  6100   2      16.994983999999999                39.96387      8.9391459999999991
  6101   2               18.245165               39.605553      9.7207100000000004
  6102   5      33.358018000000001      5.2123889999999999      38.851680999999999
  6103   2      32.509025000000001      4.7735609999999999      38.943142000000002
  6104   2      33.960577000000001      4.5129729999999997      38.586387000000002
  6105   5      15.574749000000001      18.917757999999999      34.633988000000002
  6106   2      15.256284000000001      19.822465000000001      34.676532999999999
  6107   2      15.409781000000001               18.565369      35.512196000000003
  6108   5      31.886700000000001                5.052778      43.092300999999999
  6109   2      31.228142999999999      5.1772289999999996      43.779716999999998
  6110   2      31.800954999999998      4.1287330000000004      42.844447000000002
  6111   5      17.523509000000001               19.039921      2.8026209999999998
  6112   2      18.052102999999999               19.831073      2.9306540000000001
  6113   2      17.007156999999999               18.965062      3.6091060000000001
  6114   5               31.744747      36.435102999999998               20.090854
  6115   2               31.961544      36.136566000000002      20.977194999999998
  6116   2      31.812816000000002      37.392057000000001      20.138262999999998
  6117   5      38.699497000000001      37.655779000000003      3.3231259999999998
  6118   2      38.901530000000001      38.520498000000003      3.6880510000000002
  6119   2               39.154885      37.641522999999999      2.4775140000000002
  6120   5      32.962975999999998      33.657715000000003      14.824058000000001
  6121   2      33.762188999999999      33.480201000000001               14.322588
  6122   2      33.230578999999999      34.310436000000003               15.475968
  6123   5      6.1484829999999997      29.420113000000001      31.739342000000001
  6124   2      5.5981719999999999      29.484798000000001      30.955314000000001
  6125   2      5.8605010000000002      28.609438000000001      32.166558999999999
  6126   5      17.319372999999999               13.521423      30.010459999999998
  6127   2      17.587278999999999      12.754697999999999      29.498518000000001
  6128   2      16.373502999999999      13.407635000000001      30.133030000000002
  6129   5      5.7040499999999996      31.295069000000002      4.6141209999999999
  6130   2      6.2024520000000001      32.111172000000003      4.5286989999999996
  6131   2      4.8422419999999997      31.574314999999999      4.9334189999999998
  6132   5               19.400872      41.425733000000001      15.160088999999999
  6133   2      20.275593000000001      41.422775000000001                15.55579
  6134   2      19.327881999999999      40.566715000000002      14.736529000000001
  6135   5               21.278689      25.268944000000001      31.552071000000002
  6136   2      20.392811999999999      25.000191999999998      31.806470000000001
  6137   2               21.141444                25.90015      30.841166999999999
  6138   5      16.917899999999999      41.239320999999997      35.089440000000003
  6139   2               17.607256      41.905391000000002      35.035926000000003
  6140   2      16.438141000000002      41.456716999999998      35.892690999999999
  6141   5      29.871168000000001      27.849398999999998      36.835552999999997
  6142   2               29.082521                28.10735      36.352621999999997
  6143   2      29.593958000000001      27.092507000000001      37.357964000000003
  6144   5               25.770225      21.978211000000002               32.444015
  6145   2      26.010325000000002      22.610130999999999      31.762287000000001
  6146   2      24.890481000000001      22.247734999999999      32.719785000000002
  6147   5      25.630444000000001      19.625313999999999      16.181222999999999
  6148   2               25.772472      18.714701000000002      16.450178999999999
  6149   2               24.981952      19.566970999999999      15.475039000000001
  6150   5      34.920763999999998      29.532098000000001      34.622717000000002
  6151   2      34.434705999999998      30.229914000000001      34.177152999999997
  6152   2      35.709369000000002               29.966818      34.957025999999999
  6153   5      40.447071000000001      36.479590999999999      44.106194000000002
  6154   2      41.213304999999998      37.014513000000001               43.886035
  6155   2      40.813164999999998      35.621721000000001      44.335706000000002
  6156   5               17.489321      20.316645000000001               42.703246
  6157   2      17.220991000000001      19.826205000000002      41.922738000000003
  6158   2               17.960238      19.673259999999999               43.238909
  6159   5               21.572436      34.747428999999997      18.079035999999999
  6160   2      22.416889000000001      35.031343999999997      18.436828999999999
  6161   2               21.465767      33.849634999999999      18.403428999999999
  6162   5               11.956759      23.944192999999999      35.665573999999999
  6163   2               12.080852      24.632007000000002      36.323780999999997
  6164   2                11.88021      24.420211999999999      34.834797999999999
  6165   5                3.381227               14.984036      22.809619000000001
  6166   2      3.9375249999999999               14.323421               23.228959
  6167   2                2.604924               14.495645      22.524190999999998
  6168   5      25.191852000000001               20.397969      30.566693999999998
  6169   2               25.459923      19.491209999999999      30.400407999999999
  6170   2      24.291999000000001                20.44539               30.234043
  6171   5      40.843316000000002     0.80038200000000004      40.003498999999998
  6172   2      41.755395999999998     0.54125900000000005      40.154138000000003
  6173   2               40.674636      1.4751639999999999      40.665962999999998
  6174   5               30.810838               43.024034      24.946639999999999
  6175   2                30.24832      43.609414999999998               24.434168
  6176   2      31.442589000000002      42.681913000000002      24.309076999999998
  6177   5      5.9557320000000002      41.514597999999999      19.969546999999999
  6178   2      6.7623329999999999               41.137898      20.329014000000001
  6179   2      5.9169669999999996      41.180641999999999      19.069762000000001
  6180   5      10.996581000000001      31.428090999999998      17.840261000000002
  6181   2               10.093273      31.598220999999999               17.563105
  6182   2               10.938488               30.623417      18.361574000000001
  6183   5               29.511547      3.3382679999999998      11.839418999999999
  6184   2      28.798864999999999      3.9619550000000001      11.996975000000001
  6185   2               30.182782      3.8531789999999999               11.384499
  6186   5               37.948411      19.941058000000002                19.38532
  6187   2      37.642494999999997      20.812809999999999      19.646450000000002
  6188   2      38.570810000000002               20.110108               18.673503
  6189   5               22.453263      35.666491000000001      24.325680999999999
  6190   2      22.685618000000002      36.246740000000003      23.596952000000002
  6191   2      22.880351000000001      36.061126999999999      25.090206999999999
  6192   5      35.986820000000002               31.454141      26.487148999999999
  6193   2      35.345731000000001               31.264647      25.798075999999998
  6194   2      35.819450000000003      32.370064999999997      26.723185000000001
  6195   5      10.385592000000001      18.694109000000001      40.064821000000002
  6196   2      9.7313240000000008      19.370418000000001      40.255254999999998
  6197   2      10.284382000000001      18.057269000000002      40.776743000000003
  6198   5      43.253568999999999      36.084721999999999               42.193669
  6199   2      42.616514000000002      35.574728999999998      42.699427999999997
  6200   2      42.806148999999998      36.269759000000001      41.364080000000001
  6201   5      42.401609000000001      17.544139999999999      14.883001999999999
  6202   2      43.230600000000003               17.934759                15.16921
  6203   2      42.472228000000001      17.509688000000001      13.925679000000001
  6204   5      43.605282000000003                6.003654      44.958100000000002
  6205   2      43.409520000000001      6.8939190000000004               44.656717
  6206   2      44.564535999999997                5.969786      44.994504999999997
  6207   5               42.306238      8.2954089999999994      10.934196999999999
  6208   2               42.786631                9.118449      10.817786999999999
  6209   2      41.716453999999999                8.466011               11.672907
  6210   5      8.3905700000000003      21.996646999999999               19.966939
  6211   2      8.0756309999999996      21.269331000000001      20.508741000000001
  6212   2      8.6072150000000001      22.687653999999998      20.597982999999999
  6213   5      34.328338000000002      9.5400390000000002      7.3844070000000004
  6214   2      35.051127999999999      9.4938490000000009      6.7541960000000003
  6215   2      33.542552999999998      9.6319739999999996      6.8396759999999999
  6216   5      34.263522999999999      26.478978000000001    0.034049000000000003
  6217   2      34.914479999999998      27.183935999999999                0.002215
  6218   2      34.536966999999997      25.935327999999998     0.77722800000000003
  6219   5               34.083081      10.349036999999999      32.000464999999998
  6220   2      33.400306999999998               10.669098      32.594692000000002
  6221   2               33.767795      9.4870429999999999      31.717261000000001
  6222   5     0.63780700000000001      4.8917770000000003      27.697244000000001
  6223   2      1.1860630000000001      4.8993010000000004      28.485333000000001
  6224   2    0.055259000000000003      5.6478900000000003      27.804829999999999
  6225   5      33.465817999999999               12.193781      20.789553000000002
  6226   2      32.804966999999998      12.354627000000001      21.467144000000001
  6227   2      33.265600999999997               12.836083      20.103985999999999
  6228   5                28.87951      4.4519719999999996      37.739604999999997
  6229   2      28.854690000000002      5.0690949999999999      37.004575000000003
  6230   2      28.731957000000001      4.9989739999999996      38.515272000000003
  6231   5                13.31575      5.5576939999999997      30.760833000000002
  6232   2               13.923387      6.2831970000000004               30.599128
  6233   2      13.839404999999999      4.9103380000000003               31.239746
  6234   5      40.204002000000003      5.4560769999999996      17.355623999999999
  6235   2      39.578347000000001      5.9375450000000001               17.901947
  6236   2      40.212958999999998      5.9362139999999997      16.523741000000001
  6237   5               30.088763      11.614178000000001      22.733035000000001
  6238   2      29.294080000000001      12.064842000000001               22.437897
  6239   2               30.806438      12.186529999999999               22.450198
  6240   5      2.2043349999999999               13.991377      34.379097999999999
  6241   2      2.3905189999999998      14.759351000000001      33.833866999999998
  6242   2                1.523164      14.289994999999999      34.986942999999997
  6243   5      16.654997999999999      43.028785999999997      24.687183999999998
  6244   2      15.747643999999999      43.243206000000001               24.458147
  6245   2               16.624153      42.103276999999999      24.942378000000001
  6246   5      35.886147999999999               12.675735      4.3515100000000002
  6247   2      35.941209000000001      13.081706000000001      3.4832459999999998
  6248   2      35.926529000000002      13.415063999999999      4.9633960000000004
  6249   5      44.631813999999999      12.472274000000001      18.878430000000002
  6250   2      44.046183999999997      11.832278000000001      18.467130000000001
  6251   2      44.992299000000003      12.010771999999999               19.639816
  6252   5      6.3942810000000003                0.141596      37.080807999999998
  6253   2      6.5683740000000004                 0.93694      37.589576999999998
  6254   2      7.1959809999999997   0.0053220000000000003      36.569584999999996
  6255   5      34.445393000000003      36.412641999999998      31.277138000000001
  6256   2      35.191391000000003      36.689689000000001      31.814219999999999
  6257   2      33.779023000000002               37.087736      31.428266000000001
  6258   5      24.832529999999998               14.927972      7.5446619999999998
  6259   2      24.608543000000001               15.855508      7.6506429999999996
  6260   2               24.768469      14.773790999999999      6.5987410000000004
  6261   5      12.592477000000001      12.896209000000001      23.907810000000001
  6262   2      12.297535999999999               13.797509      24.057456999999999
  6263   2               13.053476      12.932873000000001      23.065920999999999
  6264   5      12.270500999999999      2.0495329999999998      44.352876999999999
  6265   2      12.348103999999999      1.3207359999999999      43.732750000000003
  6266   2               12.313355      2.8360020000000001      43.803083999999998
  6267   5               26.493295      27.899374999999999      37.557468999999998
  6268   2               26.747626      27.010601999999999      37.298386000000001
  6269   2      27.051818999999998      28.096306999999999      38.313715999999999
  6270   5     0.42385299999999998      42.714004000000003               11.265834
  6271   2     0.38109500000000002      43.649757000000001      11.476224999999999
  6272   2     0.51017699999999999      42.281472000000001               12.119125
  6273   5      3.7662960000000001      43.934367999999999      40.799970999999999
  6274   2      3.2125110000000001      44.695343999999999      40.610332999999997
  6275   2      3.7774969999999999      43.880688999999997      41.758946999999999
  6276   5               23.164396      39.769300999999999               34.234741
  6277   2               23.743126      40.080573000000001      33.534807999999998
  6278   2      22.543956000000001      39.186571000000001      33.789631999999997
  6279   5               11.139116               20.258035      36.227361999999999
  6280   2      11.538118000000001      19.384810000000002      36.226743999999997
  6281   2      11.125493000000001      20.513297000000001      37.153266000000002
  6282   5      30.266802999999999      36.548552999999998      26.910405999999998
  6283   2      31.056460000000001      36.913148999999997      26.503914000000002
  6284   2               29.542258      37.005960000000002      26.476292000000001
  6285   5      20.086856999999998      27.778669000000001      43.371488999999997
  6286   2      19.173204999999999      27.484307000000001      43.389262000000002
  6287   2               20.074607      28.560666999999999      42.813840999999996
  6288   5      41.516660999999999      20.613731000000001      41.215994000000002
  6289   2      42.232213000000002               20.052899      40.907485000000001
  6290   2      41.765439000000001               20.845063      42.114457000000002
  6291   5               40.290661      12.693429999999999      3.7332779999999999
  6292   2      39.578296000000002      12.130445999999999      4.0452209999999997
  6293   2      40.843462000000002      12.829245999999999      4.5069749999999997
  6294   5                2.513782      24.861626000000001               35.427394
  6295   2      2.9936579999999999               25.243295               36.166159
  6296   2      1.5946670000000001      25.079156000000001      35.602182999999997
  6297   5               12.568201                17.79203      35.115670999999999
  6298   2               13.338528      17.852032999999999      35.685515000000002
  6299   2               12.767424      18.380040000000001      34.382734999999997
  6300   5      17.142873999999999               13.942886      38.785997999999999
  6301   2               17.155856               14.880991      38.582242999999998
  6302   2      16.226742000000002      13.683863000000001      38.658517000000003
  6303   5      36.342185000000001      43.813057000000001      8.4189240000000005
  6304   2      36.217635999999999      43.677987000000002      9.3612450000000003
  6305   2      36.767639000000003      43.006667999999998      8.1166509999999992
  6306   5      2.4514040000000001      8.8042730000000002      33.939118999999998
  6307   2                1.927343      9.5363419999999994      33.605713000000002
  6308   2                1.942904      8.4650079999999992      34.680044000000002
  6309   5               12.877274               14.713042      30.074294999999999
  6310   2      11.952472999999999               14.514664      30.238959000000001
  6311   2      12.905430000000001               14.967153      29.148402000000001
  6312   5      20.835142000000001      32.057077999999997      42.165380999999996
  6313   2      20.753378999999999               32.935803      42.543379000000002
  6314   2      20.091695000000001      31.570450000000001      42.530242000000001
  6315   5      43.077342000000002      41.896411999999998               31.042583
  6316   2      43.441110999999999      41.194854999999997      31.587755999999999
  6317   2      42.139890000000001      41.694279999999999      30.988105000000001
  6318   5      9.9695309999999999      10.797022999999999      19.148758000000001
  6319   2      10.786903000000001      10.618256000000001      18.677938999999999
  6320   2               10.176503               11.549692               19.708485
  6321   5      11.713585999999999      16.272061000000001      11.084421000000001
  6322   2               11.213851      15.482552999999999               11.305026
  6323   2      11.510566000000001      16.432009000000001      10.159304000000001
  6324   5      43.580993999999997                22.85407               11.281314
  6325   2      44.523848000000001      22.693238000000001      11.364293999999999
  6326   2      43.176448000000001      22.003889000000001      11.471514000000001
  6327   5      33.536850000000001      14.058018000000001      17.675554000000002
  6328   2      32.879067999999997      14.677301999999999               18.000415
  6329   2      33.303978000000001      13.924861999999999      16.753229999999999
  6330   5      14.408492000000001      11.805528000000001      6.3768950000000002
  6331   2               15.165343      11.231056000000001      6.2394809999999996
  6332   2               14.079964      11.982867000000001      5.4918750000000003
  6333   5      14.652492000000001      2.7534350000000001      30.538969000000002
  6334   2      15.385759999999999      3.3416839999999999      30.344018999999999
  6335   2      13.927803000000001      3.0912299999999999      30.006651000000002
  6336   5      16.757093000000001      36.099359999999997      37.685132000000003
  6337   2      17.077995999999999      35.232677000000002               37.425117
  6338   2      17.500457999999998      36.501891000000001      38.141222999999997
  6339   5      12.622241000000001      1.8483130000000001      22.097239999999999
  6340   2               11.829361      2.2853889999999999      21.777816000000001
  6341   2      13.026828999999999      2.4895269999999998               22.686982
  6342   5      33.701717000000002      1.4801439999999999      30.826938999999999
  6343   2      33.003219999999999                2.128193      30.944662999999998
  6344   2      34.365586999999998      1.9373590000000001      30.304566000000001
  6345   5      16.965420999999999      27.181059999999999      9.2429819999999996
  6346   2                16.99493      26.231494999999999      9.3814779999999995
  6347   2      16.481200999999999      27.287078999999999      8.4202220000000008
  6348   5      5.9418090000000001      1.5182359999999999      41.586044999999999
  6349   2      5.1071169999999997      1.0456749999999999      41.627299999999998
  6350   2      5.8813060000000004      2.0392519999999998      40.781356000000002
  6351   5      4.3188550000000001               27.912633                17.45252
  6352   2      3.9498760000000002      27.283325999999999      16.828379000000002
  6353   2      4.8174869999999999               28.525641      16.906417000000001
  6354   5      22.469695999999999      9.1581510000000002      2.9916610000000001
  6355   2      23.131108000000001      8.5497820000000004      3.3295159999999999
  6356   2      21.956503999999999      8.6327110000000005      2.3726379999999998
  6357   5      23.578825999999999      6.0617049999999999      19.739332999999998
  6358   2      24.124352999999999      6.6617959999999998      20.253156000000001
  6359   2               24.208109      5.4821059999999999      19.302630000000001
  6360   5               38.912872      6.0322870000000002      23.334382999999999
  6361   2      38.876407999999998      6.2081189999999999               22.391261
  6362   2      39.481816999999999      5.2622270000000002      23.411532999999999
  6363   5      6.1158530000000004      23.411992000000001      26.497876999999999
  6364   2      5.5034650000000003               23.174903      25.797523000000002
  6365   2      6.9453050000000003                23.57864      26.043037000000002
  6366   5               11.467136      4.7845839999999997      23.363506000000001
  6367   2      12.146212999999999                5.421208      23.598645999999999
  6368   2      11.822255999999999      4.3298649999999999               22.595547
  6369   5     0.49610399999999999      26.763711000000001      7.2421340000000001
  6370   2      1.4263729999999999      27.000592000000001                7.227544
  6371   2     0.19631000000000001      27.028493999999998      8.1154360000000008
  6372   5      21.247098999999999      4.2884599999999997               10.550471
  6373   2      21.468167000000001      3.7534160000000001      11.316357999999999
  6374   2      21.798424000000001      3.9368919999999998      9.8468509999999991
  6375   5      9.6475109999999997      28.717884999999999      16.267586999999999
  6376   2      10.218374000000001      28.061465999999999      16.673732999999999
  6377   2               10.162798      29.060041999999999      15.532705999999999
  6378   5                 31.9694      23.942050999999999      21.538616000000001
  6379   2      32.449787999999998      24.751304999999999      21.348721999999999
  6380   2      32.001207999999998      23.447258000000001      20.715931000000001
  6381   5      38.265236999999999      4.3232889999999999      24.978370999999999
  6382   2      38.932192999999998                3.683344      25.237919999999999
  6383   2      37.763710000000003                3.879114      24.290023999999999
  6384   5      25.725725000000001      17.056557999999999      6.1821169999999999
  6385   2               25.195767      17.773561999999998      6.5381720000000003
  6386   2      26.345279999999999      17.489560999999998                 5.58941
  6387   5               17.659758      2.1871619999999998      44.993969999999997
  6388   2               17.010043                1.480351      44.997821999999999
  6389   2               17.346574      2.7952319999999999               44.319575
  6390   5               24.920728      42.228808000000001      43.987127000000001
  6391   2      25.852844000000001      42.001784000000001      43.950436000000003
  6392   2      24.865774999999999      42.900937999999996               44.671132
  6393   5      2.8856030000000001      8.5620250000000002      19.372309999999999
  6394   2                2.149556      8.6452229999999997      19.983077999999999
  6395   2      2.5344899999999999      8.8689660000000003      18.532578000000001
  6396   5      35.497326999999999      39.810572000000001      37.438983999999998
  6397   2      34.913426000000001      39.359523000000003      38.053263999999999
  6398   2      36.377197000000002      39.664819999999999      37.795673999999998
  6399   5      19.415285999999998      41.633637999999998               20.822975
  6400   2               18.492334      41.373156000000002      20.868075999999999
  6401   2               19.388472      42.573076999999998      20.624535999999999
  6402   5      20.848383999999999               40.943182      2.9992049999999999
  6403   2      19.937287999999999               41.155569      2.7835200000000002
  6404   2      21.365189999999998      41.412032000000004      2.3391039999999998
  6405   5      37.142375000000001      18.914763000000001      36.240662999999998
  6406   2               36.541331      18.655844999999999      36.943111000000002
  6407   2      37.953302999999998      19.153645000000001      36.696705000000001
  6408   5      25.139779000000001                1.295056      1.5547759999999999
  6409   2               24.996789     0.37597900000000001      1.3169150000000001
  6410   2      24.258897000000001      1.6360220000000001      1.7292160000000001
  6411   5               28.497152      2.4735369999999999      40.825113999999999
  6412   2      28.904070000000001      3.3266909999999998      40.993250000000003
  6413   2      28.945133999999999      2.1460759999999999      40.041071000000002
  6414   5      33.724966999999999      39.878483000000003      4.2071189999999996
  6415   2      34.288094000000001      40.644902999999999      4.3383149999999997
  6416   2               34.319139      39.128616000000001      4.2925630000000004
  6417   5      9.9981740000000006      4.4715530000000001      31.464448000000001
  6418   2      10.694337000000001      4.5285609999999998               30.805788
  6419   2      9.7291030000000003      5.3826400000000003               31.606448
  6420   5      16.243445999999999      3.0660020000000001      37.874515000000002
  6421   2      17.068743000000001      2.6598809999999999      38.149605999999999
  6422   2      15.915647999999999      2.4916429999999998      37.177878999999997
  6423   5      6.5190619999999999      1.4408650000000001      25.029261000000002
  6424   2      5.7050960000000002                 1.47824      24.521533000000002
  6425   2      7.0980160000000003      2.0749080000000002      24.598631999999998
  6426   5      20.341346999999999                1.475106      37.490737000000003
  6427   2               21.058494      2.1040610000000002      37.599544000000002
  6428   2      20.298432999999999                 1.32402      36.543121999999997
  6429   5      34.717449999999999      35.946967999999998               37.629863
  6430   2      34.520417999999999      35.083236999999997      37.259898999999997
  6431   2      33.855713999999999      36.338254999999997      37.794020000000003
  6432   5      21.691960000000002               12.218878      13.883387000000001
  6433   2      22.590271999999999               12.476381               14.103505
  6434   2               21.160432      12.983864000000001      14.117725999999999
  6435   5               30.544293                2.485662      18.329170000000001
  6436   2      30.725034999999998      3.3174959999999998      18.773140000000001
  6437   2      31.399225000000001      2.2033700000000001               17.994439
  6438   5                5.344214     0.80009200000000003      4.2926250000000001
  6439   2      5.7391550000000002                1.257055      3.5463469999999999
  6440   2      6.0446289999999996     0.23100699999999999      4.6215659999999996
  6441   5      20.963577999999998               15.665849      44.589592000000003
  6442   2      20.744578000000001      16.506706999999999      44.997906999999998
  6443   2      21.882242999999999      15.761024000000001               44.325702
  6444   5               32.033431      30.626328000000001      39.966442000000001
  6445   2               32.531177      31.389164999999998      40.269846000000001
  6446   2               32.626182               30.182948      39.354312999999998
  6447   5      41.933351000000002      36.286256000000002      34.748505999999999
  6448   2      42.868518000000002               36.503366      34.755550999999997
  6449   2      41.883744999999998      35.461471000000003      34.258698000000003
  6450   5      31.274274999999999      29.956554000000001      4.4730059999999998
  6451   2               31.613768      29.059252999999998      4.5093370000000004
  6452   2      31.844062000000001      30.401637000000001      3.8406400000000001
  6453   5      20.864681000000001   0.0032079999999999999      5.7868959999999996
  6454   2      20.704654999999999     0.49534800000000001      4.9782460000000004
  6455   2      20.037430000000001    0.064782999999999993                6.271153
  6456   5               12.976535               25.680913               10.274848
  6457   2               12.800692      26.373598000000001      9.6337620000000008
  6458   2               13.530711      26.103131000000001               10.936107
  6459   5      42.565449999999998      17.997420000000002     0.33390399999999998
  6460   2      41.815838999999997      18.496203999999999  0.00070299999999999996
  6461   2      43.229205999999998               18.664548     0.52628799999999998
  6462   5      20.487473000000001      30.531048999999999      29.975138000000001
  6463   2      20.442039000000001      30.942899000000001      30.841187000000001
  6464   2               19.637438      30.727008000000001               29.573041
  6465   5      27.584924999999998               23.650102      38.572884999999999
  6466   2      28.365576000000001      23.189278000000002      38.889034000000002
  6467   2      27.040700000000001      22.959551999999999      38.186101000000001
  6468   5      40.944183000000002      14.166090000000001      33.775655999999998
  6469   2      40.499167999999997               14.680698      33.098260000000003
  6470   2      40.245989999999999      13.638146000000001      34.171187000000003
  6471   5      7.4695790000000004                3.558033      39.039219000000003
  6472   2      7.3170250000000001      2.6195189999999999      38.906390000000002
  6473   2      7.1828269999999996      3.7208649999999999      39.941383999999999
  6474   5                43.93703      26.553035000000001      35.743822000000002
  6475   2      44.799660000000003      26.313721000000001      36.090696999999999
  6476   2      43.528114000000002      27.059449999999998      36.450203000000002
  6477   5               10.987619      27.978363000000002      11.965711000000001
  6478   2      11.770963999999999               27.423568      11.982962000000001
  6479   2               10.340076      27.492743999999998      12.482919000000001
  6480   5      35.927790000000002      30.840776999999999      28.974398000000001
  6481   2      35.146348000000003      30.783062000000001      28.419651999999999
  6482   2      36.084107000000003      31.783809000000002      29.068726999999999
  6483   5      5.7416530000000003                0.803531      44.394978000000002
  6484   2      5.2953970000000004      1.3955120000000001      43.784947000000003
  6485   2      5.9250410000000002                0.017883      43.873665000000003
  6486   5      41.915497000000002      40.767026000000001      20.860271999999998
  6487   2      42.159517000000001      41.262813000000001      21.645368000000001
  6488   2      42.754382999999997               40.493226      20.480869999999999
  6489   5      11.158931000000001      28.428332999999999      33.131272000000003
  6490   2               10.408493      28.972556999999998      33.381047000000002
  6491   2               11.901111      29.037915999999999      33.116464000000001
  6492   5      32.813256000000003      12.611515000000001      12.751281000000001
  6493   2               31.932458               12.768423      13.099562000000001
  6494   2      32.785620000000002      12.972414000000001               11.861545
  6495   5               25.706761      38.977536000000001      18.832484000000001
  6496   2      25.806194999999999      39.862749999999998      19.190580000000001
  6497   2      24.762595999999998      38.806764999999999      18.877559999999999
  6498   5     0.43681300000000001                1.246272      43.889265000000002
  6499   2     0.44765899999999997     0.37729400000000002      44.297289999999997
  6500   2     0.93799299999999997                1.799698      44.493566999999999
  6501   5      17.043693000000001      3.3021669999999999      2.7001460000000002
  6502   2      16.892773999999999                3.990211                2.047809
  6503   2               16.268151                3.335731                3.265876
  6504   5      16.375350999999998      34.260970999999998                14.43881
  6505   2      15.827745999999999      34.711689999999997               13.791734
  6506   2      15.754397000000001      33.954059000000001               15.104289
  6507   5      42.699218000000002               11.661557      4.5052289999999999
  6508   2      42.262582999999999               10.841645      4.2627030000000001
  6509   2      43.302368999999999               11.411187      5.2096200000000001
  6510   5      37.296975000000003      22.688576000000001      10.540404000000001
  6511   2      37.346800000000002      22.944624999999998      9.6164550000000002
  6512   2      37.932685999999997      21.973393999999999               10.624241
  6513   5      21.590896000000001      42.531559000000001               16.922131
  6514   2      22.124614999999999      41.765175999999997               16.699586
  6515   2      22.085315000000001      42.972616000000002      17.617588000000001
  6516   5      41.317174000000001               12.925371      42.686342000000003
  6517   2               41.298499      13.292153000000001      43.573385999999999
  6518   2      41.420163000000002      13.690065000000001      42.114260000000002
  6519   5      4.9993169999999996      39.022638999999998      32.972985000000001
  6520   2      5.6090989999999996      38.352665999999999      33.290832999999999
  6521   2      4.7425350000000002      38.716239000000002      32.099587999999997
  6522   5      35.161515000000001               34.184531      31.205452000000001
  6523   2               35.773094      33.445324999999997               31.169798
  6524   2      34.799652000000002      34.237653000000002               30.317266
  6525   5      36.612771000000002      39.133960999999999      42.606096999999998
  6526   2      35.958359000000002               38.559891      43.010961000000002
  6527   2      36.332158999999997      40.021016000000003      42.844909999999999
  6528   5                1.726567      4.4076120000000003      1.3803650000000001
  6529   2      1.8100879999999999      4.3518670000000004     0.42556500000000003
  6530   2      1.6288659999999999      5.3467549999999999      1.5567340000000001
  6531   5               18.792562      9.8409460000000006      43.363570000000003
  6532   2      18.582523999999999      9.4417770000000001      42.516060000000003
  6533   2               18.555895      10.765727999999999      43.256756000000003
  6534   5      9.1273359999999997      42.440314000000001      40.751061999999997
  6535   2      8.2442299999999999      42.098350000000003      40.908890999999997
  6536   2      9.7115960000000001      41.740113000000001      41.052728000000002
  6537   5      40.120514999999997      43.349462000000003      24.975259000000001
  6538   2      39.518605999999998      42.709567999999997      25.362514000000001
  6539   2      39.851951999999997               44.189774      25.355246000000001
  6540   5      4.4514880000000003               28.724034      1.8776189999999999
  6541   2      5.3766319999999999               28.964426      1.9673069999999999
  6542   2      4.3968600000000002               28.303611                1.015701
  6543   5      4.9570470000000002      26.271094999999999      43.469752999999997
  6544   2      5.2572320000000001      27.092849000000001      43.865144000000001
  6545   2      5.5629099999999996      26.122668999999998      42.739313000000003
  6546   5      37.227426000000001      16.487939000000001      18.439284000000001
  6547   2      37.547797000000003      17.366931999999998      18.223739999999999
  6548   2      36.278312999999997      16.597695000000002               18.538173
  6549   5      28.522317999999999      35.133671999999997      34.849818999999997
  6550   2      29.214034999999999      35.605531999999997      34.380138000000002
  6551   2      28.752832999999999      34.207026999999997      34.745733000000001
  6552   5      1.4723109999999999      43.464812999999999               20.501735
  6553   2                1.462172      43.451113999999997      21.461649000000001
  6554   2                1.260219               44.373545               20.273996
  6555   5      41.140998000000003      11.944299000000001      6.6852119999999999
  6556   2               40.352083      12.485697999999999                6.606312
  6557   2      41.858144000000003               12.528891                6.427149
  6558   5      9.3874379999999995      10.358261000000001      16.066127000000002
  6559   2      9.5982540000000007      11.269175000000001      15.848140000000001
  6560   2      8.5701640000000001               10.416088               16.567487
  6561   5                14.17075      17.578541999999999      12.295984000000001
  6562   2               14.615423      16.753170999999998      12.502755000000001
  6563   2                14.75389      18.012802000000001      11.668283000000001
  6564   5      30.647870999999999      6.3375079999999997      28.095804000000001
  6565   2      29.951833000000001                5.676323      28.086272999999998
  6566   2      30.606635000000001      6.7144060000000003               28.978351
  6567   5               26.181822      36.805677000000003      24.967587999999999
  6568   2      25.755904000000001      36.254165999999998      25.628008000000001
  6569   2      25.726783999999999      37.649149999999999               25.031889
  6570   5      1.4142650000000001               32.734313      8.8560820000000007
  6571   2      2.3013910000000002      32.853973000000003      9.2030899999999995
  6572   2                1.487511      32.970168999999999      7.9278320000000004
  6573   5      26.673784999999999      16.155633000000002      17.520296999999999
  6574   2      25.829499999999999      16.508904999999999      17.810307999999999
  6575   2      26.470396000000001      15.264879000000001               17.223931
  6576   5      11.935415000000001                27.16968      39.281436999999997
  6577   2      11.171288000000001               26.594424               39.364601
  6578   2                12.33666      27.160782999999999               40.154114
  6579   5     0.56628900000000004      29.811174999999999      9.3459249999999994
  6580   2     0.24974499999999999      29.887426000000001      10.249091999999999
  6581   2                1.114495      30.589618000000002      9.2188890000000008
  6582   5      10.662573999999999      28.897152999999999      39.747658999999999
  6583   2      9.7522330000000004      29.040158000000002               40.017018
  6584   2      10.798569000000001      29.518270999999999               39.027687
  6585   5      20.008213999999999      1.7595190000000001     0.65560099999999999
  6586   2      20.491465000000002     0.97985900000000004     0.93901299999999999
  6587   2      20.683658999999999      2.3424049999999998                0.299705
  6588   5      44.376472999999997      20.042622999999999      42.101475999999998
  6589   2      44.365791999999999      19.152940000000001               41.740817
  6590   2      44.392512000000004      19.913906000000001      43.053220000000003
  6591   5      37.160592999999999               25.966631      32.152123000000003
  6592   2      36.510567000000002      25.549133999999999      32.722112000000003
  6593   2      37.904518000000003      25.359000000000002      32.153837000000003
  6594   5               13.252127      4.3953350000000002      36.151524000000002
  6595   2      13.899705000000001      5.0943230000000002      36.268925000000003
  6596   2      13.483911000000001                3.994459      35.309967999999998
  6597   5      24.177700000000002      44.833016000000001      21.399328000000001
  6598   2               24.462792      44.996302999999997               20.497228
  6599   2      24.979296999999999      44.570588000000001      21.858909000000001
  6600   5      39.977339000000001      7.5147579999999996      13.591462999999999
  6601   2      39.116143999999998      7.6257440000000001               13.181889
  6602   2      40.515220999999997      7.1060400000000001               12.908619
  6603   5      36.440750999999999      7.0106469999999996                12.59524
  6604   2      36.606414000000001                7.938733      12.776721999999999
  6605   2      35.485439999999997      6.9245380000000001                 12.6463
  6606   5      31.000015999999999      22.201256000000001      7.4153190000000002
  6607   2      31.452605999999999      23.039325999999999      7.2947920000000002
  6608   2      30.706530000000001      21.959745999999999      6.5331729999999997
  6609   5      28.148337000000001      7.5373749999999999      7.0479830000000003
  6610   2      27.760262000000001                7.848268      6.2267229999999998
  6611   2               27.896656      6.6115940000000002      7.0951810000000002
  6612   5      39.919638999999997      31.269473999999999               13.969887
  6613   2      39.015960999999997      31.428978000000001      14.252109000000001
  6614   2      40.063529000000003      31.902391000000001      13.261824000000001
  6615   5      33.945920999999998      12.709860000000001      6.4890319999999999
  6616   2      33.620690000000003               12.820337      7.3855500000000003
  6617   2      33.997233000000001      11.758153999999999      6.3695940000000002
  6618   5      35.607097000000003      35.484189000000001      8.5858600000000003
  6619   2               34.915208      36.083882000000003      8.2971000000000004
  6620   2      35.165360999999997      34.885235000000002      9.1931209999999997
  6621   5      42.061326999999999      13.841108999999999      27.689668000000001
  6622   2      41.131377999999998               13.944898      27.474848000000001
  6623   2                42.12359      12.956270999999999      28.058216000000002
  6624   5      30.956178999999999      22.294191999999999               39.073318
  6625   2               30.341669      22.153801999999999      38.349167999999999
  6626   2               30.503494               22.911085      39.653975000000003
  6627   5      39.994706000000001               23.513375                10.12032
  6628   2      39.980426000000001               23.549985      11.079580999999999
  6629   2               40.491757               22.716345      9.9195069999999994
  6630   5      37.356765000000003      42.175071000000003      20.000907000000002
  6631   2      36.663643999999998      42.689118999999998               20.421695
  6632   2      37.339179000000001      41.331017000000003      20.459060999999998
  6633   5               11.915614      4.4200879999999998      33.337927000000001
  6634   2               12.409557      3.9910899999999998      32.635285000000003
  6635   2               11.988496      5.3577079999999997      33.142482000000001
  6636   5      31.588166000000001      18.441179000000002      19.657323000000002
  6637   2      31.624828999999998      17.488310999999999      19.768785999999999
  6638   2      32.312385999999996      18.772120999999999      20.194559999999999
  6639   5               28.464817      11.579181999999999      13.752745000000001
  6640   2      28.223407999999999      10.745931000000001      14.164009999999999
  6641   2      27.722943000000001               12.160418               13.938298
  6642   5      2.5275650000000001      9.8858700000000006               27.144326
  6643   2      3.0050949999999998      10.669917999999999               27.425321
  6644   2      2.9542449999999998      9.6283250000000002      26.323194999999998
  6645   5               31.157529               38.769517      36.095219999999998
  6646   2      30.757007999999999      39.625208999999998      36.265810000000002
  6647   2               30.895574               38.558771      35.195438000000003
  6648   5      32.612346000000002               28.851132      41.565976999999997
  6649   2               31.784416               28.770709      41.086615000000002
  6650   2      32.392704999999999               29.385759      42.333162000000002
  6651   5               28.040934               12.596973      40.931986999999999
  6652   2      28.284586000000001      11.842218000000001      40.390967000000003
  6653   2      28.798044000000001                12.73218      41.507440000000003
  6654   5               19.072875      37.679400999999999      18.389192000000001
  6655   2               19.097866      38.261153999999998      17.625868000000001
  6656   2      19.078807999999999               38.274721      19.142983000000001
  6657   5      38.169829999999997      23.107386999999999      34.774014999999999
  6658   2      38.490569999999998      23.926860999999999      34.390200999999998
  6659   2      37.535612999999998      23.387623000000001               35.438755
  6660   5      10.513695999999999      27.766428999999999      36.163578999999999
  6661   2      9.5713489999999997      27.803577000000001      35.983780000000003
  6662   2      10.579556999999999               27.284772      36.992016999999997
  6663   5      30.787023000000001      28.483533999999999               14.390665
  6664   2      30.694628000000002      28.344353999999999      13.445245999999999
  6665   2      30.186610999999999      29.207712999999998      14.584858000000001
  6666   5               25.772084      42.025264999999997      38.371769999999998
  6667   2      26.675111999999999      41.861680999999997      38.653739000000002
  6668   2      25.634689999999999                41.41283      37.644660000000002
  6669   5      22.481583000000001               11.196004      7.4894629999999998
  6670   2      22.335757000000001               10.656361      8.2700040000000001
  6671   2               23.436283               11.288819      7.4387259999999999
  6672   5               30.424806      23.852913000000001      36.958948999999997
  6673   2      29.883444000000001               24.512874      37.398384999999998
  6674   2               30.058975               23.796139      36.072614999999999
  6675   5      40.455668000000003               32.441091      23.778808000000001
  6676   2      39.808821999999999      33.147495999999997      23.844442999999998
  6677   2               41.048845      32.725251999999998               23.078782
  6678   5                3.095097      8.7365519999999997               15.868027
  6679   2      3.3757169999999999      9.3431650000000008      16.557227999999999
  6680   2      2.3734229999999998      8.2422129999999996      16.264835000000001
  6681   5      32.959938999999999                21.39481      8.0045070000000003
  6682   2      32.512976999999999      20.588062999999998      7.7378460000000002
  6683   2      33.864941000000002                21.12114      8.1739730000000002
  6684   5      19.666015000000002      36.808554000000001               13.225282
  6685   2      19.205449999999999      37.614151999999997               13.471487
  6686   2      20.284922000000002               37.086095      12.545159999999999
  6687   5      3.9481959999999998      37.184502000000002      26.906738000000001
  6688   2      4.7792620000000001      37.248703999999996      27.383112000000001
  6689   2      3.9985400000000002               37.878746      26.244821000000002
  6690   5      42.310561999999997      9.1288370000000008      29.817239000000001
  6691   2               41.513092      8.6022119999999997      29.725404000000001
  6692   2      42.933428999999997      8.7268089999999994      29.206458999999999
  6693   5                 44.9544      11.510954999999999      34.078769999999999
  6694   2      44.999811000000001                11.39897      35.031199999999998
  6695   2      44.301547999999997               10.866584      33.793790999999999
  6696   5      22.645620000000001               14.743069      5.7603470000000003
  6697   2      23.217480999999999               14.944875      5.0160530000000003
  6698   2               21.967091               14.171821                 5.39168
  6699   5               32.865268               14.782935      4.5842850000000004
  6700   2      32.332039000000002               15.228541      5.2467249999999996
  6701   2      33.705573000000001      15.247911999999999      4.6023540000000001
  6702   5                1.628627      22.498169000000001               23.136395
  6703   2     0.94785900000000001      22.870463999999998               22.570995
  6704   2                1.485414      22.916471999999999      23.989128999999998
  6705   5               21.429136                2.153537      43.055616999999998
  6706   2      22.380662000000001                 2.08636               43.164296
  6707   2      21.239039999999999                3.085477      43.189751000000001
  6708   5               43.288342                14.48213               14.273344
  6709   2      43.173498000000002      15.421768999999999      14.113296999999999
  6710   2      44.239064999999997               14.349124      14.240520999999999
  6711   5      21.697289000000001      28.644421999999999      6.5671030000000004
  6712   2      21.805544999999999               27.699168      6.6955549999999997
  6713   2               22.582642      29.002130000000001      6.6711960000000001
  6714   5      28.870055000000001      39.292065000000001      3.2151169999999998
  6715   2      29.098573999999999      39.021763999999997      2.3226810000000002
  6716   2      28.429383999999999      40.138100000000001      3.1025299999999998
  6717   5               23.473478      39.025331000000001               14.308164
  6718   2      24.108789000000002               39.735827               14.423491
  6719   2      22.830317000000001      39.164676999999998               15.007856
  6720   5      19.598462999999999      27.005856000000001               13.483651
  6721   2      19.382985999999999      27.832004000000001               13.044591
  6722   2      20.225957999999999      27.255462000000001               14.166724
  6723   5      15.481890999999999               19.787779      31.684211999999999
  6724   2               15.682879               19.435596      30.813984999999999
  6725   2      16.074846999999998               19.316509      32.274931000000002
  6726   5      1.5625800000000001               12.847979               21.143393
  6727   2                1.389694      13.740558999999999               20.834954
  6728   2      1.2113879999999999               12.832395      22.037296999999999
  6729   5               17.261305      4.9046599999999998      39.600008000000003
  6730   2               16.547124      4.2690270000000003      39.687418000000001
  6731   2               17.088956      5.3433409999999997      38.763050999999997
  6732   5      10.372274000000001      14.869355000000001      5.0582820000000002
  6733   2               10.974783      15.377933000000001      5.6060559999999997
  6734   2      9.7596980000000002               15.521443      4.7087510000000004
  6735   5      26.576291000000001               12.699339      9.5249279999999992
  6736   2               26.191157               13.198941      10.248665000000001
  6737   2      27.482057999999999      13.014803000000001      9.4728720000000006
  6738   5      44.724924999999999      43.886541999999999      17.041322999999998
  6739   2      44.966583999999997      44.815689999999996      17.038028000000001
  6740   2      44.994134000000003      43.573236000000001               17.908507
  6741   5               42.506335      28.378378999999999               11.597495
  6742   2               42.663615      29.168873000000001      11.075856999999999
  6743   2      41.549394999999997      28.313403999999998      11.649330000000001
  6744   5      1.7773209999999999      3.8943349999999999               15.275147
  6745   2                1.266367      4.2969330000000001      15.981237999999999
  6746   2      2.0342720000000001      3.0376210000000001               15.625375
  6747   5      35.605786000000002               21.856216      29.142983999999998
  6748   2      35.693843999999999               22.336323      29.969705000000001
  6749   2      36.280698999999998      21.174375000000001      29.190176999999998
  6750   5      36.626699000000002                6.951193      20.541098000000002
  6751   2      36.788823999999998      6.8279290000000001      19.602882999999999
  6752   2      37.098897999999998      6.2281529999999998               20.961672
  6753   5               12.532774               14.196211      15.372882000000001
  6754   2      12.925670999999999               15.003765      15.033450999999999
  6755   2               12.118857               14.461038      16.198219000000002
  6756   5      33.494098000000001               10.488935      19.406352999999999
  6757   2      32.829946999999997               10.140355                20.00562
  6758   2      33.717986000000003      9.7459039999999995      18.840295999999999
  6759   5      1.7127460000000001                7.867102               24.779646
  6760   2      1.1562349999999999      8.4145889999999994               24.220827
  6761   2                 2.31847      7.4406129999999999               24.168215
  6762   5                 0.42085      33.001176999999998      23.907592000000001
  6763   2     0.18743599999999999      32.109924999999997      23.637568000000002
  6764   2                 0.00066      33.108392000000002      24.764672999999998
  6765   5               19.340446               14.483699      39.283911000000003
  6766   2               19.048707               15.336439      39.614738000000003
  6767   2               20.299256               14.529885      39.318457000000002
  6768   5      8.2579259999999994      14.444794999999999      26.210982000000001
  6769   2      8.1962069999999994      15.397068000000001      26.316300999999999
  6770   2      8.4014199999999999               14.115199      27.101721999999999
  6771   5      32.424886000000001      36.932639999999999      11.436424000000001
  6772   2      32.674959999999999      37.655605000000001               12.016518
  6773   2      32.572626999999997      36.142726000000003      11.962588999999999
  6774   5      5.7671910000000004                7.310727      19.118023000000001
  6775   2                6.249549                6.903143               18.394883
  6776   2      5.2131210000000001      7.9703920000000004               18.693182
  6777   5      23.015602000000001               43.823169      38.114440999999999
  6778   2               23.038632      44.780109000000003      38.040545999999999
  6779   2                22.13578      43.630929999999999      38.448506000000002
  6780   5      37.614801999999997      35.194634000000001      11.080825000000001
  6781   2      38.191102000000001      35.918131000000002      10.823619000000001
  6782   2      36.839897000000001      35.626449000000001               11.449199
  6783   5      8.7360209999999991      42.363081000000001               14.587557
  6784   2      9.1853800000000003      41.618766999999998               14.180375
  6785   2      9.0083490000000008      43.121229999999997               14.064403
  6786   5                40.55115      19.487321000000001      24.062097000000001
  6787   2      39.897826999999999      18.839203999999999               24.335663
  6788   2      40.129649000000001      19.960785000000001      23.340423999999999
  6789   5               15.375423                1.000499                15.38395
  6790   2      16.123909000000001     0.43601800000000002      15.590965000000001
  6791   2               15.151982      1.4165019999999999      16.220406000000001
  6792   5      9.6202919999999992      33.423724999999997      9.5422180000000001
  6793   2               10.362726      33.957709999999999      9.8344120000000004
  6794   2      9.9778009999999995      32.887861999999998                8.829701
  6795   5               10.251821      4.7976489999999998      35.477806000000001
  6796   2      9.8392110000000006      4.2840420000000003      34.779460999999998
  6797   2               11.185058      4.5791180000000002      35.414921999999997
  6798   5      33.003939000000003      4.3364719999999997      8.9089729999999996
  6799   2      33.439070000000001      3.7084589999999999      9.4903390000000005
  6800   2      33.724207999999997      4.7690869999999999      8.4434629999999995
  6801   5     0.21154999999999999      38.111654000000001               11.992538
  6802   2     0.49467899999999998      37.523285999999999               11.288701
  6803   2                0.788076      38.875605999999998      11.911065000000001
  6804   5      25.306170999999999      20.419892000000001               38.777099
  6805   2      26.029029999999999               20.160919      39.353408000000002
  6806   2               24.802481      21.052237000000002      39.295827000000003
  6807   5      15.364452999999999      2.2955489999999998      34.206775999999998
  6808   2               14.978135                1.889221      33.427430000000001
  6809   2      16.090965000000001      1.7136089999999999      34.443773999999998
  6810   5      21.042217000000001      8.7064109999999992      41.531762000000001
  6811   2      21.755749999999999      8.0738140000000005      41.643191000000002
  6812   2      21.215095000000002      9.1130309999999994      40.678874999999998
  6813   5      35.468465999999999      12.444375000000001      17.341124000000001
  6814   2      35.866627999999999      11.634050999999999      17.014679000000001
  6815   2      35.486184000000002      13.039294999999999      16.587202000000001
  6816   5      24.752078000000001     0.39613199999999998      35.850152999999999
  6817   2      23.977678999999998   0.0061710000000000003      35.437890000000003
  6818   2      24.778632000000002   0.0038839999999999999      36.726553000000003
  6819   5      4.9634679999999998      40.810671999999997      29.541678000000001
  6820   2                5.583304      41.538015999999999      29.633869000000001
  6821   2      5.4184080000000003               40.059047      29.929919000000002
  6822   5      11.578913999999999      32.206982000000004      10.437156999999999
  6823   2      12.446979000000001      31.961013999999999                  10.109
  6824   2               11.361884      31.521688000000001                11.07427
  6825   5      34.481495000000002      35.283802000000001      34.733241999999997
  6826   2               34.537284      35.651333999999999      33.848069000000002
  6827   2      34.378064999999999      36.049869000000001      35.303404999999998
  6828   5      9.7440309999999997      29.076423999999999      29.798632000000001
  6829   2               10.361388      29.793424000000002               29.961437
  6830   2      9.0611890000000006                29.19406      30.463861999999999
  6831   5               37.482478      2.4995949999999998      43.118478000000003
  6832   2               37.376759      1.5720959999999999      42.894213999999998
  6833   2               38.432924                2.638493      43.116694000000003
  6834   5      41.363737999999998               24.423337      16.247689999999999
  6835   2               41.079898      23.574695999999999               16.595495
  6836   2               40.674996      24.668009999999999               15.624463
  6837   5               21.933774      4.8823509999999999      6.4694200000000004
  6838   2               22.731157      5.3646900000000004                6.700189
  6839   2      22.203824999999998      4.3052200000000003      5.7506469999999998
  6840   5      33.971738000000002      21.614304000000001                25.70702
  6841   2      34.530622000000001               22.360225      25.476856999999999
  6842   2      33.189563999999997      22.013549999999999               26.096183
  6843   5      44.153385999999998               22.791528      5.3625889999999998
  6844   2      44.978765000000003               22.315731      5.2438840000000004
  6845   2      44.377918999999999               23.514695      5.9535689999999999
  6846   5      39.284182999999999      28.106210000000001      38.023878000000003
  6847   2      39.324629000000002               29.047383      38.209034000000003
  6848   2      38.969979000000002      27.715330999999999      38.843103999999997
  6849   5               20.757486      35.853552000000001                 27.3506
  6850   2               21.654097      35.899895999999998      27.010504000000001
  6851   2               20.769292      36.413338000000003               28.131076
  6852   5      22.447344999999999                3.704774      40.996080999999997
  6853   2               22.617473      4.6284049999999999      40.796866000000001
  6854   2      21.491561999999998      3.6498390000000001      41.074207000000001
  6855   5      35.316706000000003                2.921211      23.112220000000001
  6856   2      36.202368999999997      3.1455229999999998      22.817243999999999
  6857   2      35.141421000000001      3.5357910000000001               23.829304
  6858   5      3.8014969999999999      27.460391000000001      7.3123469999999999
  6859   2      4.0296799999999999      28.281562999999998      7.7543139999999999
  6860   2      4.1505970000000003                27.56307                  6.4234
  6861   5      9.3332499999999996      40.874020999999999      2.6820010000000001
  6862   2      8.8160299999999996      40.076267000000001      2.8154110000000001
  6863   2                9.124701      41.423257999999997      3.4419279999999999
  6864   5      8.1647449999999999      19.370567000000001      8.6694370000000003
  6865   2      8.9799849999999992      19.484332999999999      8.1753060000000009
  6866   2                7.720415      18.640226999999999      8.2314679999999996
  6867   5      40.468786000000001               23.379434      6.9915570000000002
  6868   2      39.839343999999997      23.374859000000001      7.7164760000000001
  6869   2      41.148805000000003               23.997985      7.2701450000000003
  6870   5      38.089314999999999      42.084269999999997      43.010275999999998
  6871   2      37.827159000000002      41.528187000000003      42.272868000000003
  6872   2      37.608424999999997      42.904390999999997      42.873202999999997
  6873   5      3.4429979999999998      11.644970000000001      23.592500999999999
  6874   2      3.5442079999999998               11.491968      22.650124999999999
  6875   2      4.3342010000000002                11.57105               23.943123
  6876   5               29.355138      36.623072999999998      3.4392740000000002
  6877   2      29.664197000000001      36.309992999999999      2.5859350000000001
  6878   2      29.343285999999999      35.837259000000003      3.9915389999999999
  6879   5      23.945578999999999               13.808864      37.153815999999999
  6880   2               23.947889               14.068241      38.078176999999997
  6881   2      23.828652000000002               14.633371      36.675111000000001
  6882   5      9.9424119999999991      44.438733999999997      42.304374000000003
  6883   2      10.301824999999999      43.550545999999997      42.243799000000003
  6884   2      9.6047999999999991      44.619914000000001      41.423560000000002
  6885   5      27.862265000000001      44.324264999999997      42.053868999999999
  6886   2      27.284348999999999      43.579709999999999               41.871178
  6887   2      28.606857999999999               43.938775      42.522505000000002
  6888   5      26.189789000000001      40.701799999999999      35.337587999999997
  6889   2      25.259578000000001               40.616591      35.115837999999997
  6890   2               26.336713      40.032514999999997      36.010724000000003
  6891   5      42.701963999999997      18.170221000000002      33.544910000000002
  6892   2      43.273837999999998               17.988457               32.795479
  6893   2      43.011479000000001      19.014866999999999               33.881681
  6894   5     0.70927799999999996      26.494969000000001      1.6267860000000001
  6895   2      1.5414920000000001      26.688003999999999      1.1887430000000001
  6896   2     0.96282500000000004      26.231877999999998      2.5151210000000002
  6897   5      14.336354999999999      8.1924880000000009      44.024653999999998
  6898   2               14.376398      9.1352510000000002      44.201630000000002
  6899   2      13.435860999999999      7.9456170000000004      44.250058000000003
  6900   5               13.120118      9.0888369999999998      17.421963999999999
  6901   2                14.01295      9.1892689999999995      17.083600000000001
  6902   2                13.19871      9.2747860000000006      18.361052999999998
  6903   5      41.556283000000001                16.74042      36.135055000000001
  6904   2      42.313490999999999      16.158086999999998      36.231225999999999
  6905   2      41.359307000000001      16.722149999999999      35.195103000000003
  6906   5      22.222031999999999               27.391613      42.955573000000001
  6907   2      22.232185999999999      28.250471999999998      43.384504999999997
  6908   2      22.758410999999999               27.512121      42.167907999999997
  6909   5      8.3977540000000008               26.769582               26.374665
  6910   2      8.2829370000000004               25.992245      25.823042000000001
  6911   2      9.2084679999999999      27.172291999999999      26.053402999999999
  6912   5               17.032826      22.459202999999999      43.284872999999997
  6913   2      17.179275000000001               23.311919      43.700991000000002
  6914   2      17.546113999999999      22.498339999999999                42.47392
  6915   5      19.431809999999999               18.443199      6.5155370000000001
  6916   2      20.336182000000001      18.249683999999998      6.2578760000000004
  6917   2      19.517555999999999      19.097587000000001                7.213438
  6918   5      25.019950000000001      18.525207999999999      34.581015999999998
  6919   2               25.390566      19.173477999999999      35.184435000000001
  6920   2      25.607738999999999               18.543008      33.821522999999999
  6921   5      28.114961999999998      33.126409000000002      3.4112230000000001
  6922   2      28.313984000000001               32.628681                2.614741
  6923   2      28.222218999999999      32.490313999999998      4.1229250000000004
  6924   5      23.668423000000001      7.9812919999999998      27.032087000000001
  6925   2      23.623495999999999      8.5340059999999998      27.815805000000001
  6926   2      23.120577000000001      8.4364369999999997               26.387611
  6927   5      41.897798000000002      16.666063999999999      38.533684000000001
  6928   2      42.856982000000002      16.669602000000001      38.492711999999997
  6929   2      41.662432000000003      15.734811000000001      38.530154000000003
  6930   5                1.821612      18.696957999999999      1.2575860000000001
  6931   2                1.858438      17.886012000000001     0.74500999999999995
  6932   2      2.4499870000000001               18.557157      1.9704969999999999
  6933   5      7.1568610000000001               14.087524               30.881446
  6934   2      7.3212669999999997               13.248434      31.318049999999999
  6935   2      6.9114149999999999      14.683020000000001      31.594035000000002
  6936   5               15.464985      43.496268000000001      42.397702000000002
  6937   2      16.161587000000001      44.112974000000001      42.634650000000001
  6938   2               14.772463      43.659382999999998      43.043030999999999
  6939   5      41.258656000000002     0.99458500000000005      8.0621679999999998
  6940   2               41.529795                1.910066      8.1626840000000005
  6941   2      41.853897000000003                0.641374      7.3961569999999996
  6942   5                25.51876      39.443908999999998      38.687513000000003
  6943   2      26.404641000000002      39.077398000000002      38.738587000000003
  6944   2               25.489379               40.095692      39.392465999999999
  6945   5      11.062602999999999      33.449742999999998               15.736817
  6946   2      11.863276000000001      33.977364000000001               15.689249
  6947   2               10.555097      33.716562000000003      14.966176000000001
  6948   5      7.5247460000000004      16.854558000000001      34.522311000000002
  6949   2      8.1459670000000006      17.525687000000001      34.230086999999997
  6950   2      7.2535230000000004               17.145263      35.396707999999997
  6951   5      4.2791009999999998               34.721871      2.1099190000000001
  6952   2      3.5563359999999999               34.356164      2.6252779999999998
  6953   2      4.9871210000000001      34.079439999999998      2.2028289999999999
  6954   5               28.271542      12.689247999999999               11.851848
  6955   2               27.546979      12.103922000000001      11.619194999999999
  6956   2      27.986101999999999               13.554527      11.547777999999999
  6957   5      4.4025889999999999               21.132628                30.91122
  6958   2                4.979012      20.503254999999999      30.471503999999999
  6959   2                3.587663               21.104678      30.403521999999999
  6960   5      44.984411999999999      41.170459000000001      20.413277999999998
  6961   2      45.000492000000001      41.605587999999997      19.557632000000002
  6962   2      44.586111000000002               41.816609      21.001912000000001
  6963   5               21.109482      3.7356929999999999      2.0315150000000002
  6964   2      20.385808999999998                3.176072                2.322797
  6965   2      20.680641000000001                 4.45221      1.5568139999999999
  6966   5      31.066262999999999      5.2341420000000003      30.596126000000002
  6967   2      31.496179999999999      4.5036050000000003      31.046917000000001
  6968   2               30.383291      4.8175169999999996      30.064509999999999
  6969   5      40.968864000000004               10.801335      31.319047000000001
  6970   2      40.601143999999998      9.9154979999999995               31.361476
  6971   2      41.724390999999997      10.774497999999999      31.911584999999999
  6972   5      6.2877770000000002      34.715981999999997      33.190345999999998
  6973   2      5.6340539999999999      34.013744000000003               33.155237
  6974   2      5.8316949999999999      35.484167999999997      32.837471000000001
  6975   5               43.580154               29.558992      8.4374950000000002
  6976   2      43.792853999999998      28.752293000000002      7.9623939999999997
  6977   2      43.284680000000002      30.166827999999999      7.7549469999999996
  6978   5      15.512128000000001      43.875323000000002               10.821534
  6979   2      15.968643999999999      43.585763999999998      11.614928000000001
  6980   2               15.289213      43.060710999999998               10.363977
  6981   5      35.669659000000003      29.757930999999999     0.95490299999999995
  6982   2      34.884127999999997      29.321100999999999     0.61749200000000004
  6983   2      35.397145999999999               30.116768      1.8032029999999999
  6984   5               19.139232      29.379045999999999                6.973268
  6985   2               19.912046      29.494745999999999      7.5310269999999999
  6986   2      19.219391000000002      28.482583000000002                6.637753
  6987   5      33.026539999999997      31.543728000000002      37.439352999999997
  6988   2      32.697234000000002               30.823096      36.897160999999997
  6989   2      33.949252999999999      31.324825000000001      37.592072000000002
  6990   5      40.933660000000003                3.970853      8.6559860000000004
  6991   2      40.586078000000001      4.8274619999999997      8.9150880000000008
  6992   2      41.543765999999998      4.1675579999999997      7.9406410000000003
  6993   5      28.722819000000001      1.2156309999999999      43.477325999999998
  6994   2      27.779710999999999      1.2069179999999999      43.656759999999998
  6995   2      28.864108999999999      2.0273870000000001      42.983634000000002
  6996   5      7.1731090000000002      21.081482999999999               28.386018
  6997   2                6.924391      21.786128000000001               27.783241
  6998   2      6.8026669999999996      21.348704000000001      29.231007999999999
  6999   5      32.510888000000001      8.8227329999999995      41.152234999999997
  7000   2      32.255262000000002      8.4032560000000007      40.327359999999999
  7001   2      31.720973000000001      9.2889079999999993               41.437469
  7002   5               33.346187      19.910647999999998      3.4942739999999999
  7003   2      33.463641000000003      20.576108999999999      4.1762499999999996
  7004   2      34.139688999999997      19.371987000000001      3.5475729999999999
  7005   5               39.114227      12.577761000000001               41.682091
  7006   2      39.242699999999999               13.409983      42.143205000000002
  7007   2      39.865597000000001               12.516532      41.086829000000002
  7008   5      19.981757999999999                5.317075      26.809857000000001
  7009   2               19.375888      4.6793389999999997      26.425229000000002
  7010   2      20.013283999999999                5.084333               27.741242
  7011   5      28.235589999999998      7.9231170000000004               10.279698
  7012   2      28.909883000000001      8.0489409999999992      10.951428999999999
  7013   2      28.223064000000001      6.9745239999999997      10.129179000000001
  7014   5      7.8825279999999998      38.299084000000001      44.845078999999998
  7015   2      8.4697239999999994      39.056381000000002      44.786526000000002
  7016   2      7.0148900000000003      38.681454000000002      44.998826999999999
  7017   5      29.572327999999999      6.7832319999999999     0.73277300000000001
  7018   2      28.798749999999998      6.2172200000000002     0.67861899999999997
  7019   2               29.766745      6.8320650000000001                1.672166
  7020   5                9.255198      30.521011000000001               22.538214
  7021   2      9.4058159999999997      31.434633000000002      22.791855000000002
  7022   2      9.8801550000000002      30.365266999999999               21.825602
  7023   5               11.130234      25.588563000000001      41.930405999999998
  7024   2      11.852601999999999      26.174790000000002      42.167574000000002
  7025   2               11.384069      25.231058999999998      41.075771000000003
  7026   5      9.1582080000000001      25.416817000000002               19.789918
  7027   2      9.4816570000000002               26.317352      19.711546999999999
  7028   2      9.2466799999999996      25.053837999999999      18.905010999999998
  7029   5                 3.40286      16.361754000000001      32.543743999999997
  7030   2      4.2866280000000003      16.005891999999999      32.662244000000001
  7031   2                3.382056               17.140473      33.105710000000002
  7032   5      26.909141000000002      3.9654820000000002      5.8338650000000003
  7033   2      27.859684000000001      3.8733219999999999      5.7353779999999999
  7034   2      26.561516000000001      3.8053599999999999      4.9528650000000001
  7035   5      31.085944000000001      36.226314000000002               33.065531
  7036   2      31.024940000000001      36.991491000000003      33.642164999999999
  7037   2      31.950223999999999      36.306128999999999      32.654079000000003
  7038   5      3.6060400000000001               22.681068      2.3571049999999998
  7039   2      3.2652160000000001      21.922681999999998                1.877089
  7040   2                2.921818      23.348863999999999      2.2647330000000001
  7041   5      41.385900999999997      40.040711999999999      15.678027999999999
  7042   2      40.428978000000001      40.079279999999997               15.745376
  7043   2      41.633935000000001      40.894480000000001               15.314432
  7044   5      16.760514000000001      23.334185999999999      6.6666220000000003
  7045   2      16.471095999999999                24.21443                6.415362
  7046   2      16.042059999999999               22.991342      7.2041380000000004
  7047   5      33.097876999999997      8.1574290000000005               15.416344
  7048   2      33.464871000000002      7.4578930000000003               14.870735
  7049   2               33.832335      8.4406350000000003      15.966806999999999
  7050   5      30.937871000000001      8.5361779999999996      21.663060999999999
  7051   2      30.905605000000001                9.468553      21.436433000000001
  7052   2      31.473057000000001      8.5028950000000005               22.459999
  7053   5      45.000244000000002      15.431699999999999      4.1704100000000004
  7054   2      44.997174000000001               15.198661      3.2390629999999998
  7055   2      44.929096000000001      16.389582999999998      4.1767500000000002
  7056   5      31.638525999999999      29.637001000000001      6.8747769999999999
  7057   2      32.100630000000002               29.192273      7.5892010000000001
  7058   2      30.956828999999999      29.015042999999999      6.6081329999999996
  7059   5      42.001790999999997      30.827514000000001      38.015386999999997
  7060   2      42.857973000000001      30.545846999999998      37.684719999999999
  7061   2      41.920575999999997               31.738374      37.721482000000002
  7062   5                5.328519      16.219989999999999      36.912702000000003
  7063   2      5.9774149999999997      15.684297000000001      36.450434000000001
  7064   2      5.7954660000000002      17.033124999999998      37.121062000000002
  7065   5                 0.01013      6.6151470000000003               36.897264
  7066   2     0.88528899999999999      6.9670670000000001      36.718452999999997
  7067   2 -0.00031399999999999999      5.7642660000000001      36.451692000000001
  7068   5      26.027515000000001      15.872142999999999               11.477895
  7069   2      26.153376000000002      16.753308000000001                11.83766
  7070   2      26.103301999999999      15.290863999999999               12.238825
  7071   5      23.534393999999999               24.746502                1.157535
  7072   2      23.555451000000001               25.702164                1.068138
  7073   2               23.907021      24.421717999999998     0.33394200000000002
  7074   5      33.047342999999998      5.0875870000000001      36.558424000000002
  7075   2      33.174486000000002      4.3440099999999999      35.964579000000001
  7076   2      32.117835999999997      5.0459550000000002      36.797013999999997
  7077   5      41.727716999999998               17.567418      26.516649000000001
  7078   2      41.302453999999997               17.977684               27.273325
  7079   2      41.096944000000001      17.676473999999999      25.800495999999999
  7080   5      3.5756320000000001      43.239606000000002      3.3131149999999998
  7081   2      3.7346370000000002      42.697701000000002      2.5367250000000001
  7082   2      3.0773929999999998      43.990903000000003      2.9815230000000001
  7083   5               20.499492                3.603999      4.5782119999999997
  7084   2      20.597584000000001                 2.65761      4.4499529999999998
  7085   2      19.604876000000001      3.7930259999999998                4.283976
  7086   5      41.191009000000001      44.044184000000001      30.335533999999999
  7087   2      42.078490000000002               43.759093      30.105695999999998
  7088   2      41.217449999999999      45.000326000000001      30.247589000000001
  7089   5      18.039833000000002      37.931489999999997      5.8344670000000001
  7090   2               17.861487      38.465670000000003      5.0569269999999999
  7091   2      18.813151000000001      37.414042000000002      5.5959979999999998
  7092   5      4.6533879999999996      4.5473460000000001      8.0214739999999995
  7093   2      5.5326849999999999      4.7757370000000003      8.3319550000000007
  7094   2                4.808573      3.9880849999999999      7.2561070000000001
  7095   5      3.8648980000000002      25.828365999999999      32.956943000000003
  7096   2      4.2233549999999997               25.442532      32.154218999999998
  7097   2      2.9203929999999998      25.886849000000002      32.792228999999999
  7098   5     0.46247300000000002      32.372900999999999      31.287023999999999
  7099   2                1.064648      33.026831999999999      31.649629999999998
  7100   2  -0.0019870000000000001      32.025893000000003      32.052860000000003
  7101   5      9.9762299999999993      21.523392999999999      9.1829610000000006
  7102   2      9.1731239999999996      21.170435999999999      9.5730470000000008
  7103   2      9.8028779999999998               21.522226      8.2381910000000005
  7104   5      14.036407000000001      5.6581590000000004      20.813089999999999
  7105   2      13.900347999999999      4.8837479999999998      21.363997999999999
  7106   2               14.886155      6.0055389999999997      21.095753999999999
  7107   5      13.643784999999999      14.626262000000001      26.534586999999998
  7108   2               13.664317      13.681082999999999      26.701734999999999
  7109   2               12.891335               14.748766      25.950244999999999
  7110   5      28.096029000000001      24.311807999999999      9.9155300000000004
  7111   2      27.335685000000002               24.405884               10.494107
  7112   2      28.298881000000002      25.209503000000002      9.6405060000000002
  7113   5      41.313360000000003      17.591594000000001      22.708203000000001
  7114   2      40.363236000000001      17.609466999999999      22.571567999999999
  7115   2      41.675462000000003               17.396867      21.840098999999999
  7116   5      5.8526639999999999      26.236501000000001               15.797198
  7117   2      6.3462860000000001      25.690366999999998               16.413477
  7118   2      6.2075990000000001      27.119955000000001               15.924367
  7119   5      34.720931999999998      19.027256999999999      29.728387999999999
  7120   2      34.719608000000001      19.637996999999999      28.987632000000001
  7121   2      34.849066999999998      18.164567000000002      29.325907000000001
  7122   5               10.452653      8.3382550000000002      12.267442000000001
  7123   2               10.319098      9.2504980000000003               11.999672
  7124   2      11.121346000000001      8.3871210000000005               12.955268
  7125   5      23.789332000000002      37.725214999999999               11.308111
  7126   2      22.903670999999999      37.478789999999996      11.584885999999999
  7127   2      24.334807000000001      36.975439000000001      11.558979000000001
  7128   5      37.756402000000001      6.9927339999999996               15.172297
  7129   2      37.592354999999998                7.836576               14.744811
  7130   2               38.709142      6.9672159999999996               15.291789
  7131   5      43.690564999999999               39.949672      44.410375999999999
  7132   2      43.233468999999999      40.723942999999998      44.746966999999998
  7133   2      43.421066000000003      39.239395000000002      44.998184999999999
  7134   5      20.791730999999999      39.251992000000001                1.257603
  7135   2      20.340872999999998      38.475498999999999     0.91773199999999999
  7136   2      21.596140999999999      38.906669000000001      1.6529739999999999
  7137   5      32.052171000000001      33.285955000000001      29.761306999999999
  7138   2      31.451969999999999               33.641264      29.101579000000001
  7139   2      31.476347000000001      32.972321999999998      30.463235000000001
  7140   5      17.880642999999999     0.82001500000000005      6.4338920000000002
  7141   2      16.961870000000001     0.87994099999999997      6.1618830000000004
  7142   2      17.866451000000001     0.23299400000000001      7.1940549999999996
  7143   5      20.888836000000001                11.73034      26.783491999999999
  7144   2      21.658436999999999      11.215196000000001      26.530380000000001
  7145   2      21.127123999999998                12.63589      26.569386999999999
  7146   5      23.866928000000001               14.827575               12.857561
  7147   2               23.095288               14.408593      12.469295000000001
  7148   2      24.089676000000001               14.269345                13.60683
  7149   5      22.521609999999999      30.468786999999999      9.1796150000000001
  7150   2      23.286954000000001      29.897217000000001      9.0832789999999992
  7151   2      22.888760000000001               31.355895      9.2093170000000004
  7152   5      30.674876000000001      43.400467999999996      36.187263000000002
  7153   2      30.726262999999999               42.972479               35.329411
  7154   2      29.780072000000001      43.223911999999999      36.488587000000003
  7155   5      32.930266000000003      21.727651999999999      37.420231999999999
  7156   2               33.110706               22.598385      37.782159999999998
  7157   2      32.838515000000001               21.876369      36.475718000000001
  7158   5      6.0252379999999999      17.272148999999999                7.925827
  7159   2      5.3283370000000003      17.107582000000001      8.5653360000000003
  7160   2      6.6648990000000001               16.573518      8.0851670000000002
  7161   5               34.537495               26.182803      26.509191000000001
  7162   2      34.060864000000002               25.903513      25.723987999999999
  7163   2      33.991416000000001      25.881056999999998      27.239526000000001
  7164   5      35.770589000000001      15.866509000000001               11.843207
  7165   2      36.322735000000002      15.309060000000001      12.396478999999999
  7166   2                35.70485               16.693151      12.327958000000001
  7167   5      17.588933999999998      28.022787000000001      25.702062999999999
  7168   2      18.140526000000001      28.752987999999998      25.411757000000001
  7169   2               17.662754               27.373607      24.997962999999999
  7170   5      28.743728999999998      1.9797689999999999      6.6081370000000001
  7171   2      28.908770000000001                1.956569      5.6626479999999999
  7172   2      28.433412000000001      1.0952379999999999                 6.81778
  7173   5      2.9320819999999999      35.572161999999999      28.235769999999999
  7174   2      3.6300840000000001      34.922904000000003      28.349710000000002
  7175   2      2.6511999999999998      35.462710000000001      27.323757000000001
  7176   5               12.596444     0.65361000000000002               14.392979
  7177   2               12.240606                1.508227      14.138548999999999
  7178   2               13.317909     0.50278500000000004      13.777037999999999
  7179   5      31.505106999999999                2.201044      4.8541590000000001
  7180   2      31.155194999999999      1.3250679999999999      5.0329100000000002
  7181   2      30.725546000000001      2.7519930000000001      4.7474759999999998
  7182   5                8.646388      34.144652999999998               16.376579
  7183   2      8.4962029999999995      34.341116999999997               15.448909
  7184   2      8.4435719999999996      34.966653999999998      16.830255999999999
  7185   5      33.890599000000002      17.424883999999999      25.541461000000002
  7186   2                34.61853      18.042653000000001      25.642469999999999
  7187   2               33.123179      17.906438999999999               25.860543
  7188   5      38.436428999999997      7.7561730000000004      40.257095999999997
  7189   2               38.566837      7.8252600000000001      39.308441999999999
  7190   2      38.380930999999997                6.811515      40.421968999999997
  7191   5      42.892983000000001      18.585218999999999      2.7502360000000001
  7192   2      42.100611000000001                18.11412                2.482024
  7193   2      43.136676000000001      18.184100999999998      3.5883050000000001
  7194   5      44.990667999999999      39.246670999999999      2.9753959999999999
  7195   2      44.927405999999998      40.198031999999998                3.087799
  7196   2      44.506297000000004      38.885618999999998      3.7221679999999999
  7197   5      18.678166999999998      7.0846359999999997               13.755018
  7198   2      18.558997000000002                7.205476      12.810072999999999
  7199   2      17.968526000000001      7.5958589999999999               14.152136
  7200   5      23.722587000000001     0.80069999999999997                15.97813
  7201   2               24.512235      1.3380780000000001               15.881143
  7202   2      23.140481999999999                1.329615               16.529532
  7203   5               15.982683      3.1403919999999999      26.164401999999999
  7204   2      16.688106000000001      3.6443539999999999      26.576865999999999
  7205   2      16.399222999999999      2.7242579999999998      25.405474999999999
  7206   5      6.5026609999999998      43.858060999999999      28.975394000000001
  7207   2      6.8823860000000003      43.023986000000001      28.689295999999999
  7208   2      6.1865480000000002      43.683297000000003      29.865435000000002
  7209   5      4.0094700000000003      13.386291999999999               31.073045
  7210   2      4.1022340000000002               12.556032               31.546108
  7211   2      4.9008969999999996               13.596748               30.783721
  7212   5                 6.66235      23.937059000000001               11.740122
  7213   2      6.1185299999999998                24.70673      11.556843000000001
  7214   2      6.1520830000000002      23.430845000000001               12.377316
  7215   5               17.904052      42.451135000000001      37.667102999999997
  7216   2      17.115476999999998      41.966850000000001      37.922722999999998
  7217   2      17.614954000000001      43.012492999999999      36.943263999999999
  7218   5               11.730674      38.890591999999998      4.2816530000000004
  7219   2               11.632111      38.980893999999999      3.3309389999999999
  7220   2               11.021148      38.296714999999999      4.5395779999999997
  7221   5      25.265924999999999      32.292444000000003      5.5670089999999997
  7222   2      26.053705999999998      31.771301000000001      5.7388709999999996
  7223   2      24.941434000000001      31.963467999999999      4.7249150000000002
  7224   5      3.9554269999999998               18.729308      14.744562999999999
  7225   2      3.4255239999999998               19.529802               14.756275
  7226   2                4.771134               18.976844      15.187269000000001
  7227   5      32.098652999999999      7.2435559999999999      43.232107999999997
  7228   2      31.661080999999999      7.1725459999999996      42.380513000000001
  7229   2      32.441873000000001      8.1405119999999993      43.249760999999999
  7230   5               15.808864     0.63777099999999998      38.959631000000002
  7231   2      16.749234999999999     0.44727699999999998      38.925870000000003
  7232   2               15.750529                  1.4658      39.442960999999997
  7233   5      38.418368999999998      18.995108999999999      40.788507000000003
  7234   2      39.192731999999999      18.532706999999998      41.117553999999998
  7235   2               38.385897      19.803843000000001      41.305746999999997
  7236   5               44.095644      10.436268999999999      29.994886999999999
  7237   2               43.405144               11.025674               30.307195
  7238   2      44.240228999999999      9.8300090000000004      30.725767999999999
  7239   5      5.9419560000000002      35.566175999999999               10.879298
  7240   2                  5.8689      35.672975000000001      9.9279919999999997
  7241   2                5.499879      34.732844999999998               11.060319
  7242   5      17.478923000000002      41.176157000000003      6.1772819999999999
  7243   2      16.696269000000001                41.48518      5.7150249999999998
  7244   2      17.932051999999999      40.623288000000002      5.5356810000000003
  7245   5      28.909818999999999      31.354458000000001      6.1638789999999997
  7246   2               28.786686      30.793762999999998                6.933414
  7247   2               29.738329      31.055185000000002      5.7809299999999997
  7248   5               14.557513      39.125039999999998               27.432447
  7249   2      13.860958999999999      38.717590999999999      27.952566000000001
  7250   2      14.201814000000001      39.983235000000001      27.188269999999999
  7251   5               10.426387               20.635316      18.206402000000001
  7252   2               10.498851      21.517510000000001      17.834638000000002
  7253   2      11.273521000000001      20.486450999999999      18.634004999999998
  7254   5      35.661656999999998               42.170358               11.663131
  7255   2      36.455201000000002      42.709345999999996      11.624332000000001
  7256   2      35.855120999999997               41.419967      11.095568999999999
  7257   5      38.386969000000001      10.198361999999999      39.954571999999999
  7258   2      37.592674000000002      9.8372039999999998               40.355055
  7259   2      38.315102000000003               11.145873      40.094923999999999
  7260   5               42.542465      9.8832900000000006      19.025511000000002
  7261   2               42.687787      9.7322389999999999               18.088607
  7262   2      41.965994000000002      9.1642810000000008      19.296341999999999
  7263   5               29.703381      37.122033000000002      12.623587000000001
  7264   2      29.566521999999999      36.172502000000001               12.586373
  7265   2      30.649446000000001      37.221535000000003      12.756640000000001
  7266   5      11.387677999999999               41.674985      3.1416590000000002
  7267   2      12.063510000000001      41.129942999999997      3.5514199999999998
  7268   2      11.366051000000001      42.471463999999997      3.6781229999999998
  7269   5      31.719308999999999      11.455287999999999      38.443202999999997
  7270   2      30.985358000000002      11.376158999999999                37.82938
  7271   2               32.462114               11.061401      37.978727999999997
  7272   5      7.5075570000000003      3.8186140000000002      32.109214999999999
  7273   2      7.6684659999999996      4.7631670000000002      32.048785000000002
  7274   2      6.6955390000000001                3.682941               31.614379
  7275   5     0.84369000000000005      25.786861999999999               19.419221
  7276   2                1.672963      25.983792999999999      18.977350000000001
  7277   2     0.83203000000000005      24.828887000000002      19.488434999999999
  7278   5               18.471954      15.876258999999999      44.246220999999998
  7279   2               18.826635               15.243933      44.875577999999997
  7280   2      18.250862000000001      16.644403000000001      44.778869999999998
  7281   5      41.428393999999997      34.898656000000003                 27.8979
  7282   2               42.306905               34.592571      27.660716000000001
  7283   2      41.284236999999997      34.548667999999999      28.780719000000001
  7284   5      27.332429000000001      37.063478000000003      36.559403000000003
  7285   2      26.739481999999999               37.553151               37.134172
  7286   2      27.810389000000001      37.742123999999997      36.076045000000001
  7287   5               38.064352      20.758607999999999      35.198644999999999
  7288   2      38.066361999999998      21.283415000000002      36.002571000000003
  7289   2      38.886369999999999               20.991616      34.759742000000003
  7290   5      17.923224999999999                13.33113      26.247714999999999
  7291   2               17.444322      13.125069999999999      25.441541000000001
  7292   2      17.262495999999999               13.263009      26.941573000000002
  7293   5      12.569572000000001               12.892766      38.011150999999998
  7294   2      13.171284999999999               12.660781      37.299920999999998
  7295   2               12.098169      13.662686000000001      37.683058000000003
  7296   5                0.232903      32.978476999999998      12.732659999999999
  7297   2     0.49469099999999999      33.869079999999997      12.977646999999999
  7298   2  -0.0014400000000000001      32.561235000000003               13.565507
  7299   5      30.708283000000002      34.495311000000001      36.636665999999998
  7300   2      30.021446999999998      35.147492999999997      36.479694000000002
  7301   2               30.503245      34.137152999999998               37.504033
  7302   5      23.184861000000001      19.906790000000001      34.458666000000001
  7303   2      22.626996999999999      20.676196000000001      34.594777999999998
  7304   2      22.578064000000001      19.163029999999999      34.494176000000003
  7305   5                20.75318      33.960648999999997      22.522255999999999
  7306   2               20.946776      34.775126999999998      22.992225000000001
  7307   2      21.271018000000002      33.292940000000002               22.979039
  7308   5               13.212702                9.177543               23.297608
  7309   2               12.895583      9.0986010000000004      22.394874000000002
  7310   2      13.898485000000001      9.8485309999999995      23.251598000000001
  7311   5      29.752320999999998      27.610627999999998      3.3081330000000002
  7312   2      29.081648999999999      28.034428999999999      2.7674699999999999
  7313   2      29.435684999999999      27.718164000000002      4.2085879999999998
  7314   5      5.0038919999999996               38.793695      37.628788999999998
  7315   2      4.0659320000000001      38.856653999999999      37.433874000000003
  7316   2      5.3137410000000003      39.702598000000002      37.605738000000002
  7317   5               21.867576                1.309272                25.43787
  7318   2      21.974924999999999      2.2514349999999999      25.287769000000001
  7319   2      21.099167000000001      1.2451140000000001      26.010646000000001
  7320   5      13.116625000000001                3.892833               10.202627
  7321   2      13.900301000000001                3.518732               10.612047
  7322   2               12.668153      3.1383000000000001      9.8125049999999998
  7323   5               24.040889               26.606019                3.268999
  7324   2      23.287490999999999               27.017623      2.8392330000000001
  7325   2      23.696763000000001      25.776962999999999      3.6108820000000001
  7326   5      26.319444000000001      33.968231000000003      10.038983999999999
  7327   2                 25.4495      34.310975999999997      10.256811000000001
  7328   2      26.808547999999998      34.736229000000002      9.7330430000000003
  7329   5      12.728730000000001      20.909275999999998      7.7581689999999996
  7330   2               12.040599      20.943415000000002      7.0895619999999999
  7331   2               12.752409      21.798114999999999      8.1215499999999992
  7332   5      20.577622999999999      39.351019999999998      27.230149999999998
  7333   2               19.809701      38.808655000000002               27.424726
  7334   2      20.397618000000001      39.715761999999998               26.359976
  7335   5      17.320146999999999      21.666025000000001      32.761828000000001
  7336   2      16.549721000000002      21.390364999999999               33.264004
  7337   2      17.987438999999998               21.846439      33.428772000000002
  7338   5               22.188468                1.295385      22.688365000000001
  7339   2      22.349613000000002     0.36807899999999999      22.498995000000001
  7340   2      22.807169999999999      1.5060070000000001               23.392274
  7341   5      36.365704999999998      28.206237999999999      39.456470000000003
  7342   2      36.801519999999996      27.976731999999998      38.632384999999999
  7343   2      36.173845999999998      27.360009999999999      39.868453000000002
  7344   5      29.686554999999998      2.7761040000000001               30.481828
  7345   2      28.753143000000001      2.5704880000000001      30.572320999999999
  7346   2      30.126816999999999                2.142674      31.054172000000001
  7347   5      7.9187779999999997      32.874192000000001      44.825242000000003
  7348   2      8.3063319999999994      33.015360000000001      43.958294000000002
  7349   2      7.2409290000000004      33.551014000000002      44.896470999999998
  7350   5      7.3869280000000002      17.986318000000001               26.553293
  7351   2                 6.81717      17.322172999999999                26.15831
  7352   2      7.4941959999999996      18.648074999999999               25.865389
  7353   5                4.931076     0.38076100000000002      1.6996420000000001
  7354   2      5.7748290000000004                0.004927      1.4378139999999999
  7355   2      4.3406000000000002                 0.17146     0.97151100000000001
  7356   5      30.486761999999999      38.290584000000003                4.323518
  7357   2      30.881029000000002      37.631262999999997                4.899343
  7358   2               31.112942      38.381002000000002      3.6007699999999998
  7359   5      10.543131000000001      18.027502999999999      4.2092580000000002
  7360   2                9.889462      17.492892999999999      3.7524920000000002
  7361   2               10.862549               17.461102                4.916226
  7362   5      26.915783000000001               26.862797     0.60396099999999997
  7363   2      27.375008999999999      26.025828000000001     0.70554600000000001
  7364   2      26.193892999999999      26.667062999999999                0.001297
  7365   5      22.562975000000002               13.977197      8.0842690000000008
  7366   2      23.357317999999999      13.539104999999999      8.3986249999999991
  7367   2      22.197476000000002      13.371054000000001      7.4349280000000002
  7368   5      9.1335180000000005      30.329861000000001      9.2084480000000006
  7369   2      8.6444609999999997      31.146802999999998      9.0853470000000005
  7370   2      9.9149589999999996      30.591802000000001      9.7017819999999997
  7371   5      13.179168000000001      38.549807000000001      6.6531779999999996
  7372   2               13.738705      39.329886999999999      6.6423030000000001
  7373   2      13.220651999999999      38.214075000000001      5.7541760000000002
  7374   5      42.481836000000001     0.69308000000000003      42.894350000000003
  7375   2      41.552498999999997     0.92486599999999997      42.960177999999999
  7376   2      42.719866000000003     0.40825699999999998      43.780273000000001
  7377   5      18.835823999999999      7.1917479999999996               40.345157
  7378   2               18.447595      6.9453889999999996               41.187956
  7379   2      18.135978000000001      7.0365479999999998      39.705806000000003
  7380   5      27.302275000000002               40.315137      27.769466000000001
  7381   2      28.000239000000001      40.549613999999998               28.385576
  7382   2      27.767831999999999      40.011266999999997      26.986163999999999
  7383   5      6.0083390000000003      24.948965000000001      33.817979000000001
  7384   2      6.1889339999999997               25.887217      33.911754999999999
  7385   2      5.2698239999999998      24.787901999999999      34.410680999999997
  7386   5      40.922691999999998      12.802694000000001                1.579936
  7387   2      41.106229999999996      12.732905000000001     0.64016600000000001
  7388   2      41.467488000000003               12.120542                1.980572
  7389   5      35.076906999999999               11.613154                14.96454
  7390   2      35.822065000000002      11.215654000000001      14.507968999999999
  7391   2      34.369231999999997                10.97052               14.870417
  7392   5                1.202156               21.301613      7.3231900000000003
  7393   2     0.67635699999999999               20.800739      6.6951890000000001
  7394   2      2.0997859999999999               21.237392      6.9873669999999999
  7395   5      36.553617000000003                2.281269      5.0930780000000002
  7396   2      35.927511000000003      2.9720659999999999      5.3222399999999999
  7397   2      37.083880999999998      2.6639140000000001      4.3894840000000004
  7398   5      17.644459999999999      30.750640000000001               30.999813
  7399   2      17.944946999999999      31.646705999999998      30.830998000000001
  7400   2      18.408135000000001      30.311143999999999               31.382285
  7401   5      8.8673289999999998      23.506958000000001      24.543199000000001
  7402   2      9.0362869999999997      23.974557999999998      25.364495000000002
  7403   2      9.7139299999999995      23.115949000000001      24.312937000000002
  7404   5      44.996585000000003      11.007493999999999      3.3597990000000002
  7405   2      44.997067000000001               10.051136                3.444086
  7406   2      44.163612000000001               11.208161      2.9255969999999998
  7407   5               36.947848      9.1610910000000008      25.617052000000001
  7408   2      37.056806999999999      8.6480820000000005      26.421213000000002
  7409   2      37.597659999999998      8.7957789999999996      25.011302000000001
  7410   5      33.816819000000002      32.076923000000001               16.081605
  7411   2      34.372267999999998      31.348085000000001               15.795254
  7412   2      34.283605999999999      32.451579000000002                16.83286
  7413   5               14.712372      10.465833999999999      21.170456000000001
  7414   2               14.914664      9.5495730000000005      20.967307000000002
  7415   2               15.384287               10.722894      21.806923999999999
  7416   5      18.883272000000002      43.479078000000001      9.7292280000000009
  7417   2               18.247584      43.715530999999999      9.0497309999999995
  7418   2      19.262816999999998      42.651522999999997      9.4230590000000003
  7419   5      29.471468999999999      38.174821000000001      31.074839000000001
  7420   2      29.586438000000001      39.117204000000001      31.217746999999999
  7421   2      29.862128999999999      38.015104999999998      30.211984000000001
  7422   5                 26.9755               27.392716      2.7363439999999999
  7423   2               27.136094      27.140277999999999      3.6485989999999999
  7424   2      26.044909000000001               27.200474      2.5960420000000002
  7425   5      28.941158999999999      29.121186999999999      38.792901999999998
  7426   2      29.114177999999999      29.576229999999999      37.965420999999999
  7427   2      29.345137000000001      29.680223000000002      39.461424999999998
  7428   5      6.1192200000000003      14.758639000000001      43.114347000000002
  7429   2      6.9243379999999997               14.242863      43.027828999999997
  7430   2      6.3145429999999996               15.390499      43.810941999999997
  7431   5      4.6496750000000002      39.358111999999998      9.1416269999999997
  7432   2      4.1543989999999997      38.643447000000002      8.7345889999999997
  7433   2      4.4866919999999997      40.115090000000002      8.5732400000000002
  7434   5      7.2849110000000001               26.744975    0.048784000000000001
  7435   2      6.8722190000000003      25.879490000000001  0.00036299999999999999
  7436   2      7.9069219999999998      26.672118999999999     0.77709600000000001
  7437   5                 7.90524      32.908631999999997      7.0170890000000004
  7438   2                7.048934      33.299263000000003      6.8276880000000002
  7439   2      8.4761050000000004      33.234417999999998      6.3166469999999997
  7440   5      12.478626999999999      8.1363500000000002      4.4240550000000001
  7441   2      12.756301000000001      9.0158959999999997      4.6905520000000003
  7442   2               12.718423      7.5755499999999998      5.1661080000000004
  7443   5      28.434242000000001      32.976429000000003      40.403091000000003
  7444   2      28.937076000000001      33.313912999999999               41.148066
  7445   2               28.435285      32.023865999999998      40.526640999999998
  7446   5      41.606757999999999      15.564353000000001                0.790358
  7447   2      40.951994999999997                15.81976     0.13631099999999999
  7448   2      42.388590000000001      15.351495999999999                0.274536
  7449   5      2.4014600000000002                 31.0992               18.094531
  7450   2      3.0048550000000001      30.648631000000002               17.499025
  7451   2      2.3495200000000001      30.523634000000001      18.861778999999999
  7452   5      17.675163000000001      30.801511999999999      12.736827999999999
  7453   2      17.414829999999998      30.622720000000001      11.830194000000001
  7454   2      16.846226000000001      30.956030999999999               13.196861
  7455   5      43.051274999999997      39.346364999999999               11.807221
  7456   2      43.029608000000003      38.410035999999998               11.596169
  7457   2      43.793680999999999      39.687505999999999               11.302147
  7458   5      28.324901000000001      30.107600999999999      44.310420000000001
  7459   2      29.236561999999999               30.296491      44.076075000000003
  7460   2      28.117163999999999      30.748156999999999      44.995384000000001
  7461   5      35.670140000000004                2.949668               26.350959
  7462   2               36.604568      2.9305099999999999      26.570509999999999
  7463   2      35.317459999999997      3.6749830000000001      26.872665000000001
  7464   5      37.598551999999998               10.502278      37.161340000000003
  7465   2      38.074750000000002               11.229535      36.753836999999997
  7466   2               37.017032               10.925167                37.79824
  7467   5      8.9516089999999995      35.698290999999998      19.013621000000001
  7468   2      8.7235720000000008      36.623708000000001      19.129066000000002
  7469   2      8.2787769999999998      35.223455999999999                19.50806
  7470   5               13.518981      8.1115910000000007      14.517955000000001
  7471   2               12.595734      8.2151150000000008               14.760078
  7472   2               13.904173                7.623418      15.250045999999999
  7473   5               17.511799      18.475345999999998      7.8499359999999996
  7474   2               17.674401      19.238696000000001      8.4090249999999997
  7475   2      16.880324000000002               17.947367      8.3450319999999998
  7476   5      36.678291000000002      38.733606999999999               19.427785
  7477   2      35.814912999999997      38.546717999999998               19.803784
  7478   2      37.111638999999997      37.877276999999999                19.38841
  7479   5               28.993644      6.3876010000000001      26.241064000000001
  7480   2      29.233208999999999      7.2241530000000003      26.646667999999998
  7481   2      28.088916999999999      6.5164759999999999               25.945259
  7482   5               27.759345               34.961371      39.090634000000001
  7483   2      27.076288000000002      34.328417999999999      39.324147000000004
  7484   2               27.455606      35.346044999999997      38.264552999999999
  7485   5                42.21678      33.529603999999999      10.436230999999999
  7486   2               42.768217                34.31532               10.453346
  7487   2               41.872197      33.460630999999999               11.330181
  7488   5      6.6831370000000003      35.273135000000003      13.500660999999999
  7489   2      7.4143889999999999      35.895223999999999               13.501491
  7490   2                6.196313      35.476346999999997               14.303376
  7491   5      40.535853000000003      8.8497850000000007      38.107779000000001
  7492   2      39.924401000000003      9.4132719999999992      38.587708999999997
  7493   2      40.474417000000003      9.1517490000000006      37.198006999999997
  7494   5               29.469303      24.227226000000002      5.5673170000000001
  7495   2      29.648029999999999      25.100584000000001      5.9237260000000003
  7496   2      28.533315999999999      24.089027000000002      5.7330649999999999
  7497   5      39.344611999999998      35.340718000000003               38.767111
  7498   2      38.753456999999997      34.641553999999999               38.478268
  7499   2      40.101376999999999      34.876685000000002      39.134020999999997
  7500   5      10.128270000000001               23.584716   0.0026949999999999999
  7501   2      10.565827000000001      24.404910999999998                0.242589
  7502   2      9.2712529999999997               23.636872     0.43332599999999999
  7503   5      22.628827999999999               24.862472      37.291150999999999
  7504   2      23.016455000000001      24.026033000000002      37.559181000000002
  7505   2      22.399446999999999      25.294706000000001      38.117710000000002
  7506   5      26.722328000000001      8.2588919999999995               23.998206
  7507   2               26.457079      9.1395719999999994               23.722942
  7508   2               26.029671      7.9790710000000002      24.602001999999999
  7509   5      40.408256000000002      3.7003279999999998      42.796047000000002
  7510   2      41.042000999999999      4.3194460000000001      42.426203000000001
  7511   2      39.936587000000003      4.2098909999999998               43.459761
  7512   5      36.480041999999997      20.109228999999999      7.5393470000000002
  7513   2      37.255158000000002      20.103753000000001      8.1058179999999993
  7514   2      36.819892000000003               20.345316      6.6725089999999998
  7515   5      28.767911000000002      41.721390999999997      9.3224990000000005
  7516   2      28.942385000000002      40.811593000000002      9.0704049999999992
  7517   2      29.145530000000001      41.801701000000001               10.202042
  7518   5                 33.2226      38.860430999999998      25.373125000000002
  7519   2      32.412761000000003      38.412050999999998      25.627763000000002
  7520   2      33.848201000000003      38.634594999999997               26.066136
  7521   5      13.808064999999999      24.789788000000001      5.5887359999999999
  7522   2      14.270011999999999               24.038231      5.2099310000000001
  7523   2               14.394893      25.106632999999999      6.2800269999999996
  7524   5      40.496487999999999      41.033171000000003      41.996954000000002
  7525   2      39.988067000000001      41.145370999999997      41.190328999999998
  7526   2      40.299301999999997               41.818154      42.514217000000002
  7527   5      23.733924999999999      40.415396000000001               36.689802
  7528   2               23.676378      40.370488000000002      37.647087999999997
  7529   2      23.290251999999999      41.236457000000001      36.462524999999999
  7530   5      30.550508000000001      9.1247050000000005     0.90251499999999996
  7531   2      31.140744000000002      9.0202670000000005                0.152555
  7532   2      31.121293999999999      9.0334800000000008      1.6696679999999999
  7533   5               41.870528      28.670777999999999      38.445756000000003
  7534   2      41.467253999999997               27.947098      38.930917000000001
  7535   2      42.813307000000002               28.492877      38.492226000000002
  7536   5      6.5013240000000003      33.019208999999996      42.369155999999997
  7537   2      7.1447539999999998      33.373108999999999      41.750708000000003
  7538   2      6.6336190000000004      32.068511000000001      42.332901999999997
  7539   5      41.481661000000003      26.197030999999999               37.255986
  7540   2      40.545293000000001               26.348523      37.107694000000002
  7541   2      41.509990999999999      25.586293999999999      37.996823999999997
  7542   5               22.272091      4.3876989999999996               21.790402
  7543   2      23.134181000000002      4.6431769999999997      21.453863999999999
  7544   2      22.378654999999998                3.467711      22.045172999999998
  7545   5               11.941552      4.8903270000000001      27.990424000000001
  7546   2               11.092055      4.4825220000000003      27.806647000000002
  7547   2               12.355038      4.3029419999999998      28.628115000000001
  7548   5      35.202835999999998      12.373749999999999               36.397247
  7549   2               36.060029               12.019276                36.14967
  7550   2      35.396251999999997               12.991731      37.106706000000003
  7551   5      43.783495000000002               17.867314               22.287485
  7552   2      43.678942999999997               18.746886      22.657817999999999
  7553   2      44.269713000000003               18.008537      21.471219000000001
  7554   5      34.959570999999997      40.158096999999998      29.491143999999998
  7555   2      35.064962999999999      40.546120000000002               28.619332
  7556   2      34.123567999999999               40.508682               29.808684
  7557   5               33.369678      21.835305999999999               40.789113
  7558   2      33.478836000000001      21.659579999999998      39.851599999999998
  7559   2      33.796878999999997      21.092030999999999      41.222338000000001
  7560   5                33.94229      8.7819730000000007      4.1155619999999997
  7561   2      33.661814999999997      9.3970149999999997      3.4338129999999998
  7562   2      33.751734999999996      7.9153010000000004                3.747852
  7563   5               20.762494      28.497419000000001      35.620282000000003
  7564   2      21.222923999999999               28.470727      36.462313000000002
  7565   2      20.669184999999999               29.434116      35.429143000000003
  7566   5      44.286225000000002               16.975123      2.1564779999999999
  7567   2      44.184694999999998      16.814281000000001      1.2154430000000001
  7568   2      44.998294999999999               17.617296      2.2131430000000001
  7569   5      35.123005999999997               11.575474               39.701366
  7570   2      34.427081000000001               12.102134               40.101419
  7571   2      35.605629999999998      12.196993000000001                39.15052
  7572   5      8.8017629999999993      6.6830600000000002      33.120840000000001
  7573   2      8.8995289999999994      7.6191269999999998      33.310431999999999
  7574   2      9.2236759999999993                6.243989      33.863705000000003
  7575   5      26.009032999999999      5.3855009999999996      27.982928000000001
  7576   2               25.219151      5.0964869999999998      27.520022999999998
  7577   2      26.444403999999999      5.9778589999999996      27.364699000000002
  7578   5                1.955768      3.2223009999999999      6.7725970000000002
  7579   2                1.461292      4.0428980000000001      6.7106370000000002
  7580   2      2.1186950000000002      2.9725790000000001      5.8595059999999997
  7581   5               29.320055      15.468877000000001      32.130974000000002
  7582   2      29.654544000000001      15.545508999999999      33.027617999999997
  7583   2      29.625191000000001      16.267759000000002               31.693572
  7584   5      17.562315000000002      34.866134000000002      27.621117000000002
  7585   2      18.301452999999999      35.188702999999997      28.142029000000001
  7586   2                16.78792               35.082023      28.146802999999998
  7587   5               10.546414      27.877759999999999               21.380696
  7588   2      9.7125599999999999      28.173262999999999               21.753646
  7589   2                11.19807      28.094308999999999      22.052330000000001
  7590   5      23.985738999999999      7.3726029999999998      40.940598000000001
  7591   2      23.287541999999998      6.7229960000000002      40.829886000000002
  7592   2               23.651024      8.1593440000000008      40.502825000000001
  7593   5                3.344468      28.958085000000001      31.726572999999998
  7594   2                3.584095               28.042783               31.563706
  7595   2      3.3765170000000002      29.370798000000001               30.859807
  7596   5      4.4356169999999997      28.381316999999999      19.645430000000001
  7597   2      4.8046439999999997               29.136464      20.109431000000001
  7598   2      3.5280740000000002               28.635579               19.460072
  7599   5      30.503253000000001               23.844196      42.001944999999999
  7600   2               29.640387      23.453261000000001      42.158012999999997
  7601   2      30.314298000000001      24.656652999999999               41.525655
  7602   5      41.422956999999997      3.3974009999999999      39.773491999999997
  7603   2      41.821795999999999      4.2358950000000002      40.017581999999997
  7604   2      41.752070000000003      3.2257509999999998      38.887566999999997
  7605   5               39.443306               42.312973               20.680971
  7606   2               40.396884      42.362447000000003      20.780795000000001
  7607   2      39.156255999999999      43.229604999999999               20.675625
  7608   5               30.757959      19.372679999999999      38.161610000000003
  7609   2      31.535710999999999      18.812284999999999      38.214367000000003
  7610   2      30.933714999999999               20.083599      38.783177000000002
  7611   5      43.127600000000001               40.992728      41.862521000000001
  7612   2      42.592986000000003      40.922243000000002               42.656841
  7613   2      42.531623000000003      40.744746999999997      41.151214000000003
  7614   5      1.7796069999999999      34.492131999999998      22.175395999999999
  7615   2      1.2017199999999999      35.073295999999999      21.675377000000001
  7616   2      1.6688700000000001      34.772748999999997      23.087336000000001
  7617   5      40.110008999999998      27.820277000000001      32.306744999999999
  7618   2      39.163828000000002      27.708818999999998      32.188239000000003
  7619   2      40.348950000000002      27.154606000000001      32.956691999999997
  7620   5      42.573521999999997      12.861819000000001      19.735645999999999
  7621   2      42.009188000000002               12.096762               19.869584
  7622   2      42.376679000000003               13.436487      20.479724000000001
  7623   5                14.87862      28.275217999999999                16.64508
  7624   2               14.014991               28.407957      16.247271999999999
  7625   2               15.323686      27.665704000000002      16.050899000000001
  7626   5      7.8093690000000002      4.6067749999999998      28.261500999999999
  7627   2      7.7524860000000002      5.1001620000000001      29.083120999999998
  7628   2      7.2903659999999997      3.8147329999999999      28.422588000000001
  7629   5      8.5246820000000003               14.433083               12.897969
  7630   2      9.3396209999999993               14.409604      12.390969999999999
  7631   2      8.1398829999999993               13.562151      12.771281999999999
  7632   5      35.060692000000003      6.6840830000000002      34.579219000000002
  7633   2      34.325341000000002                6.131526      34.304144000000001
  7634   2      35.670673999999998                6.075361      35.003509999999999
  7635   5      42.634019000000002      15.504594000000001      23.148295999999998
  7636   2      42.052337999999999               14.758585      22.984456000000002
  7637   2      42.223427999999998               15.970673      23.880980999999998
  7638   5      18.039470999999999      35.989426000000002      22.969702999999999
  7639   2      18.930997999999999      35.647525999999999               22.869657
  7640   2      17.876266999999999               35.956564      23.915707999999999
  7641   5      29.241634000000001               22.643459      2.4868739999999998
  7642   2      29.070682999999999      21.715676999999999                2.308767
  7643   2                 29.2637      22.702117999999999      3.4453689999999999
  7644   5      7.0720970000000003      42.139381999999998      22.574328999999999
  7645   2                7.955165      42.475110000000001      22.745215999999999
  7646   2      6.9788800000000002      41.396475000000002      23.176027999999999
  7647   5               25.939418      8.0952680000000008                26.91273
  7648   2                26.87238                8.183605               26.704155
  7649   2      25.648261999999999      8.9936159999999994      27.088346999999999
  7650   5      32.846597000000003      33.906970999999999      41.482669000000001
  7651   2      33.077858999999997               33.175694      42.060142999999997
  7652   2      32.248126999999997      33.521484000000001      40.837784999999997
  7653   5               13.208838      41.732052000000003      36.830984999999998
  7654   2      14.093527999999999      42.093797000000002               36.740496
  7655   2      12.922931999999999      42.016544000000003      37.702744000000003
  7656   5               33.496547      23.125648000000002                3.194563
  7657   2               33.606617      22.964313000000001      4.1345530000000004
  7658   2      33.146774000000001               22.299954      2.8502800000000001
  7659   5      42.567132000000001               24.045451               42.243299
  7660   2      43.252478000000004               24.561626      41.812497999999998
  7661   2      42.922151999999997      23.153341000000001      42.270541000000001
  7662   5      42.252543000000003               40.298952      29.000959000000002
  7663   2      41.911774999999999      39.875539000000003               28.209553
  7664   2      42.448104999999998      39.570497000000003                29.59573
  7665   5      14.655583999999999      31.207291999999999      20.830031999999999
  7666   2               15.360795      31.331665000000001               20.190552
  7667   2               14.544257      32.071905000000001               21.233383
  7668   5               11.284542      39.531432000000002      29.724163999999998
  7669   2                10.80533      38.723928999999998      29.924213999999999
  7670   2               11.751313      39.335661000000002      28.907806000000001
  7671   5               37.241526     0.52146599999999999      21.787330000000001
  7672   2      36.535905999999997      1.0531489999999999               22.163014
  7673   2      36.812668000000002   0.0096819999999999996               21.096822
  7674   5      9.7286370000000009      21.191766999999999      15.603808000000001
  7675   2      9.5547389999999996      20.376069000000001      16.079329999999999
  7676   2      8.9786730000000006      21.286823999999999                15.01122
  7677   5      28.034296000000001      40.663068000000003      5.3318940000000001
  7678   2      28.782236999999999      41.170813000000003      5.0086209999999998
  7679   2               28.149607      40.649450999999999                6.285393
  7680   5               24.912163                1.217395      44.267926000000003
  7681   2      25.331382999999999                2.037048      43.995623999999999
  7682   2      24.267734999999998      1.0386569999999999      43.578428000000002
  7683   5      34.604035000000003      42.578994000000002      34.107796999999998
  7684   2      34.043959000000001      42.458544000000003      34.878207000000003
  7685   2      35.151439000000003      43.337193999999997      34.327165999999998
  7686   5      16.237379000000001      34.208793999999997      30.847284999999999
  7687   2      16.426742999999998      35.149766999999997               30.868181
  7688   2               15.462144      34.109138000000002               31.405604
  7689   5      7.9192590000000003               26.512072      21.387668000000001
  7690   2      7.3059849999999997      26.078123000000001      20.789915000000001
  7691   2      7.6871020000000003      27.442551000000002      21.333304999999999
  7692   5      37.774926000000001               30.868748      35.763772000000003
  7693   2      37.929079999999999      30.181146999999999      36.415818999999999
  7694   2      38.648015999999998      31.226179999999999      35.583219999999997
  7695   5      37.332135000000001      6.4053659999999999      5.7997240000000003
  7696   2      37.209822000000003      7.0680889999999996      6.4835089999999997
  7697   2      38.037140000000001      6.7570300000000003      5.2502319999999996
  7698   5                 37.6267      16.785112999999999      29.384834999999999
  7699   2      37.033574999999999      16.030180999999999      29.386831999999998
  7700   2      38.384450000000001      16.494351000000002      29.898561999999998
  7701   5      5.9720180000000003      37.903176999999999      15.981488000000001
  7702   2      6.6447669999999999      38.477569000000003      16.354593000000001
  7703   2      6.4264840000000003               37.426575      15.282235999999999
  7704   5               10.566487      30.831479000000002      6.6642530000000004
  7705   2               10.064615               31.178836      7.4053279999999999
  7706   2      11.191076000000001               30.221218      7.0643940000000001
  7707   5      17.309747000000002      42.202587000000001      40.734834999999997
  7708   2      16.428743999999998      41.984533999999996      40.421765000000001
  7709   2      17.425875000000001      41.658726000000001      41.518014999999998
  7710   5      5.7455790000000002      25.142524000000002                4.611529
  7711   2                5.749638      24.454613999999999      5.2812229999999998
  7712   2      4.9638439999999999      24.957892000000001      4.0848019999999998
  7713   5               12.299892      16.726044000000002      30.780325000000001
  7714   2      11.975237999999999               17.009788      29.922529000000001
  7715   2      11.517391999999999               16.707127      31.337081000000001
  7716   5      41.138415999999999      7.2061549999999999      7.8479539999999997
  7717   2      40.266252000000001                7.415241      7.5054100000000004
  7718   2               40.983362      6.9675919999999998      8.7653890000000008
  7719   5               15.554667               32.228693      1.0110239999999999
  7720   2      15.083517000000001      32.901159999999997     0.51349999999999996
  7721   2               15.109619      32.206026999999999                1.861942
  7722   5      44.212803999999998      25.499887000000001               16.692898
  7723   2                44.99494      24.949977000000001      16.779997999999999
  7724   2      44.355398000000001      26.217535000000002      17.315225000000002
  7725   5               10.906029      9.6655650000000009      44.243239000000003
  7726   2      11.810276999999999      9.4135829999999991      44.041828000000002
  7727   2                 10.9879               10.283968               44.973661
  7728   5      17.368335999999999               25.280514      27.880427999999998
  7729   2      17.715302999999999      26.170269999999999               27.978776
  7730   2               16.416781      25.385653999999999               27.958724
  7731   5      39.128495000000001      31.614395999999999      26.230264999999999
  7732   2      39.329875000000001      31.325023999999999      25.337271999999999
  7733   2      38.179146000000003      31.493051000000001               26.311836
  7734   5      26.347564999999999      37.273719999999997               17.386606
  7735   2      26.245633999999999      38.091607000000003      16.894269000000001
  7736   2      25.755676000000001      36.656638999999998      16.948975000000001
  7737   5      6.0270890000000001               14.832264      39.741791999999997
  7738   2      6.9094340000000001      14.604108999999999      40.043683000000001
  7739   2      5.7333299999999996               15.510802      40.354927000000004
  7740   5      12.989573999999999      37.189967000000003      21.484864000000002
  7741   2      12.898324000000001      36.777631999999997      20.622669999999999
  7742   2      13.920979000000001      37.417447000000003      21.542995999999999
  7743   5      6.6224460000000001      16.659901000000001      15.646663999999999
  7744   2                6.846158      15.985917000000001      16.292746999999999
  7745   2      5.9664130000000002      17.205107000000002      16.088267999999999
  7746   5      23.605437999999999      37.191809999999997      16.295680000000001
  7747   2               24.113432      38.003346999999998                16.36692
  7748   2      23.442620999999999      36.931755000000003      17.205901999999998
  7749   5      16.046697999999999      40.722095000000003      23.301293999999999
  7750   2               15.330052      40.155045999999999      23.595569999999999
  7751   2               15.687908      41.183720999999998      22.539183000000001
  7752   5      14.232685999999999      12.714935000000001      3.0283869999999999
  7753   2      14.808752999999999      13.055033999999999                3.717012
  7754   2               14.119375               11.786978                3.249063
  7755   5               23.882044      12.627473999999999      4.9802910000000002
  7756   2               23.139077               12.194511      4.5533640000000002
  7757   2      24.293493000000002               11.934626      5.5030840000000003
  7758   5      7.9887119999999996      18.554867000000002                5.953074
  7759   2      7.0423419999999997      18.406359999999999                5.889392
  7760   2      8.2804789999999997      18.628139000000001      5.0408549999999996
  7761   5      14.692990999999999      30.743701999999999      36.116067000000001
  7762   2               13.875636      31.169409999999999      36.385193999999998
  7763   2               14.520353      29.805188000000001      36.225746999999998
  7764   5               10.552063               15.886179      22.488600999999999
  7765   2               11.034025      16.713259000000001      22.561921000000002
  7766   2      11.163194000000001               15.223827      22.820941000000001
  7767   5      8.9026169999999993      17.217818000000001      38.908002000000003
  7768   2      9.4727069999999998               16.476274      39.124417000000001
  7769   2      8.3605450000000001      16.898005000000001      38.182384999999996
  7770   5      37.259689000000002      19.103245999999999               28.570411
  7771   2      38.177154999999999      18.820520999999999      28.563441000000001
  7772   2      37.125481000000001               19.498707      27.705401999999999
  7773   5               19.689539      33.406874000000002      6.7064370000000002
  7774   2      20.017091000000001               34.253034      6.3926740000000004
  7775   2               19.335514      33.596907999999999      7.5789020000000002
  7776   5                3.539304               15.271027               10.671766
  7777   2      3.3705959999999999               16.170185      10.380599999999999
  7778   2      2.6806969999999999      14.947298999999999               10.955729
  7779   5      3.0150000000000001      36.387284999999999      38.266202999999997
  7780   2      2.9019490000000001      37.317844000000001      38.473574999999997
  7781   2      3.7752560000000002      36.364382999999997      37.679578999999997
  7782   5      2.5264150000000001                21.54691      39.570115000000001
  7783   2      3.3891840000000002      21.260843999999999      39.879179999999998
  7784   2      2.7192810000000001      22.136185999999999      38.836494999999999
  7785   5               11.180355      13.131470999999999      40.147266000000002
  7786   2               10.654377               12.921963      40.922623000000002
  7787   2      11.372382999999999               12.277547      39.751564000000002
  7788   5      40.456983999999999      24.748443000000002      32.315215999999999
  7789   2      40.079828999999997      25.010891000000001      31.472245000000001
  7790   2      39.839309999999998               24.099159      32.660975000000001
  7791   5      27.370177999999999      13.329783000000001      18.844598000000001
  7792   2      26.921904999999999      13.538482999999999      19.667532999999999
  7793   2      28.100595999999999      12.764200000000001      19.107748000000001
  7794   5               27.995943      40.690041999999998               31.723627
  7795   2                27.34355      41.291466999999997      32.090228000000003
  7796   2      28.826889000000001      40.973117000000002      32.113546999999997
  7797   5      42.302985999999997               10.432323      39.723441999999999
  7798   2      42.938986999999997      9.8499309999999998      40.145398999999998
  7799   2      42.359225000000002      10.210832999999999               38.790478
  7800   5      7.6399689999999998               14.030396                4.137124
  7801   2      8.1859850000000005               13.711392      3.4147470000000002
  7802   2      6.9904960000000003      14.596871999999999      3.7129379999999998
  7803   5               21.552671      25.028390999999999      7.4962989999999996
  7804   2      22.026873999999999      25.486357999999999      6.7983570000000002
  7805   2      20.870882000000002      25.648174999999998      7.7677290000000001
  7806   5               19.223188      23.008894999999999      35.617041999999998
  7807   2      19.285340000000001      23.784051999999999      36.180064000000002
  7808   2               18.353354      23.075327999999999      35.215026999999999
  7809   5      44.437049000000002      34.840198000000001      36.615820999999997
  7810   2      44.275241000000001      35.247481000000001               37.470025
  7811   2      43.941330999999998      34.018006999999997      36.645960000000002
  7812   5      44.216563000000001                1.067469      41.501710000000003
  7813   2      43.874414999999999     0.57139799999999996      40.754331999999998
  7814   2      44.846986999999999     0.47192899999999999      41.914675000000003
  7815   5      29.620443999999999      41.682541000000001      23.598407999999999
  7816   2      29.031379999999999               41.209291               23.006155
  7817   2      29.614198999999999      41.162985999999997               24.406285
  7818   5      11.624397999999999      37.172581999999998      25.173369999999998
  7819   2      11.023175999999999      37.734355999999998      24.678730999999999
  7820   2               11.363232      37.292602000000002      26.089901000000001
  7821   5      17.884820000000001      33.581508999999997      34.515869000000002
  7822   2      17.450106000000002      33.785465000000002               33.684514
  7823   2      17.781359999999999      32.631428999999997      34.612229999999997
  7824   5      29.635020999999998      4.7105309999999996      2.8915410000000001
  7825   2      29.898772000000001      3.8221250000000002                3.142331
  7826   2      28.985779999999998      4.5790850000000001      2.1959469999999999
  7827   5      33.717429000000003      11.052511000000001      35.198245999999997
  7828   2               34.003971      10.580557000000001      35.983662000000002
  7829   2      34.496357000000003               11.075887      34.636668999999998
  7830   5      37.213726000000001               15.662136                6.196701
  7831   2               36.495213               15.926292                5.617318
  7832   2               37.350192               14.732208      5.9985780000000002
  7833   5      20.969007999999999      44.942447000000001      28.401986999999998
  7834   2      20.091629999999999      44.998424999999997      28.016241999999998
  7835   2      20.907033999999999      44.219563000000001      29.031462999999999
  7836   5      36.776538000000002      19.483080000000001      31.535309999999999
  7837   2      36.575704999999999                20.41574               31.427896
  7838   2      37.602800999999999      19.471965000000001      32.025011999999997
  7839   5      41.158987000000003      5.7103080000000004      24.804898000000001
  7840   2      40.568587000000001      5.1477209999999998      25.311502000000001
  7841   2      40.686673999999996      6.5431119999999998      24.727443999999998
  7842   5      33.608972000000001      8.8287910000000007      13.140219999999999
  7843   2      34.523287000000003      8.9620870000000004      13.400957999999999
  7844   2      33.650762999999998      8.1482159999999997      12.463673999999999
  7845   5      34.568153000000002      36.345683999999999               13.022959
  7846   2      35.355522999999998      36.143979999999999               13.533927
  7847   2      34.898614000000002               36.806455               12.247636
  7848   5                8.502542     0.57314299999999996      6.6049600000000002
  7849   2      8.0593339999999998                1.089793      5.9279339999999996
  7850   2      9.4365939999999995     0.66168899999999997      6.3991740000000004
  7851   5      1.0666310000000001               26.972037      40.722296999999998
  7852   2     0.62536800000000003               26.153088      40.484949999999998
  7853   2     0.65486200000000006      27.635528999999998      40.162953000000002
  7854   5      28.291803999999999      41.810378999999998      34.072248999999999
  7855   2      28.227447999999999      40.864261999999997      34.222073999999999
  7856   2               27.391793      42.129829000000001      34.175075999999997
  7857   5      20.286193000000001      20.660229000000001      33.863829000000003
  7858   2                20.48274      21.313016999999999      33.187840000000001
  7859   2      19.815069000000001               21.152497      34.540849000000001
  7860   5      39.815722000000001               27.927052      35.154528999999997
  7861   2      40.561942000000002      28.434733000000001      34.827204999999999
  7862   2      39.451264999999999      28.466982000000002      35.860424000000002
  7863   5      24.541495999999999      28.778842000000001                0.425396
  7864   2      25.257591999999999      28.492657000000001     0.99726199999999998
  7865   2               23.852041      28.123867000000001     0.56067900000000004
  7866   5               13.818533      42.678784999999998      23.539432000000001
  7867   2               14.050117      41.889690999999999      24.034835000000001
  7868   2      13.850497000000001      42.401279000000002      22.620404000000001
  7869   5      18.728283999999999      31.041298999999999      8.5400659999999995
  7870   2      18.060821000000001      31.313856999999999      7.9060870000000003
  7871   2      19.518484000000001      31.518367999999999      8.2742989999999992
  7872   5               14.379673      12.809654999999999      17.491019999999999
  7873   2                14.43723               12.009444               18.018348
  7874   2      13.475962000000001                12.81626      17.165589000000001
  7875   5                1.250621      9.9094820000000006               15.371164
  7876   2                0.464225      9.3649660000000008               15.453678
  7877   2                1.063059               10.488097               14.627748
  7878   5      35.464835000000001      3.5199880000000001      42.572344999999999
  7879   2      35.479719000000003                3.480324               43.531475
  7880   2      35.442017999999997      2.6003370000000001      42.296004000000003
  7881   5      2.4457840000000002      21.146539000000001      4.6441150000000002
  7882   2      3.0504889999999998      20.494682999999998      5.0062470000000001
  7883   2      1.9052830000000001      20.651430999999999      4.0233340000000002
  7884   5      9.8371569999999995               26.467945      33.583727000000003
  7885   2      10.357252000000001               26.308702      32.792610000000003
  7886   2      10.488702999999999               26.661448      34.262464999999999
  7887   5               16.019869      7.8727710000000002               26.418315
  7888   2               15.614848      8.1540809999999997      27.242055000000001
  7889   2      16.516487000000001      8.6399550000000005      26.122609000000001
  7890   5      27.268796999999999               15.553582               14.089017
  7891   2      27.517223000000001               16.388942               13.686296
  7892   2      26.718008999999999                15.80315               14.835336
  7893   5     0.51510599999999995      42.645380000000003      27.295836000000001
  7894   2     0.89125200000000004      42.505699999999997      28.168033999999999
  7895   2                0.856684      41.918031999999997               26.769593
  7896   5      42.997878999999998      40.691733999999997      5.0967120000000001
  7897   2      42.397658999999997               39.965809      4.9109860000000003
  7898   2      42.991121999999997      40.767677999999997      6.0542239999999996
  7899   5      27.436800999999999                32.01191      43.397241000000001
  7900   2      26.924880000000002      32.769343999999997      43.104059999999997
  7901   2      28.099679999999999               31.892626      42.712401999999997
  7902   5                1.614724               27.883153      9.5629530000000003
  7903   2                1.328873               27.077593               10.000088
  7904   2      2.4162050000000002      27.630466999999999      9.0977440000000005
  7905   5      3.8860030000000001      32.731153999999997      37.208097000000002
  7906   2      3.9324319999999999      32.212238999999997               36.401688
  7907   2      4.5872549999999999      33.380834999999998               37.114272
  7908   5               25.318953               10.634565      39.457917999999999
  7909   2      25.249611999999999               10.257011      38.577934999999997
  7910   2               26.018549               11.288402      39.382393999999998
  7911   5               28.648882      7.3218759999999996               39.224826
  7912   2      27.805372999999999      6.9385570000000003      38.973258999999999
  7913   2      28.964372999999998      6.7582319999999996      39.935749999999999
  7914   5               34.766897      29.188524999999998               15.978197
  7915   2               35.489151               28.719123               16.402148
  7916   2      34.876792999999999               29.000363               15.042697
  7917   5      2.7144240000000002      44.760984000000001      22.708075000000001
  7918   2      3.1021540000000001               44.002392      23.150711999999999
  7919   2      1.9626999999999999      44.998677000000001                23.25676
  7920   5      39.575420000000001      39.299430999999998      25.313953000000001
  7921   2      39.698014999999998      39.350095000000003               24.363097
  7922   2               39.399645               40.205413      25.580304000000002
  7923   5                2.430498               38.873866      18.936879999999999
  7924   2      2.6198929999999998      39.781565000000001      18.688009000000001
  7925   2      1.7920320000000001      38.950533999999998      19.650410999999998
  7926   5      39.276744000000001      40.186418000000003      33.786552999999998
  7927   2      38.340535000000003      40.009196000000003               33.668951
  7928   2      39.443176000000001      40.960106000000003      33.242173000000001
  7929   5      33.782908999999997      19.475086000000001     0.57394900000000004
  7930   2      34.205486999999998               20.305999                0.344304
  7931   2      33.196077000000002      19.698899999999998      1.3007070000000001
  7932   5               12.921341      29.092237000000001                2.451568
  7933   2               13.816896               29.335832      2.6972649999999998
  7934   2               13.034081      28.399722000000001      1.7955540000000001
  7935   5                8.586131      6.7558449999999999      41.518453999999998
  7936   2      8.5794689999999996      6.3339429999999997      40.656084999999997
  7937   2      8.0671839999999992      7.5549520000000001      41.396953000000003
  7938   5      44.963538999999997      16.537921999999998               24.728254
  7939   2               44.393189      16.550284999999999               23.956066
  7940   2      44.516674999999999      15.953034000000001      25.345393000000001
  7941   5      33.970972000000003      32.836565999999998      23.892046000000001
  7942   2      34.095362999999999      32.802449000000003      24.843406999999999
  7943   2      33.026563000000003      32.710343000000002      23.770389000000002
  7944   5      8.6436240000000009      15.440618000000001      2.1577730000000002
  7945   2      9.5045179999999991               15.202055      2.5094460000000001
  7946   2      8.4519769999999994      14.756152999999999                1.511692
  7947   5               13.994228      31.509830999999998      6.6475270000000002
  7948   2               14.278706      31.752116999999998      7.5318880000000004
  7949   2      13.980757000000001      32.340524000000002      6.1654369999999998
  7950   5      4.0472049999999999                1.044332      18.150822000000002
  7951   2      3.9992329999999998                1.924072               18.532242
  7952   2      4.3108979999999999                1.193692      17.239339999999999
  7953   5      9.6072729999999993               11.964027               24.254379
  7954   2      9.8069159999999993               11.074819      24.556336000000002
  7955   2      10.462550999999999                12.33483      24.022763000000001
  7956   5               29.368105      37.189267000000001               37.570408
  7957   2      29.789580999999998      38.046674000000003      37.664940999999999
  7958   2                28.74493               37.148159      38.300206000000003
  7959   5      42.735698999999997      3.2393489999999998      17.625686999999999
  7960   2      42.352069999999998      4.0818199999999996      17.880237999999999
  7961   2      42.163176999999997      2.5840399999999999      18.032419000000001
  7962   5      42.368347999999997               32.818635      31.755711000000002
  7963   2      41.528702000000003      32.703932999999999      31.304531999999998
  7964   2                42.50779      31.986661000000002      32.215077999999998
  7965   5      42.341402000000002      16.496251999999998      19.949083000000002
  7966   2      42.594456000000001      16.181056999999999      19.078254999999999
  7967   2      41.616044000000002               15.922623      20.208788999999999
  7968   5      31.443228000000001      37.916621999999997               43.126683
  7969   2               31.769707      38.539763999999998      43.780005000000003
  7970   2      32.184806999999999               37.785978      42.530332000000001
  7971   5      16.288340000000002      31.018892000000001      34.509988999999997
  7972   2               16.599674      30.245723000000002      34.986441999999997
  7973   2      15.535890999999999      30.700666999999999      34.004821999999997
  7974   5      3.7792590000000001      26.147836999999999      38.290283000000002
  7975   2      4.1470450000000003      26.895627000000001      37.813555000000001
  7976   2                  2.8331      26.208947999999999      38.136364999999998
  7977   5      26.987024999999999      19.116282000000002      37.453271999999998
  7978   2               26.051451      18.982044999999999      37.284733000000003
  7979   2      27.209976999999999      18.447945000000001      38.106158999999998
  7980   5      3.5152760000000001               28.548662      41.176645999999998
  7981   2      4.0216149999999997      29.252946000000001      41.588143000000002
  7982   2      4.1316730000000002               28.137718      40.565235999999999
  7983   5                1.348085      17.066127999999999               23.121001
  7984   2     0.99814000000000003      17.918966999999999      23.389195000000001
  7985   2      2.1169699999999998      17.281161999999998      22.586943000000002
  7986   5      29.264735999999999      36.837634999999999      6.2826129999999996
  7987   2               28.312783      36.931130000000003      6.3648819999999997
  7988   2      29.438890000000001      35.930535999999996      6.5462090000000002
  7989   5      37.643810000000002               23.119937      30.619510999999999
  7990   2      38.173062999999999               23.308788      31.397939999999998
  7991   2               37.732827               23.905718      30.074290000000001
  7992   5      39.357320000000001               34.817757      21.537172999999999
  7993   2      39.375253000000001      33.864060000000002               21.646103
  7994   2      38.452615999999999      35.011268000000001      21.278897000000001
  7995   5      26.980913999999999               17.753166      9.2200509999999998
  7996   2      26.273019999999999      17.652754000000002      8.5793269999999993
  7997   2      26.929497000000001      16.959409999999998      9.7585200000000007
  7998   5      28.550530999999999               11.091186      9.0485769999999999
  7999   2      29.166305000000001      11.469601000000001      9.6805179999999993
  8000   2      28.011216999999998               10.491899      9.5707229999999992
  8001   5      31.640730999999999      21.588380000000001     0.76629100000000006
  8002   2      31.970106999999999      22.459966000000001                0.997753
  8003   2      32.247857000000003      21.275690999999998    0.090816999999999995
  8004   5               16.077828      23.003824000000002      38.534047000000001
  8005   2      16.572790000000001               22.384062      39.075001999999998
  8006   2               15.629574      22.451658999999999      37.888427999999998
  8007   5      25.809888000000001      40.203017000000003               22.046664
  8008   2      25.821695999999999      41.161391000000002                22.10238
  8009   2      25.109915000000001      39.937795000000001      22.648607999999999
  8010   5      5.9244589999999997      31.157319999999999      17.498809999999999
  8011   2                5.196841                30.55517      17.671185000000001
  8012   2      6.0439660000000002      31.120433999999999      16.546444999999999
  8013   5      42.434733999999999      24.407907000000002      18.322431000000002
  8014   2      42.478197000000002               25.318362      18.020921999999999
  8015   2               43.228828      24.000855000000001      17.966951000000002
  8016   5      5.8880059999999999      26.965465999999999      2.7136610000000001
  8017   2                6.608581      26.425885000000001      3.0473530000000002
  8018   2      5.5052260000000004               26.440839      2.0059260000000001
  8019   5      9.0296620000000001      41.081738000000001      21.223960000000002
  8020   2      9.6782389999999996      40.660500999999996      20.655073999999999
  8021   2      9.2710939999999997      40.800244999999997      22.110026999999999
  8022   5               21.698083      16.513432999999999      8.4631589999999992
  8023   2                22.53098      16.498567000000001      7.9858890000000002
  8024   2               21.144389               15.882574      7.9961659999999997
  8025   5      37.134264000000002      23.569230000000001      43.763834000000003
  8026   2      37.826310999999997               23.202095      44.318818999999998
  8027   2      36.560991000000001               24.037488      44.375988999999997
  8028   5               11.613051      16.603853000000001      33.529963000000002
  8029   2               10.668377      16.671209999999999      33.372554999999998
  8030   2      11.690524999999999               15.971107      34.248483999999998
  8031   5      19.132936999999998      28.145046000000001      1.0052319999999999
  8032   2      18.494496999999999      27.806204999999999      1.6371389999999999
  8033   2               19.479091      28.939841000000001                1.418898
  8034   5      37.462910999999998               35.996437               17.065358
  8035   2               37.036997      35.595782999999997      16.303913000000001
  8036   2      36.740288999999997      36.192388000000001      17.667076000000002
  8037   5                7.198232      4.8854509999999998               12.300259
  8038   2                 7.21244      5.7690720000000004      11.925109000000001
  8039   2                6.266661                4.704396               12.448705
  8040   5      31.305410999999999               12.840439      28.980401000000001
  8041   2      31.074867000000001      12.028409999999999               28.523035
  8042   2      30.483177000000001      13.127610000000001                 29.3855
  8043   5               10.027644      15.124504999999999                 41.7301
  8044   2      10.147284000000001      15.858276999999999      41.122653999999997
  8045   2      9.1125000000000007               15.195969      42.013022999999997
  8046   5      43.113554000000001      36.799309999999998      22.151834999999998
  8047   2               42.411842      36.200752999999999      22.418396000000001
  8048   2      42.776297999999997      37.224072999999997      21.359069000000002
  8049   5      26.879816999999999      33.077575000000003      34.973235000000003
  8050   2      26.395848999999998      33.875290999999997      35.199398000000002
  8051   2      26.203776999999999      32.466636000000001      34.669319000000002
  8052   5      32.113396999999999               18.980528      16.985835000000002
  8053   2      32.497354000000001      18.410699999999999      17.656355999999999
  8054   2      31.644024999999999      18.379155000000001      16.402156000000002
  8055   5      25.770956000000002      13.347537000000001      41.460441000000003
  8056   2      25.058440000000001      12.793836000000001      41.132627999999997
  8057   2      26.201326999999999      12.810447999999999               42.130485
  8058   5               25.868641      5.0176100000000003      2.0101360000000001
  8059   2      25.148299999999999      5.6420149999999998      2.1239430000000001
  8060   2      26.327280999999999      5.3234820000000003      1.2235400000000001
  8061   5               43.237226      42.625872000000001                 35.4664
  8062   2      42.973193999999999      41.707726000000001      35.561369999999997
  8063   2               42.776615               42.926181      34.678812000000001
  8064   5      37.653633999999997      1.4030769999999999      19.618528000000001
  8065   2      38.584256000000003                1.209025               19.484323
  8066   2      37.425463000000001                1.990056               18.893245
  8067   5      9.8529579999999992      33.606549999999999      20.024982000000001
  8068   2      10.684400999999999      33.472906999999999      20.486032999999999
  8069   2      9.8742409999999996      32.970309999999998               19.305685
  8070   5      8.9779999999999998      21.502921000000001      25.866907999999999
  8071   2      8.8057529999999993               20.697471      25.373646999999998
  8072   2      9.2600429999999996                21.19669      26.732538999999999
  8073   5                17.95872      13.419764000000001                12.21285
  8074   2      17.062339000000001               13.090057               12.115281
  8075   2      18.287724999999998      13.485908999999999               11.312837
  8076   5      17.358889999999999               42.091051      3.7197439999999999
  8077   2               18.072008      42.399161999999997      4.2838849999999997
  8078   2      17.788347000000002      41.505679999999998      3.0908169999999999
  8079   5                9.365945      31.881035000000001      39.770752999999999
  8080   2      9.9579470000000008      31.223960999999999      40.144266000000002
  8081   2                9.457179      32.641281999999997               40.350704
  8082   5      21.787776999999998                26.09029      9.7076329999999995
  8083   2      22.532762999999999               26.645076      9.4648710000000005
  8084   2               22.189335      25.304120999999999      10.086225000000001
  8085   5      12.617615000000001      41.380597000000002      5.6613540000000002
  8086   2               12.793034      41.386980999999999      6.6052350000000004
  8087   2               13.162829      42.090404999999997      5.3127060000000004
  8088   5     0.78431099999999998               15.582469      40.243830000000003
  8089   2     0.56452599999999997      14.895300000000001      40.877246999999997
  8090   2      1.2803450000000001      15.126117000000001      39.559480000000001
  8091   5                3.192863      7.8272870000000001      42.511505999999997
  8092   2      4.0079520000000004                 7.37019      42.731544999999997
  8093   2                2.792408      7.2847099999999996      41.827482000000003
  8094   5      13.238379999999999      39.756602000000001      19.298414999999999
  8095   2               12.876279      39.076403999999997      18.725756000000001
  8096   2               12.482175      40.075512000000003               19.797507
  8097   5               41.342993               14.526652      3.2591420000000002
  8098   2      40.702364000000003                14.71006      2.5679970000000001
  8099   2      42.141925999999998      14.973682999999999      2.9684339999999998
  8100   5      44.530183000000001      27.177814999999999               11.258955
  8101   2      44.538457000000001      26.663402999999999               12.069533
  8102   2      44.703740000000003      28.077888000000002      11.545987999999999
  8103   5      35.410530999999999      16.965385000000001               23.146939
  8104   2      35.778936000000002               17.494266      23.858478000000002
  8105   2      36.151504000000003      16.812671000000002      22.555095999999999
  8106   5      19.035481000000001      36.425024999999998      42.757775000000002
  8107   2      19.396411000000001      35.537495999999997               42.818973
  8108   2      18.083711000000001      36.295577999999999      42.753287999999998
  8109   5      14.152302000000001      43.592731999999998      18.126978000000001
  8110   2      13.227194000000001      43.684300999999998      18.366797999999999
  8111   2      14.272284000000001      44.208978999999999      17.400006999999999
  8112   5               10.147211      41.914532999999999      17.765377000000001
  8113   2      9.4120469999999994               41.345084      18.004093999999998
  8114   2               10.042028      42.056513000000002      16.821225999999999
  8115   5               37.350192               13.464561      35.149450000000002
  8116   2      36.809261999999997      14.133336999999999      35.575898000000002
  8117   2      38.098475000000001               13.350444      35.740797999999998
  8118   5      3.3176839999999999      44.225957000000001               30.878584
  8119   2      3.0326870000000001               43.673676      31.610354000000001
  8120   2      2.5363009999999999      44.733027999999997      30.644145000000002
  8121   5      15.942619000000001      6.7665990000000003               35.230556
  8122   2               15.834811      6.0639089999999998      35.875793000000002
  8123   2               15.212303                7.365386                35.40587
  8124   5      17.652761000000002                0.466422      35.370215000000002
  8125   2      18.495374999999999    0.025336000000000001      35.501249000000001
  8126   2      17.596685999999998      1.0937190000000001      36.095471000000003
  8127   5      8.8996530000000007      8.8439160000000001      14.318911999999999
  8128   2      8.6350309999999997      8.4119799999999998      13.503356999999999
  8129   2                9.558935      9.4866510000000002               14.045268
  8130   5               22.249824      2.6680709999999999      15.035092000000001
  8131   2               22.338445                3.623777      15.057396000000001
  8132   2      23.051407000000001      2.3643380000000001               14.601671
  8133   5      4.4449579999999997      41.654597000000003      14.059158999999999
  8134   2      4.5307700000000004               41.433332               13.128888
  8135   2      3.4971930000000002      41.667237999999998      14.214793999999999
  8136   5      15.092473999999999               42.998151      6.3371729999999999
  8137   2               14.720616      43.590761000000001      5.6797079999999998
  8138   2      14.380133000000001      42.864148999999998      6.9674550000000002
  8139   5               19.073041                1.214056      43.625680000000003
  8140   2      19.276150000000001      2.1438570000000001      43.499425000000002
  8141   2      19.193014999999999     0.82360800000000001      42.756314000000003
  8142   5               28.709681      8.8218730000000001      3.1122290000000001
  8143   2      28.262885000000001      9.5018390000000004      3.6218810000000001
  8144   2      28.802354000000001      9.2032360000000004      2.2355209999999999
  8145   5               11.029691      30.180859999999999                3.001198
  8146   2                10.80734      29.247261000000002      3.0272130000000002
  8147   2      11.258281999999999               30.396898      3.9087860000000001
  8148   5               15.766404      18.181844999999999      41.873866999999997
  8149   2      16.587945999999999      17.737656999999999               41.651401
  8150   2      15.618736999999999               17.961679               42.797103
  8151   5      7.0350450000000002      35.129356999999999      4.9110199999999997
  8152   2      7.0420369999999997      34.182989999999997      4.7495750000000001
  8153   2                6.177969      35.419837999999999      4.5890209999999998
  8154   5      17.682493000000001      17.026195999999999               11.255639
  8155   2               16.891178      17.543313000000001               11.423377
  8156   2      17.768875999999999      16.464524000000001      12.030044999999999
  8157   5      42.664971000000001               21.081484      3.6967270000000001
  8158   2      42.165863999999999               20.308522      3.9708600000000001
  8159   2      43.324328000000001      20.736481999999999                3.089385
  8160   5      9.1678040000000003      22.102627999999999      43.633087000000003
  8161   2      9.8385219999999993      22.053080999999999      42.947954000000003
  8162   2      9.4561679999999999      21.469398000000002      44.295287000000002
  8163   5      13.725396999999999      42.663533999999999      26.061423000000001
  8164   2               13.132724      41.931584999999998      26.247744999999998
  8165   2      13.147303000000001      43.365789999999997               25.752741
  8166   5      33.520735999999999               40.085037      14.107373000000001
  8167   2      32.653353000000003      40.451852000000002               14.293972
  8168   2      33.487420999999998      39.196888000000001               14.471686
  8169   5               20.827396     0.57786000000000004      17.338567000000001
  8170   2               21.430968   0.0062459999999999998      16.858270999999998
  8171   2      19.964814000000001     0.17513500000000001      17.210484000000001
  8172   5      44.999040000000001      1.3861760000000001      19.148008999999998
  8173   2               44.362313      1.6597580000000001               18.483587
  8174   2      44.475538999999998     0.91199399999999997      19.798963000000001
  8175   5      40.573072000000003      16.426853000000001               11.462033
  8176   2      40.873370000000001      17.322987000000001               11.630827
  8177   2      41.170909999999999      16.098462999999999               10.785726
  8178   5               31.866743      40.335450999999999      19.642196999999999
  8179   2      31.845296999999999      39.490001999999997      19.187795000000001
  8180   2               32.522306      40.217599999999997               20.334287
  8181   5      9.3624159999999996      8.3863690000000002      1.7354179999999999
  8182   2      8.7169460000000001      8.4571640000000006      1.0282530000000001
  8183   2      10.140674000000001      8.8336629999999996                1.393535
  8184   5               17.381688                9.651446               18.682323
  8185   2      18.257612999999999      9.9401700000000002      18.415641000000001
  8186   2      17.480626000000001      8.7102509999999995      18.846658999999999
  8187   5      7.9731899999999998      16.009150000000002      18.751245000000001
  8188   2      8.9073270000000004      16.205456000000002      18.648396999999999
  8189   2      7.7282919999999997               16.439622      19.574263999999999
  8190   5      9.9364310000000007      36.219642999999998      1.7475259999999999
  8191   2      10.183839000000001      36.020344999999999     0.84154899999999999
  8192   2      9.3583829999999999      36.983283999999998      1.6743479999999999
  8193   5      5.8480600000000003      38.993594999999999      18.880558000000001
  8194   2      6.2150230000000004      38.170712999999999      18.549005000000001
  8195   2      5.0441659999999997      38.730001000000001      19.335436000000001
  8196   5               15.496791               30.068282      43.741008000000001
  8197   2               15.139357      29.178664000000001      43.791452999999997
  8198   2                14.73213               30.622957      43.567019000000002
  8199   5      38.177610999999999      12.002755000000001      12.511255999999999
  8200   2      38.974429000000001               11.587031      12.173647000000001
  8201   2      37.691074999999998      12.260122000000001      11.724054000000001
  8202   5      8.8084249999999997      36.656443000000003      5.5764719999999999
  8203   2      9.5223060000000004      37.041718000000003      6.0899539999999996
  8204   2      9.2169070000000008      36.420633000000002                4.739706
  8205   5               13.561422      9.5436999999999994      31.629619999999999
  8206   2               13.879868      8.6733569999999993      31.880261000000001
  8207   2      13.276251999999999      9.4399219999999993      30.718274999999998
  8208   5      37.082859999999997      7.2339840000000004      23.556311000000001
  8209   2               37.369138      7.8937739999999996               22.920351
  8210   2      36.530864000000001                6.635402      23.046759999999999
  8211   5               20.732965      2.4541789999999999                6.638954
  8212   2      19.951149000000001      3.0050789999999998      6.7226109999999997
  8213   2               20.676427      1.8458669999999999      7.3801709999999998
  8214   5               18.721511      27.973137999999999      39.390000999999998
  8215   2               18.120061               28.398768      40.005487000000002
  8216   2      19.241108000000001      28.694766999999999      39.026802000000004
  8217   5     0.17638300000000001      20.597179000000001     0.31692199999999998
  8218   2     0.25334400000000001      19.674327999999999    0.063646999999999995
  8219   2     0.81697699999999995      20.704432000000001                1.024578
  8220   5               17.342938      24.121725000000001      32.487817999999997
  8221   2                16.61842      23.740110000000001      32.988984000000002
  8222   2      18.106193000000001      24.028497000000002      33.063485999999997
  8223   5               14.407147      34.736829999999998      21.158069999999999
  8224   2               14.726404      35.419851999999999      20.563694999999999
  8225   2               13.942045      35.218443000000001               21.846816
  8226   5      8.7942990000000005      36.455965999999997      9.6140939999999997
  8227   2      9.6025120000000008      36.918945999999998      9.3813610000000001
  8228   2      8.4051570000000009      36.990941999999997      10.310522000000001
  8229   5      34.924264000000001               35.367829      6.2171029999999998
  8230   2      34.866641000000001      34.414104999999999      6.3109929999999999
  8231   2      35.867361000000002      35.548566000000001      6.1937620000000004
  8232   5                3.186528               41.828719               19.510783
  8233   2      3.4164910000000002      42.721372000000002      19.779136000000001
  8234   2      3.7864719999999998      41.635638999999998      18.785917999999999
  8235   5      36.325966999999999               20.087163      33.887864999999998
  8236   2      35.798532999999999               19.312427               33.679727
  8237   2      35.690894999999998      20.807227000000001               33.916736
  8238   5                11.37664      12.102429000000001      35.458606000000003
  8239   2               10.960734               12.746089               36.036921
  8240   2               11.504135      11.329613999999999      36.014612999999997
  8241   5      7.7951699999999997      22.623843000000001      34.866602999999998
  8242   2      7.3494390000000003               21.814128      35.126238999999998
  8243   2      7.1297430000000004               23.116799      34.379938000000003
  8244   5      40.103217999999998      13.600675000000001      20.454478000000002
  8245   2               39.218142               13.350287      20.729562000000001
  8246   2      39.966703000000003               14.338174      19.854393000000002
  8247   5      39.731329000000002      32.306392000000002      8.4232270000000007
  8248   2               40.630806               32.406965      8.7434630000000002
  8249   2      39.209344000000002      32.873458999999997      8.9964709999999997
  8250   5               39.143991      34.739711999999997      41.954011999999999
  8251   2      38.793940999999997      35.633003000000002      41.988978000000003
  8252   2      40.077458999999998      34.856839000000001      41.760209000000003
  8253   5               34.234392      20.900279999999999      30.778314999999999
  8254   2      34.279983999999999      20.332858000000002      31.551411000000002
  8255   2      33.434229999999999               21.415685      30.907696000000001
  8256   5               20.129175      15.684571999999999      36.670879999999997
  8257   2               19.566668               15.673435      37.448816999999998
  8258   2      19.541056999999999               15.938108      35.955002999999998
  8259   5                3.104425      8.3868399999999994      4.2510519999999996
  8260   2      3.5676160000000001      9.2015720000000005                4.042751
  8261   2      2.5697679999999998      8.6060149999999993      5.0183499999999999
  8262   5      35.443882000000002      39.385761000000002               32.370027
  8263   2      35.003549999999997      40.132801000000001               31.958002
  8264   2      35.848007000000003      39.753310999999997      33.160110000000003
  8265   5      12.866834000000001      18.996355999999999      37.935856999999999
  8266   2      13.404102999999999      19.735531999999999               38.230283
  8267   2      12.077927000000001      19.042605999999999      38.481867999999999
  8268   5      14.493218000000001      18.250775999999998      3.1351019999999998
  8269   2               15.255008      17.671275999999999      3.0603980000000002
  8270   2               14.738844      18.880728000000001      3.8173560000000002
  8271   5      9.1291729999999998      3.2295310000000002               25.133388
  8272   2      8.4342330000000008      3.8096199999999998               24.813575
  8273   2      8.8231479999999998                2.945166               25.998331
  8274   5                10.26341      8.2720800000000008      19.835235000000001
  8275   2               10.700327                7.614077               19.289469
  8276   2               10.558159      8.0752059999999997      20.727986999999999
  8277   5      18.123128000000001      18.100577999999999      13.581651000000001
  8278   2      18.292445000000001      18.670939000000001               12.828163
  8279   2               17.178556      18.182839999999999               13.735465
  8280   5      2.4872899999999998      40.161309000000003               12.444569
  8281   2                  1.8163      40.646076999999998               12.930878
  8282   2      2.6543920000000001      40.700228000000003               11.667211
  8283   5      21.792833000000002     0.58850599999999997      41.559710000000003
  8284   2      20.912807000000001     0.27182000000000001      41.342942999999998
  8285   2      22.089351000000001   0.0057289999999999997      42.263336000000002
  8286   5      28.690968999999999      40.346065000000003      36.585054999999997
  8287   2                28.71303      41.294572000000002      36.438175000000001
  8288   2      28.272501999999999      40.247475999999999      37.444012000000001
  8289   5      20.248795999999999      28.212748000000001      31.203562999999999
  8290   2      20.783287999999999               28.715242      31.822870999999999
  8291   2      20.835653000000001      28.047878000000001      30.461228999999999
  8292   5      6.7075069999999997      21.512060000000002      2.3047080000000002
  8293   2                  7.5206               21.081941      2.5796670000000002
  8294   2      6.0745420000000001      20.794395000000002      2.2213120000000002
  8295   5      1.5741909999999999      5.6770259999999997      17.667314000000001
  8296   2     0.69937899999999997      6.0212899999999996      17.472601000000001
  8297   2      1.4777720000000001      5.2509209999999999               18.522755
  8298   5      25.462914000000001      10.240358000000001      41.965685999999998
  8299   2      26.290908999999999               10.654733      41.711829000000002
  8300   2      25.116275000000002               10.806094      42.660254999999999
  8301   5      16.484763999999998      42.283766999999997      18.580815000000001
  8302   2               15.721102      41.701962000000002               18.573836
  8303   2               16.278779               42.955441      17.925782999999999
  8304   5      17.164660000000001      12.134118000000001      6.0849080000000004
  8305   2               17.181476               12.825604      6.7507080000000004
  8306   2               18.086406      11.887905999999999      5.9735279999999999
  8307   5      32.681230999999997      27.273071000000002      6.6810660000000004
  8308   2      32.130467000000003      26.748819999999998                6.094938
  8309   2      32.914954999999999               26.670099                7.391305
  8310   5      11.320441000000001      34.525821000000001      17.975567000000002
  8311   2      11.689842000000001      33.647660000000002      17.856815999999998
  8312   2               10.441373      34.468482000000002               17.592692
  8313   5      41.308857000000003               11.325284               10.734102
  8314   2      42.218159999999997               11.293084      11.040461000000001
  8315   2      41.042478000000003               10.403962      10.680713000000001
  8316   5      38.626645000000003      16.272811000000001      8.1576439999999995
  8317   2      39.014234000000002               16.543585      7.3220710000000002
  8318   2               38.521048               15.321726      8.0744100000000003
  8319   5      38.230063999999999               10.164584      21.222816999999999
  8320   2      37.871291999999997               10.617015      20.455801000000001
  8321   2      37.852479000000002                9.282527      21.177585000000001
  8322   5      33.701430000000002      3.4046150000000002      41.216332999999999
  8323   2      32.997898999999997      3.9976660000000002      40.942362000000003
  8324   2      33.291652999999997      2.8359030000000001      41.873060000000002
  8325   5      5.4786929999999998               25.917935      23.263242000000002
  8326   2      5.9671570000000003      26.349665999999999      22.558447000000001
  8327   2      5.1052439999999999      26.641670000000001      23.772542000000001
  8328   5      20.876829000000001      38.564452000000003               30.472503
  8329   2      21.529340999999999      38.790286999999999               29.805456
  8330   2               21.368796      38.061933000000003      31.126785000000002
  8331   5                26.80658     0.92082900000000001      36.391795999999999
  8332   2               27.036752      1.8527910000000001      36.405672000000003
  8333   2      27.127268000000001     0.58349700000000004               37.232039
  8334   5               25.178397      13.159079999999999                33.94894
  8335   2                24.47017      13.220864000000001      33.303710000000002
  8336   2      24.881129999999999               13.703752      34.682156999999997
  8337   5      34.676392999999997      4.6399010000000001               11.041831
  8338   2      34.652450999999999      5.0275359999999996      11.919835000000001
  8339   2      34.868749999999999      5.3794560000000002               10.459851
  8340   5               31.218588               20.960231               30.130699
  8341   2      30.945426999999999      21.494213999999999               29.381052
  8342   2      31.868856000000001      20.353881999999999      29.767195000000001
  8343   5               13.168637      22.495063999999999      41.954723000000001
  8344   2               12.791451      23.297423999999999      41.586384000000002
  8345   2      14.101933000000001      22.696611000000001      42.059505999999999
  8346   5               18.085352      33.566048000000002      22.085719000000001
  8347   2      18.255883000000001      32.622396999999999               22.039158
  8348   2      18.722988999999998      33.953698000000003               21.480915
  8349   5      26.257321000000001      37.549891000000002               14.075156
  8350   2      25.395562000000002      37.651550999999998               13.664349
  8351   2      26.128457999999998      36.861248000000003      14.732276000000001
  8352   5      17.398821000000002               28.392581               30.983749
  8353   2                17.43233      28.392690000000002      31.943228999999999
  8354   2      18.136444000000001               27.836962      30.719474000000002
  8355   5               13.227738      32.375582999999999      14.194457999999999
  8356   2      12.341991999999999      32.152548000000003      14.490149000000001
  8357   2               13.099086      33.110010000000003      13.588895000000001
  8358   5      37.165100000000002               19.569578               16.076269
  8359   2               38.016793               19.777621               15.685038
  8360   2      37.381614999999996      19.198412999999999      16.935338000000002
  8361   5      9.6572289999999992      1.3795310000000001               19.626617
  8362   2      9.8398850000000007      1.5850610000000001      18.706769000000001
  8363   2               10.410434     0.85380400000000001      19.907568999999999
  8364   5     0.88110500000000003      28.518340999999999                3.342676
  8365   2                1.528942      28.618774999999999      2.6412870000000002
  8366   2    0.047350000000000003               28.764609      2.9342069999999998
  8367   5               16.720996      33.080658999999997               12.612627
  8368   2      17.619406000000001      33.404516999999998      12.711114999999999
  8369   2      16.598483999999999      33.002443999999997               11.663145
  8370   5      7.2831900000000003      32.769423000000003      20.936513000000001
  8371   2      7.2071820000000004               31.854879      20.654457000000001
  8372   2      7.6769480000000003                33.21893      20.184488999999999
  8373   5      5.9769750000000004      3.7672569999999999      34.519485000000003
  8374   2      6.8895419999999996      3.7491300000000001      34.221795999999998
  8375   2      6.0392159999999997      3.8578060000000001      35.473722000000002
  8376   5      44.140284999999999      6.9855879999999999      15.899160999999999
  8377   2      43.261639000000002      6.6391790000000004      15.726805000000001
  8378   2                44.69679      6.5626569999999997               15.240318
  8379   5      40.730347999999999      30.583037000000001      35.281981000000002
  8380   2      41.667555999999998               30.546754      35.076922000000003
  8381   2      40.698551999999999      30.664691000000001      36.238517999999999
  8382   5      42.861801999999997      35.766716000000002      2.5012159999999999
  8383   2      42.054392999999997      36.266669999999998      2.3602829999999999
  8384   2      42.563927999999997      34.932541999999998                2.872789
  8385   5      33.472121000000001      13.698983999999999      35.239221000000001
  8386   2               34.389578               13.925557      35.069918999999999
  8387   2      33.005664000000003               14.536904      35.184911999999997
  8388   5                30.19265               14.620424      6.6405120000000002
  8389   2               31.009204               14.141368      6.8001040000000001
  8390   2      30.066178000000001               15.146977      7.4338519999999999
  8391   5      36.386181000000001      42.643585999999999      18.083234999999998
  8392   2      35.505645999999999      42.986317999999997               18.253287
  8393   2      36.863908000000002      43.388440000000003               17.709588
  8394   5               16.231724      25.903027999999999   0.0050090000000000004
  8395   2      17.028279000000001      25.367115999999999   0.0098399999999999998
  8396   2      15.514511000000001      25.264099000000002  0.00086200000000000003
  8397   5      8.4941840000000006                 4.88293      20.402927999999999
  8398   2      8.3011959999999991      5.7444389999999999      20.780131999999998
  8399   2      9.1324740000000002      5.0642889999999996      19.708424000000001
  8400   5      35.181426999999999      35.100321999999998      3.2343299999999999
  8401   2      35.630343000000003      35.712077000000001      3.8225090000000002
  8402   2      34.501821999999997      34.698692000000001      3.7815699999999999
  8403   5               23.920586      6.0893079999999999      8.8710090000000008
  8404   2      23.137288000000002      5.5724960000000001      9.0736810000000006
  8405   2      23.634989000000001      6.6950599999999998      8.1824300000000001
  8406   5      44.146844999999999      1.2584029999999999               24.350365
  8407   2      44.999433000000003                1.696855               24.401163
  8408   2      44.144269000000001     0.84158999999999995      23.484974000000001
  8409   5      4.7632989999999999      21.244122000000001               28.411932
  8410   2      4.6793060000000004      22.061889000000001      27.916022000000002
  8411   2      4.0600639999999997               20.685447      28.071366000000001
  8412   5      1.7640690000000001      37.895127000000002               24.267184
  8413   2                2.168072      37.145377000000003               24.710334
  8414   2      1.8510720000000001      37.694490000000002      23.331866999999999
  8415   5      3.6052659999999999               24.211095      16.932473999999999
  8416   2      2.9738069999999999               24.901667               17.147171
  8417   2      4.4521699999999997      24.663315000000001               16.902597
  8418   5               28.309628      41.549236999999998               19.839693
  8419   2               28.072848      41.155707999999997      20.682780000000001
  8420   2               29.162516      41.161982999999999               19.626953
  8421   5                35.76247      7.9220600000000001      30.863496000000001
  8422   2      35.926462999999998      8.6481359999999992      31.469833000000001
  8423   2      36.557082999999999      7.3848070000000003      30.914401999999999
  8424   5      9.9682429999999993      17.928253000000002      30.367011999999999
  8425   2      9.2758420000000008               17.312075      30.116751000000001
  8426   2      9.8617840000000001      18.665624999999999      29.760719000000002
  8427   5      36.735560999999997      7.1110819999999997               33.219904
  8428   2      36.498719000000001      8.0006450000000005      33.492499000000002
  8429   2      37.627872000000004      7.1970530000000004               32.874893
  8430   5      8.8440100000000008      42.754823999999999      9.2722359999999995
  8431   2      8.3271259999999998      42.290573999999999      9.9348279999999995
  8432   2      9.3524829999999994               43.397292      9.7735679999999991
  8433   5      43.732117000000002      8.6380610000000004      2.3206579999999999
  8434   2      43.132745999999997      8.9902359999999994      2.9828160000000001
  8435   2      43.154189000000002      8.2645479999999996                1.650487
  8436   5      34.897407000000001                6.616168      29.317146000000001
  8437   2               34.070743                6.418323               29.763475
  8438   2      34.742401999999998      6.3611449999999996      28.404140999999999
  8439   5      34.047344000000002               25.447737      5.8318199999999996
  8440   2      33.297511999999998      24.848746999999999                5.805606
  8441   2      33.935237000000001      26.004145000000001      5.0569110000000004
  8442   5      39.726660000000003      24.264123000000001                3.788389
  8443   2      39.443572000000003               24.306559      4.7047869999999996
  8444   2      38.970657000000003                24.58492      3.2902019999999998
  8445   5      14.417899999999999               22.552809      39.893963999999997
  8446   2               14.234755      23.458023000000001      39.631725000000003
  8447   2      13.953094999999999      22.018011999999999      39.245434000000003
  8448   5      7.5206119999999999      39.388499000000003               21.421267
  8449   2      6.8687969999999998      38.870145999999998      20.943591999999999
  8450   2      8.3616010000000003               38.986863               21.188741
  8451   5      38.150812999999999      39.341942000000003               10.891124
  8452   2      37.281453999999997      38.955226000000003      10.763101000000001
  8453   2               38.556193      38.797553000000001               11.570793
  8454   5               21.912917               14.504137      33.934280000000001
  8455   2      22.776731999999999               14.243846      34.262605000000001
  8456   2      22.104372000000001      15.104248999999999      33.209122999999998
  8457   5               30.473886      33.732343999999998      9.2728129999999993
  8458   2                29.69943               34.243935      9.0274210000000004
  8459   2                 30.4315      33.680346999999998      10.231009999999999
  8460   5               44.504787               17.810502               26.520961
  8461   2      44.999634999999998      18.351334000000001      27.140920999999999
  8462   2      44.003540999999998      17.208580999999999               27.076915
  8463   5      6.9201550000000003      1.1040540000000001      27.940743999999999
  8464   2      7.5695709999999998     0.41048099999999998      27.803121999999998
  8465   2      7.2661220000000002      1.6114900000000001               28.679295
  8466   5      37.419547999999999      40.314739000000003      29.118134000000001
  8467   2      38.260004000000002      40.733511999999997      29.318103000000001
  8468   2      37.492925999999997               40.061968               28.194357
  8469   5      42.559685999999999               12.798826      34.382314999999998
  8470   2               42.206688      13.104596000000001      35.221136999999999
  8471   2      41.942073999999998      12.120900000000001      34.096634000000002
  8472   5      9.4890229999999995      31.831085000000002               28.516489
  8473   2      10.237152999999999               31.821406      29.118099000000001
  8474   2      9.0265380000000004               31.008989               28.697892
  8475   5                4.449122      6.9337010000000001      29.781320999999998
  8476   2      4.8658169999999998                6.104209      29.536304999999999
  8477   2      4.9987959999999996      7.2762700000000002      30.490649999999999
  8478   5      27.960225000000001               24.681794      32.088334000000003
  8479   2      28.525753999999999               25.408655      32.359582000000003
  8480   2      28.292476000000001      24.431450999999999      31.222550999999999
  8481   5      2.0777060000000001      26.981694000000001      24.580804000000001
  8482   2                1.362104               27.564864      24.844529999999999
  8483   2      2.1154709999999999      26.320765999999999               25.276785
  8484   5      28.605336999999999      6.0166469999999999      32.520688999999997
  8485   2      27.779343000000001      5.6846410000000001      32.880175000000001
  8486   2      29.071636999999999      6.3705819999999997      33.282223999999999
  8487   5      43.259360000000001      9.2278260000000003      5.4201940000000004
  8488   2      42.834969999999998      8.3715080000000004      5.3288789999999997
  8489   2      44.197414000000002      9.0392539999999997      5.3357060000000001
  8490   5      11.255744999999999      13.339396000000001      10.811443000000001
  8491   2      10.311584999999999      13.165805000000001      10.823831999999999
  8492   2               11.453127               13.518646      9.8886479999999999
  8493   5               33.120362               32.482149      8.8784039999999997
  8494   2      33.829425999999998      31.872907000000001      8.6598210000000009
  8495   2      33.497528000000003      33.055818000000002      9.5501869999999993
  8496   5      17.067792000000001      28.123397000000001      3.5673180000000002
  8497   2      16.175083999999998                 27.9148      3.8524229999999999
  8498   2               16.949462               28.770374      2.8672740000000001
  8499   5      39.771132000000001      37.579152000000001      40.859253000000002
  8500   2      40.379843999999999      36.988048999999997      41.308466000000003
  8501   2      39.460419999999999      37.072822000000002      40.104449000000002
  8502   5      33.051811000000001               15.470393      33.129592000000002
  8503   2      32.530917000000002      14.706452000000001      32.871158000000001
  8504   2      32.771864999999998      16.164566000000001      32.527597999999998
  8505   5               15.652998      16.900808999999999      30.624663000000002
  8506   2               15.554169               17.333174               31.476143
  8507   2               14.979668      16.215776999999999      30.625520999999999
  8508   5               38.678255      41.640813999999999                 2.72865
  8509   2      37.987349999999999      42.247458000000002      2.4523190000000001
  8510   2      38.508712000000003               40.840843      2.2247210000000002
  8511   5      34.099755999999999               12.373751      28.417097999999999
  8512   2      34.954346000000001               12.457663      28.846468999999999
  8513   2      33.464896000000003      12.437428000000001      29.135107999999999
  8514   5               26.726692                3.238194      22.374604000000001
  8515   2               27.158866      3.6164130000000001      23.143954999999998
  8516   2               26.867106                3.886212      21.679622999999999
  8517   5      29.029167999999999      44.048406999999997      15.556649999999999
  8518   2      29.482182000000002               43.622163      16.287963000000001
  8519   2      29.033760000000001      44.981489000000003      15.784637999999999
  8520   5      11.200723999999999      35.950746000000002                 14.9239
  8521   2               11.423484               36.884549                14.93465
  8522   2      10.494858000000001      35.866559000000002               15.569894
  8523   5      29.319908999999999      14.914440000000001               13.026508
  8524   2      29.533605000000001               15.290295               13.883708
  8525   2               30.139554      14.508566999999999               12.733095
  8526   5               24.430076      9.0751159999999995      16.489895000000001
  8527   2      23.794523999999999      9.0774620000000006      15.770315999999999
  8528   2               24.014816      8.5426590000000004      17.173041999999999
  8529   5      7.2320970000000004      33.320089000000003               30.010199
  8530   2      7.2068680000000001      34.269244999999998               29.868102
  8531   2      7.7796310000000002      32.986401000000001      29.295006000000001
  8532   5      8.1554520000000004      2.1869679999999998      17.426356999999999
  8533   2      7.7760059999999998      2.8609830000000001      17.995083999999999
  8534   2      7.4573809999999998                1.533941      17.332042000000001
  8535   5      11.618684999999999      43.556780000000003      14.135184000000001
  8536   2      11.146843000000001               42.783507               14.453206
  8537   2      11.042346999999999      43.927711000000002               13.462216
  8538   5               11.017367               13.106119      7.6659309999999996
  8539   2      10.173736999999999               13.479305      7.9319100000000002
  8540   2      11.325044999999999      13.687288000000001      6.9657749999999998
  8541   5      21.059049000000002      6.7371660000000002      7.5335299999999998
  8542   2      21.033052999999999      5.9947109999999997      8.1416489999999992
  8543   2      20.982499000000001      7.5105370000000002      8.0980480000000004
  8544   5      3.1833619999999998     0.82779000000000003      33.166438999999997
  8545   2      2.8622239999999999     0.90826899999999999      34.067613999999999
  8546   2      2.4013719999999998     0.60913499999999998      32.653288000000003
  8547   5      10.203639000000001      4.7680749999999996      38.493817999999997
  8548   2               10.882873      5.3048789999999997               38.908794
  8549   2      10.572946999999999      4.5359059999999998      37.638041999999999
  8550   5      6.5730259999999996      9.5398110000000003      11.602562000000001
  8551   2      7.4426759999999996      9.3223760000000002      11.258824000000001
  8552   2      6.3703760000000003               10.394954               11.214872
  8553   5      21.217794999999999      9.1224530000000001      6.2147180000000004
  8554   2      20.913246000000001                 9.51858      7.0345089999999999
  8555   2      21.732859000000001      9.8145539999999993      5.7924069999999999
  8556   5      27.256056000000001      35.398690000000002      4.5287680000000003
  8557   2      26.881426000000001      34.924366999999997      3.7828490000000001
  8558   2                27.07648               36.322848      4.3381759999999998
  8559   5      22.403310999999999               15.487648      38.744559000000002
  8560   2      21.956606000000001      15.098959000000001               37.988847
  8561   2               22.832255      16.271004999999999               38.391005
  8562   5      38.701394000000001      41.411143000000003      10.384207999999999
  8563   2      38.919570999999998      41.184665000000003      9.4771079999999994
  8564   2               39.463479      41.905498000000001      10.696429999999999
  8565   5               19.483103      41.254573999999998      11.726743000000001
  8566   2      19.574535999999998      40.975526000000002               10.812688
  8567   2      20.278742999999999      41.763598999999999               11.901365
  8568   5      9.2448409999999992               15.853225               15.554494
  8569   2      9.5397940000000006      16.632529999999999               15.077617
  8570   2      9.2473379999999992               16.122716      16.476452999999999
  8571   5                13.42381      43.329188000000002      2.1678950000000001
  8572   2      13.619021999999999      42.532393999999996      2.6666300000000001
  8573   2               14.092765      43.957630000000002                2.451095
  8574   5      26.135103999999998      20.334475999999999     0.71033100000000005
  8575   2               26.493997      19.596862000000002      1.2091769999999999
  8576   2      25.558958000000001      19.924731999999999    0.060095000000000003
  8577   5      14.917085999999999      6.9769129999999997      6.5185089999999999
  8578   2               15.514555      7.1854979999999999      7.2404849999999996
  8579   2               14.042173      7.1484439999999996      6.8759259999999998
  8580   5               13.569374      30.795003000000001      32.074478999999997
  8581   2      13.731553999999999      30.232994999999999      32.835774000000001
  8582   2      12.826212999999999      30.382173000000002      31.627348999999999
  8583   5               21.816398               27.861988      1.3628670000000001
  8584   2      21.514593999999999               28.250249     0.53831099999999998
  8585   2      21.708190999999999      26.916198999999999      1.2347410000000001
  8586   5      26.182735000000001               28.953032               43.533963
  8587   2      26.897998999999999      28.467673000000001      43.951754999999999
  8588   2      26.354482000000001                28.86759      42.592770000000002
  8589   5     0.77522500000000005      40.049486000000002                30.25712
  8590   2  0.00070299999999999996      39.520659999999999      30.462506000000001
  8591   2     0.50709099999999996      40.582779000000002      29.504560999999999
  8592   5      24.414560999999999      32.277740999999999      42.719636000000001
  8593   2               25.110325      31.642427999999999      42.535206000000002
  8594   2      24.765188999999999      32.814374999999998      43.434986000000002
  8595   5      4.1512599999999997      19.436420999999999      33.120226000000002
  8596   2      3.5996760000000001      19.191496000000001      33.866878999999997
  8597   2      3.8475250000000001      20.314720000000001      32.877372000000001
  8598   5               30.412464      32.150202999999998      2.0042360000000001
  8599   2      30.773471000000001      32.895254000000001      2.4903400000000002
  8600   2      31.075894000000002      31.956783000000001      1.3370850000000001
  8601   5      35.279873000000002               25.940925      30.770133999999999
  8602   2      35.878084999999999               25.301589               30.376286
  8603   2      34.456107000000003      25.459613000000001      30.881450999999998
  8604   5               12.796018                0.240676      41.038156999999998
  8605   2               11.862384     0.13339799999999999      41.234482999999997
  8606   2      12.900465000000001      1.1829609999999999      40.883783000000001
  8607   5                41.92895      27.207833999999998      9.0872430000000008
  8608   2      41.883285999999998      27.582343999999999      8.2044169999999994
  8609   2      42.680647999999998      27.646436000000001      9.4937149999999999
  8610   5               25.714955      26.957356000000001      40.941284000000003
  8611   2      26.665635000000002      26.837886999999998      40.880788000000003
  8612   2      25.533076000000001      26.948523000000002      41.884408999999998
  8613   5      11.263331000000001      37.794086999999998      12.678777999999999
  8614   2      12.168290000000001      37.601846000000002               12.422229
  8615   2      11.347735999999999      38.439534999999999      13.385116999999999
  8616   5      31.332170000000001      6.0810279999999999      33.907786000000002
  8617   2      31.002445000000002                6.945856               34.162889
  8618   2      31.948363000000001      6.2619680000000004      33.193497000000001
  8619   5               38.682941      6.8211050000000002      30.830052999999999
  8620   2      38.311238000000003      6.0330079999999997      30.426984000000001
  8621   2      39.363171000000001      6.4884690000000003      31.421054999999999
  8622   5               29.545866      33.668854000000003               44.304102
  8623   2      28.592376999999999      33.691732999999999      44.194276000000002
  8624   2               29.690538      33.019703999999997      44.997149999999998
  8625   5      42.967843000000002      24.047184000000001      1.9886680000000001
  8626   2                42.97634      24.623484999999999      2.7564769999999998
  8627   2      43.720280000000002      24.335477999999998                1.465822
  8628   5      42.454295000000002      38.438040000000001               31.748379
  8629   2      43.224089999999997               39.010354      31.788353000000001
  8630   2      42.753269000000003               37.670434      31.254377000000002
  8631   5      37.458967000000001      13.155101999999999      39.843032000000001
  8632   2      38.352479000000002               13.332621      39.539968000000002
  8633   2               37.413629               13.570428      40.707954000000001
  8634   5      28.153369999999999      19.833846999999999               14.333784
  8635   2      27.576121000000001      19.495515000000001      15.022289000000001
  8636   2      28.010916000000002      19.241790999999999      13.590939000000001
  8637   5               14.909646      43.348483000000002      39.460858000000002
  8638   2      15.704580999999999      43.435355999999999      38.929580999999999
  8639   2      15.030671999999999      43.978425000000001               40.175818
  8640   5      12.351046999999999               18.419677      42.402706000000002
  8641   2      13.154693999999999      18.111968000000001      42.828372999999999
  8642   2               11.941013                18.99408      43.054301000000002
  8643   5      33.907299999999999      37.421078000000001      18.818266000000001
  8644   2               33.715246               38.344296      18.998570000000001
  8645   2      34.381602000000001      37.434904000000003      17.983108000000001
  8646   5               39.182485      10.616210000000001      42.710239000000001
  8647   2      39.500292000000002      9.7111499999999999      42.750114000000004
  8648   2      39.866165000000002               11.128544      43.149258000000003
  8649   5               38.447015      2.1437270000000002               31.908472
  8650   2      39.376309999999997                2.183751      32.146241000000003
  8651   2      38.350979000000002      1.2979240000000001      31.463457999999999
  8652   5      9.6288990000000005      1.3616630000000001                31.34196
  8653   2      9.0157919999999994     0.71015799999999996      30.993583999999998
  8654   2               10.056248     0.91706200000000004      32.078400999999999
  8655   5      2.2430080000000001      25.308731999999999      29.348023999999999
  8656   2                1.574228      25.953147000000001                29.59131
  8657   2      3.0765859999999998      25.760577999999999               29.501728
  8658   5               13.755302      23.294982999999998      34.571978000000001
  8659   2                13.46697               22.848412      33.772500000000001
  8660   2               14.351512                23.98058      34.260319000000003
  8661   5               11.393532      20.345057000000001      3.4533640000000001
  8662   2               11.985045      19.593481000000001      3.5368599999999999
  8663   2      11.529966999999999      20.846737000000001      4.2610419999999998
  8664   5               15.148296      28.239464000000002      6.0508329999999999
  8665   2      14.902449000000001      27.419730999999999      5.6157199999999996
  8666   2      14.738504000000001               28.924916      5.5171039999999998
  8667   5      17.716249000000001      18.121265000000001      36.946134000000001
  8668   2      18.353895999999999      17.787375000000001                 36.3108
  8669   2      17.350252000000001      18.904482000000002      36.527493999999997
  8670   5      13.112674999999999      20.564544999999999      34.302052000000003
  8671   2      12.168640999999999      20.496252999999999               34.141244
  8672   2      13.514181000000001      20.368379999999998      33.451784000000004
  8673   5               29.667106      3.7891430000000001      33.167344999999997
  8674   2      30.188901999999999      4.5298860000000003      32.849927000000001
  8675   2               29.075063      4.1757520000000001      33.817469000000003
  8676   5               10.991564      19.727371999999999      31.591802000000001
  8677   2               10.550775                20.54224      31.339967000000001
  8678   2               10.536546      19.446978999999999      32.389912000000002
  8679   5               11.735975               13.878959                 1.86422
  8680   2               12.142339                13.55538      1.0568230000000001
  8681   2      12.026600999999999      14.792256999999999                1.927986
  8682   5      22.632352000000001      5.6299440000000001      25.614201999999999
  8683   2               22.241878      4.9059929999999996      26.109328999999999
  8684   2      22.255102000000001      6.4199409999999997      26.009460000000001
  8685   5      8.6474620000000009      8.2643570000000004      36.369979999999998
  8686   2      8.9963569999999997      7.6871749999999999      35.686709999999998
  8687   2      7.8530709999999999      7.8191030000000001      36.675483999999997
  8688   5      29.414619999999999      13.890306000000001      2.8369260000000001
  8689   2      30.308088000000001      14.217192000000001      2.9657149999999999
  8690   2      29.521664999999999               13.119042      2.2744900000000001
  8691   5      29.870933000000001               40.575896      27.231045999999999
  8692   2               30.082497      39.933169999999997      27.912126000000001
  8693   2      29.974350999999999      41.426358999999998               27.665395
  8694   5      33.493408000000002      26.331627000000001      33.293098000000001
  8695   2      33.564455000000002      26.982112999999998      33.995626000000001
  8696   2      34.381718999999997      26.272106999999998      32.932538000000001
  8697   5               23.829065               23.284647      34.714615999999999
  8698   2      23.205470999999999      22.764375000000001      34.202589000000003
  8699   2      23.577780000000001               23.126745      35.628162000000003
  8700   5               35.775883      24.205010000000001      28.237165999999998
  8701   2      34.830626000000002      24.050498000000001      28.171278000000001
  8702   2      35.952587000000001      24.884858999999999      27.582014999999998
  8703   5      24.587336000000001      26.676694999999999      37.337659000000002
  8704   2      24.638953000000001      25.718039000000001      37.343853000000003
  8705   2      23.900279999999999      26.882611000000001      37.976560999999997
  8706   5      35.100853000000001      42.654359999999997      42.254969000000003
  8707   2      35.545273000000002      43.493547999999997      42.396320000000003
  8708   2      35.757854999999999      42.107424999999999               41.816958
  8709   5      33.664141999999998               17.899908      37.104751999999998
  8710   2      33.174939999999999      17.189246000000001      37.525899000000003
  8711   2      34.583261999999998               17.711036      37.310147999999998
  8712   5      23.007173000000002               41.346646      19.220821999999998
  8713   2               23.615796      42.033853000000001               18.939664
  8714   2      23.533982000000002      40.779780000000002      19.789836000000001
  8715   5      33.121813000000003      42.664563999999999      31.884844999999999
  8716   2      32.715105999999999               43.482008      32.181660999999998
  8717   2      33.851711999999999      42.949438999999998      31.329205000000002
  8718   5      21.379712000000001      9.5097090000000009               14.700853
  8719   2                21.71266               10.259122               15.200103
  8720   2      22.103822000000001      9.2720409999999998               14.116199
  8721   5               12.368067      10.705367000000001               16.090052
  8722   2      11.610938000000001               10.482825                16.63682
  8723   2      11.994421000000001      10.868225000000001      15.220276999999999
  8724   5               33.545133      42.967637000000003               26.341714
  8725   2               32.827734      42.434570000000001      25.991137999999999
  8726   2      33.768836999999998      42.547350999999999      27.175954999999998
  8727   5      4.2977610000000004      13.980157999999999      20.060306000000001
  8728   2      4.6165620000000001      14.838367999999999      19.771229000000002
  8729   2      3.3535529999999998      14.005373000000001      19.885729000000001
  8730   5      16.864039999999999      23.898213999999999      29.518906000000001
  8731   2      15.949218999999999               23.631224      29.635280999999999
  8732   2      17.234158000000001               23.232381      28.933824000000001
  8733   5      7.8701930000000004      12.066662000000001      9.1319920000000003
  8734   2      8.7001249999999999      12.526007999999999      9.2801080000000002
  8735   2                7.618843      11.742404000000001      10.000508999999999
  8736   5                2.731859      32.398634000000001      40.008752000000001
  8737   2      3.1941359999999999               31.621561      40.331525999999997
  8738   2      2.0267469999999999      32.538387999999998      40.645876999999999
  8739   5      30.993017999999999      30.683022999999999      23.096012000000002
  8740   2      31.798788999999999               30.895785      23.572658000000001
  8741   2      31.155149000000002               29.809137      22.731760999999999
  8742   5               25.793723      38.805765999999998      33.901153999999998
  8743   2      24.971547999999999      38.349939999999997      34.096029000000001
  8744   2      26.427952000000001      38.426271999999997      34.514651000000001
  8745   5               13.822825      1.4061079999999999      38.384430000000002
  8746   2               12.914437      1.3530450000000001      38.690598999999999
  8747   2      13.920984000000001      2.3135870000000001      38.085284000000001
  8748   5      16.517008000000001      9.9899190000000004               41.992421
  8749   2               15.944281      9.7429089999999992      42.722279999999998
  8750   2      16.408169000000001               10.941155      41.915311000000003
  8751   5      23.766822999999999      37.825347999999998     0.78726700000000005
  8752   2      24.580545999999998      37.355531999999997     0.98437799999999998
  8753   2      23.379833999999999      37.335917000000002    0.056966000000000003
  8754   5      41.162267999999997               38.575398      7.8240800000000004
  8755   2               40.621378      39.245989000000002      7.4004399999999997
  8756   2      40.861956999999997      37.748378000000002                7.438733
  8757   5      36.201419000000001      4.8962820000000002      33.221594000000003
  8758   2      36.989910999999999      4.4182499999999996      33.488970000000002
  8759   2      35.476967999999999      4.3923120000000004      33.600839999999998
  8760   5      26.874922999999999               10.384649                 6.94442
  8761   2      26.475915000000001      9.5161420000000003      6.8537970000000001
  8762   2      26.356394999999999      10.815011999999999      7.6289340000000001
  8763   5      36.853119999999997               34.806317      29.767137999999999
  8764   2      37.810778999999997      34.760303999999998               29.717184
  8765   2               36.679181      35.592573999999999      30.290766000000001
  8766   5      34.915278999999998      25.770907999999999      18.815853000000001
  8767   2      35.647829999999999      26.227132000000001               18.395194
  8768   2      34.760412000000002      26.264227000000002               19.625356
  8769   5      43.583464999999997      2.3985099999999999                37.99362
  8770   2      44.009448999999996      2.7795990000000002      38.765003999999998
  8771   2      44.140253999999999      2.6650689999999999      37.257702000000002
  8772   5      18.295186000000001      4.5675540000000003      22.962354999999999
  8773   2      18.129494000000001      5.4191700000000003               23.373479
  8774   2               18.722106      4.7838719999999997      22.129536000000002
  8775   5      41.840026999999999      26.523983999999999      23.137536999999998
  8776   2      42.449052000000002      27.029502999999998      22.594155000000001
  8777   2      42.029581999999998      26.807884000000001      24.035374999999998
  8778   5      6.1744289999999999      27.542290000000001      18.592648000000001
  8779   2      6.1764250000000001      26.597632999999998      18.421348999999999
  8780   2      6.7580210000000003               27.648854      19.348099000000001
  8781   5                 2.95689               16.476924      19.885666000000001
  8782   2                3.320084               16.381439               20.769237
  8783   2      3.3907150000000001      17.257836999999999      19.532658999999999
  8784   5      13.090037000000001      44.328702999999997      21.026676999999999
  8785   2      13.700525000000001      44.999831999999998      21.340707999999999
  8786   2               13.640603      43.720683999999999      20.526845000000002
  8787   5                3.965417               10.066461      29.419267999999999
  8788   2      4.4122159999999999      9.2694569999999992               29.124513
  8789   2      4.6401279999999998      10.555063000000001      29.897466999999999
  8790   5      37.027574999999999      37.212752000000002      27.551833999999999
  8791   2      37.533023999999997      37.540658000000001      26.804355000000001
  8792   2      36.136321000000002      37.535823999999998      27.397130000000001
  8793   5      30.617592999999999               12.479649      16.917888000000001
  8794   2      30.656887999999999               11.532816      16.763974999999999
  8795   2               31.312054               12.645797      17.560352999999999
  8796   5      8.6673050000000007      37.616970000000002      16.293358999999999
  8797   2      8.5365880000000001      36.876472999999997               15.696448
  8798   2      9.3661650000000005      37.326093999999998      16.884651000000002
  8799   5      3.3787600000000002      36.185046999999997      5.0208440000000003
  8800   2      2.9493900000000002      37.036720000000003      5.1304759999999998
  8801   2      3.4292910000000001      36.064239000000001      4.0692690000000002
  8802   5      28.642281000000001                15.74592      44.050058999999997
  8803   2      28.151586999999999      16.169004000000001      43.341577999999998
  8804   2      29.062730999999999      16.472992000000001      44.516139000000003
  8805   5      32.344707999999997                10.23907      29.453866000000001
  8806   2      33.250253999999998      9.9771009999999993               29.635752
  8807   2      32.261302000000001               10.162319               28.500035
  8808   5      37.631332999999998      16.482727000000001               13.857161
  8809   2      37.489750000000001      17.389465000000001                14.13913
  8810   2      38.031694999999999      16.563151999999999               12.987745
  8811   5      44.225729999999999      30.068028999999999      14.598005000000001
  8812   2      43.939796999999999               29.229761      14.227499999999999
  8813   2      44.862878000000002      30.404516999999998      13.962820000000001
  8814   5      36.935713999999997      34.847875999999999      32.386577000000003
  8815   2      37.619047999999999      34.403829999999999      31.879031999999999
  8816   2      37.418950000000002               35.425027      32.983252999999998
  8817   5               31.136125               15.448136      19.097421000000001
  8818   2                30.80545               14.546839      19.090797999999999
  8819   2      30.421053000000001      15.967231999999999               18.720786
  8820   5      24.149145000000001               13.725925      17.885276999999999
  8821   2      24.463011000000002               14.364763      17.240995000000002
  8822   2      24.950427999999999      13.364001999999999      18.272055999999999
  8823   5      13.057240999999999      3.8504480000000001      39.403613999999997
  8824   2               12.771903      4.6403109999999996      39.868827000000003
  8825   2               12.241809      3.3838270000000001               39.203671
  8826   5      18.646882999999999               22.777687     0.78004099999999998
  8827   2               17.957818      22.144950999999999     0.99581600000000003
  8828   2               18.176233      23.602167000000001     0.63387800000000005
  8829   5               12.450721               29.163473               29.695501
  8830   2      13.186669999999999      29.620667999999998      29.281887000000001
  8831   2               12.012777               28.711354               28.969942
  8832   5      29.989730000000002      35.110315999999997      39.412135999999997
  8833   2      30.871435999999999      34.768343999999999      39.577587999999999
  8834   2               29.615057      35.237166000000002      40.287447999999998
  8835   5      34.968128999999998      27.941818999999999      24.914743999999999
  8836   2      34.012439999999998      27.979634999999998               24.998127
  8837   2      35.125355999999996      27.222712000000001      24.297647999999999
  8838   5      40.581850000000003      42.978077999999996      34.615305999999997
  8839   2               40.796495      43.909609000000003      34.704200999999998
  8840   2      39.717277000000003      42.971493000000002      34.196841999999997
  8841   5      26.814665000000002      36.951962999999999      40.853082999999998
  8842   2               26.737299      37.895946000000002      40.696122000000003
  8843   2               27.044611      36.882961999999999      41.783140000000003
  8844   5               10.451433               15.421217      24.894124999999999
  8845   2      9.6617149999999992      15.140231999999999      24.426024999999999
  8846   2      10.542704000000001               14.787094      25.609805999999999
  8847   5               14.500121      40.655608000000001               29.339019
  8848   2               13.557114      40.519736999999999      29.220687000000002
  8849   2               14.733687               40.080731      30.072234999999999
  8850   5      1.8034289999999999      37.260286999999998      34.486969000000002
  8851   2      2.4232589999999998      36.645010999999997      34.088256000000001
  8852   2     0.95533299999999999      37.028733000000003      34.099983000000002
  8853   5      5.5672110000000004      29.928149000000001 -0.00048299999999999998
  8854   2      4.7228849999999998      30.383883999999998    0.033339000000000001
  8855   2      6.1841660000000003      30.538302000000002     0.41148899999999999
  8856   5      26.061437999999999      19.718133999999999      3.8221859999999999
  8857   2               25.929288      18.967220000000001                3.238756
  8858   2               26.606655      20.322911000000001      3.3126519999999999
  8859   5               28.690769      36.952489999999997               16.462816
  8860   2               28.272962      36.279516000000001               17.005281
  8861   2               28.064933      37.107204000000003               15.750752
  8862   5      37.533181999999996               28.318133               12.589001
  8863   2      38.174702000000003               28.132092      13.278613999999999
  8864   2      36.764465000000001      27.795584999999999               12.831199
  8865   5               23.069447      25.545895999999999      33.698025000000001
  8866   2      23.898596000000001      25.526917000000001      34.181632999999998
  8867   2               22.462322               25.041964               34.245832
  8868   5               30.148422      5.1295000000000002      8.4100319999999993
  8869   2               29.851474                4.245501      8.6382689999999993
  8870   2      31.059895000000001      5.0103220000000004      8.1313659999999999
  8871   5      9.6753549999999997      26.276164999999999      23.095953000000002
  8872   2      9.2577739999999995      25.476424000000002      23.424230000000001
  8873   2      10.148222000000001      26.627006000000002      23.854866999999999
  8874   5      39.241194999999998               25.324824               17.359676
  8875   2      38.361891999999997      25.684083000000001      17.499262999999999
  8876   2      39.088863000000003               24.405808               17.125484
  8877   5      8.7439269999999993                1.825493      13.733447999999999
  8878   2      8.7744619999999998                2.784878      13.714124999999999
  8879   2      8.0039169999999995                 1.62208               14.311073
  8880   5               30.655535               19.055249     0.38750299999999999
  8881   2      30.189692000000001      18.232621999999999     0.22017100000000001
  8882   2               31.527414               18.916781   0.0089610000000000002
  8883   5               14.802688      7.0071019999999997               12.922475
  8884   2      15.197198999999999      6.6865399999999999      13.736923000000001
  8885   2      15.475509000000001      7.5754970000000004               12.539223
  8886   5     0.93964400000000003      36.582507999999997      20.083622999999999
  8887   2      1.6978679999999999      36.124043999999998      19.713985000000001
  8888   2                1.305245               37.110636      20.797806000000001
  8889   5               15.122574      34.825943000000002      38.726596999999998
  8890   2      14.586510000000001      35.619387000000003               38.657266
  8891   2      15.437250000000001      34.829343000000001      39.634126000000002
  8892   5      8.5856729999999999               23.975835      8.1487610000000004
  8893   2      8.4194180000000003      23.154125000000001      7.6809180000000001
  8894   2      7.7449409999999999      24.439630999999999      8.1222100000000008
  8895   5      5.3631000000000002               31.328657      38.039065999999998
  8896   2                5.792986      30.557825000000001      38.416879000000002
  8897   2      6.0625340000000003                31.78143      37.561121999999997
  8898   5               15.761428      41.961536000000002      8.4630949999999991
  8899   2      16.681709000000001      42.117277000000001      8.6879340000000003
  8900   2      15.797219999999999      41.359313999999998      7.7156399999999996
  8901   5      2.6114709999999999      31.553830999999999                13.15211
  8902   2      1.7077119999999999      31.359466000000001               12.892942
  8903   2      2.7937069999999999               30.935115      13.863884000000001
  8904   5               31.452351               10.549248      24.453196999999999
  8905   2      32.016503999999998               10.867844      23.744710000000001
  8906   2      31.204810999999999               11.342065               24.935699
  8907   5      35.627654999999997      1.1610450000000001      3.4468730000000001
  8908   2      36.479739000000002     0.72999999999999998      3.5462579999999999
  8909   2      35.243465999999998     0.75280100000000005                2.666887
  8910   5  0.00046000000000000001      26.956910000000001      22.067572999999999
  8911   2     0.15415000000000001               27.686156               21.462342
  8912   2                 0.44616      27.220514999999999      22.876588000000002
  8913   5      40.366213000000002      2.3122919999999998      22.457930999999999
  8914   2      40.555075000000002      2.2770920000000001      21.517282999999999
  8915   2      39.408279999999998      2.3632270000000002      22.507045000000002
  8916   5                1.766777      8.7953419999999998      29.498035999999999
  8917   2      1.6068519999999999      7.9265470000000002      29.873992999999999
  8918   2                1.385621      9.4047199999999993      30.135234000000001
  8919   5      33.541246999999998      10.002166000000001      25.738499000000001
  8920   2               33.823051      10.497146000000001               24.965643
  8921   2      33.065823000000002               10.643805      26.272272999999998
  8922   5               26.109717               30.923845      29.758652000000001
  8923   2               26.798254               31.137121      29.124493999999999
  8924   2               26.586171      30.707267999999999      30.564088999999999
  8925   5      39.305242999999997      25.909376999999999               11.915654
  8926   2      38.713014999999999      26.114599999999999      12.642891000000001
  8927   2      39.007643999999999      26.475287000000002      11.198840000000001
  8928   5      33.567141999999997      36.630802000000003      44.604982999999997
  8929   2               32.638005      36.757983000000003      44.810540000000003
  8930   2      33.770412999999998      37.329453999999998      43.977919999999997
  8931   5      6.4869589999999997               20.775247      25.879802000000002
  8932   2      5.5834549999999998      21.001920999999999               26.112237
  8933   2      6.7390309999999998      21.436316999999999      25.230119999999999
  8934   5               24.702931      43.653275999999998      42.328769999999999
  8935   2      23.970268000000001      43.971454999999999      42.861396999999997
  8936   2               24.979785      44.420521999999998      41.821494999999999
  8937   5               21.721543      41.363137000000002      13.753081999999999
  8938   2      21.351559000000002      42.246265999999999               13.823224
  8939   2               22.228638      41.252189999999999               14.561282
  8940   5               44.940956      43.133147999999998      37.395375000000001
  8941   2      44.001981000000001      43.333244000000001               37.398795
  8942   2      44.996254999999998      42.255239000000003      37.009552999999997
  8943   5      17.161052999999999      30.094594000000001      38.259248999999997
  8944   2      17.867256999999999      30.579796000000002      37.826143000000002
  8945   2      17.289505999999999      30.270866000000002      39.194701000000002
  8946   5      31.285385999999999      19.867919000000001      9.5194890000000001
  8947   2      30.640377999999998               20.136664      8.8611079999999998
  8948   2      31.032464999999998               18.970001      9.7484359999999999
  8949   5      40.525204000000002               14.321562      8.5293989999999997
  8950   2      40.870688000000001      15.216882999999999      8.5017029999999991
  8951   2      41.296664999999997               13.764187      8.3996949999999995
  8952   5      2.2008860000000001               27.508433               42.988816
  8953   2                3.004982      27.970465999999998      43.237170999999996
  8954   2      2.4968710000000001      26.822292999999998      42.385286999999998
  8955   5      1.3626940000000001               36.751016               13.634473
  8956   2                1.037636      36.171278000000001               12.941677
  8957   2                1.944604      37.364367000000001      13.178597999999999
  8958   5      12.631854000000001                 1.06446      35.907006000000003
  8959   2      13.529322000000001      1.2671589999999999      35.632801000000001
  8960   2      12.432954000000001                1.722858      36.577522999999999
  8961   5      38.380091999999998      3.9097089999999999               21.220917
  8962   2      37.772384000000002      4.3297340000000002               21.834101
  8963   2      39.239823999999999      4.2697380000000003      21.453040999999999
  8964   5                1.992362      28.310455000000001      5.2333280000000002
  8965   2      2.8633860000000002      28.661549000000001      5.0338919999999998
  8966   2      1.6224149999999999      28.934101999999999      5.8632850000000003
  8967   5      41.649889000000002      5.6514740000000003               28.572619
  8968   2      41.440886999999996      6.5068229999999998      28.955269999999999
  8969   2      42.603130999999998      5.5760589999999999      28.663633000000001
  8970   5      37.746949999999998               25.556065      15.091583999999999
  8971   2      37.359178999999997      25.354762999999998      14.236694999999999
  8972   2      38.544612000000001      26.048300000000001               14.881627
  8973   5      37.165070999999998      3.8364379999999998      36.008800999999998
  8974   2      38.091481999999999      3.6674479999999998      35.821904000000004
  8975   2      37.120967999999998      3.8896570000000001      36.966853999999998
  8976   5      12.735898000000001      25.769286000000001      32.100484000000002
  8977   2      12.524444000000001      25.238706000000001               31.328799
  8978   2      12.934366000000001               25.125629      32.785288999999999
  8979   5      38.241031999999997      30.592109000000001      7.7469260000000002
  8980   2      37.810975999999997               31.392509      7.4368660000000002
  8981   2      38.236499000000002      30.674403999999999      8.7039259999999992
  8982   5      3.1741380000000001                23.47185               31.048074
  8983   2                2.623945                24.23377               31.244263
  8984   2      3.8057840000000001      23.794340999999999      30.400258999999998
  8985   5      31.793489000000001               13.415365     0.62729000000000001
  8986   2      32.429547999999997               13.789479                0.013131
  8987   2      31.795051000000001      14.022608999999999      1.3715299999999999
  8988   5      8.3136310000000009               12.678381      35.464181000000004
  8989   2      8.9595050000000001               11.973419      35.551364999999997
  8990   2      8.8164909999999992      13.482576999999999                35.61598
  8991   5      25.199798000000001      21.361301000000001               18.945069
  8992   2               24.988232      20.970186000000002      19.795947000000002
  8993   2      25.412337999999998      20.611136999999999      18.384067999999999
  8994   5      41.781460000000003      29.048632999999999               20.357799
  8995   2      42.234774000000002      28.616129999999998      21.085242000000001
  8996   2      41.742786000000002      28.379732000000001      19.669526999999999
  8997   5      12.097822000000001               10.272644      25.299168000000002
  8998   2      12.252788000000001      10.805523000000001      24.515744999999999
  8999   2      12.055509000000001               10.910019               26.016527
  9000   5      27.064288000000001      4.3656389999999998      10.267702999999999
  9001   2      26.759423000000002      5.2724830000000003               10.347804
  9002   2      26.795438999999998      3.9501179999999998      11.090930999999999
  9003   5      16.355499999999999      34.461841999999997      6.0886800000000001
  9004   2      15.681865999999999      34.472239000000002      5.4046960000000004
  9005   2               16.694789      35.360354000000001      6.1028520000000004
  9006   5      7.7083789999999999      27.168825999999999                11.17192
  9007   2      7.6205569999999998               27.802795               10.456312
  9008   2      8.2088540000000005      27.636883999999998      11.845039999999999
  9009   5      22.566569000000001      2.2878859999999999      35.198748999999999
  9010   2      21.686651000000001      2.5641039999999999               34.931967
  9011   2               22.415139      1.6801699999999999      35.927030000000002
  9012   5      41.490001999999997                21.79457      8.1138999999999992
  9013   2      40.866858000000001      21.294409999999999                7.581683
  9014   2      42.223469999999999               21.971093      7.5193370000000002
  9015   5                5.374428      37.027107999999998      21.301328000000002
  9016   2      5.6052239999999998      36.161548000000003      20.955981999999999
  9017   2      5.9464319999999997      37.139496000000001               22.064757
  9018   5      4.3153980000000001      32.323588999999998      42.203392999999998
  9019   2      3.8182659999999999      33.100440999999996      41.936773000000002
  9020   2      3.7712150000000002      31.912918999999999      42.880045000000003
  9021   5      2.2639079999999998      30.738758000000001      4.0289900000000003
  9022   2                3.129629      30.428364999999999      3.7534749999999999
  9023   2      2.4357500000000001      31.588602000000002      4.4423630000000003
  9024   5      43.475014999999999      34.272198000000003      40.708576000000001
  9025   2      42.765853999999997      33.883046999999998      41.225661000000002
  9026   2      43.559415000000001      33.693812999999999      39.946350000000002
  9027   5      7.9720449999999996      10.034670999999999               31.872093
  9028   2                7.035399               10.212869               31.759556
  9029   2      8.0370340000000002      9.6444659999999995      32.747396999999999
