143
Properties=species:S:1:pos:R:3 XYZ=T file=T generated=T by=T Avogadro.=T energy=-945.031005859375 stress="inf -inf inf -inf inf inf inf inf inf" pbc="F F F"
N      2.6442232094   -7.7368227225    8.5477495321
C      3.3926737240   -8.9979246797    8.4557645572
C      3.3820755021   -9.5637054280    7.0456704861
N      2.0015525660   -9.7236046198    6.5699919403
C      1.5207542471  -11.0349412531    7.0337540460
C      0.0065509080  -11.1261901343    7.0006948442
N     -0.5949593977  -10.0267207954    7.7642645984
C     -0.5370651325  -10.3683085741    9.1918289420
C     -0.8462084500   -9.1736706916   10.0717467102
N      0.0543925803   -8.0600681755    9.7437248938
C      1.2808881136   -8.2173454589   10.5375268824
C      2.4235071896   -7.4068978547    9.9613886051
C      3.4126904546   -6.6676979683    7.9009329874
C      2.5921479423   -5.4163964872    7.6811856430
O      1.3203385116   -5.6883341905    7.1786183669
O      2.5134926830   -4.5791977246    8.7931456366
C      1.9659157710   -9.7115273377    5.1023629922
C      2.1063939725   -8.3178776117    4.5352629429
O      1.2286226053   -7.4219308999    5.1404635643
O      3.4060835770   -7.8139178548    4.5260799113
C     -1.9953038392   -9.8323519466    7.3702245214
C     -2.1306719812   -9.1997168082    6.0040536987
O     -1.2591864538   -8.1243044635    5.8295768294
O     -2.0266345239  -10.1002469731    4.9440701522
C     -0.6114477834   -6.8069761188   10.1024181014
C     -1.7261469423   -6.5631069272    9.1102040796
O     -1.1697214118   -6.3758045679    7.8495828339
N     -2.4820598128   -5.3824720394    9.5102110049
H      4.4419186019   -8.8682933478    8.8019166184
H      2.9623797603   -9.7743889896    9.1130778935
H      4.0013919648   -8.9163077890    6.4050397315
H      3.9437552095  -10.5240625511    7.0177998856
H      1.9564460095  -11.8627225917    6.4303777823
H      1.8581487961  -11.2600136241    8.0628175417
H     -0.3287874737  -12.1176181771    7.3772694888
H     -0.2930029574  -11.1263863436    5.9422143386
H     -1.2295269211  -11.2030534759    9.4384630713
H      0.4664317657  -10.7206568587    9.4917704864
H     -1.9174360673   -8.9129088457    9.9684025813
H     -0.7737878264   -9.4611636890   11.1445710296
H      1.1157230633   -7.9299465946   11.5992573485
H      1.6022676835   -9.2739594397   10.5960369338
H      2.1465320999   -6.3527780312   10.1167094571
H      3.3477382007   -7.5531492769   10.5621454380
H      3.6738049248   -6.9410930618    6.8643805837
H      4.3636990632   -6.4399864390    8.4298100819
H     -1.0094971630   -6.8529380576   11.1393890176
H      0.9695728597  -10.0153956920    4.7290699728
H      2.7104678698  -10.4026878975    4.6510617712
H      0.0671547720   -5.9330282969   10.0360778322
H     -2.4810526993   -9.0723358822    8.0085622178
H     -2.5964578329  -10.7634015379    7.4486172283
H    -15.5613035889   -0.8083118565   23.9266904037
H    -17.8715162807   -1.0280003570   24.6099955314
H    -18.4188738265    0.2531208478   23.5245279522
H     -3.1801554583    4.5928115966   11.4743580416
H    -17.4925925455   -3.3907208096   23.1085876145
H     -4.3036668072   -2.0469288847   16.9548893818
H    -17.9877165644    1.9595048993   21.6426736517
H     -4.1806530145   -3.8386326261   10.9102677344
H     -3.0768596384   -6.1839499177   12.5887496004
H     -0.9877386039    3.4402127207   11.1571948563
H     -2.1365101885   -4.7726325541   11.9855270053
H     -6.2728254293   -2.4273591883   14.7624051779
H    -10.1094544978    0.7215397166   24.4724251290
H    -15.8928040298    0.5188672307   21.6455060666
H     -2.7394180788   -4.5196326775   14.3491723733
H     -3.5067607539   -3.2341697543   13.3509612718
H     -4.8699297700   -5.8508058896   14.2794795526
H     -6.3246217697   -5.0790439394   10.9280826005
H     -5.6053359776   -6.3690371090   11.9555307277
H     -5.9689055679   -3.4196699754   12.7229351524
H     -6.9361773682   -4.8152726543   13.3241213196
H     -6.4065306261   -0.1592498254   15.8092866252
H     -5.1894887060    0.2250629821   17.0763996603
H     -5.6530741906    1.6698554626   14.3995077997
H     -2.7544627666   -1.2908711347   15.6402822591
H     -1.0028012687   -0.1056244183   14.4372502602
H     -0.3340151878    1.6296500722   12.7318168291
H    -16.1686909370    0.6445503740   24.7234085123
C     -4.1734882080   -4.9093526139   11.2110607406
C     -3.1404093415   -5.1058219609   12.3247406529
C     -3.5124899694   -4.3228201902   13.5765438474
C     -4.8928434848   -4.7582754174   14.0748604584
C     -5.5695619225   -5.2840032040   11.7174083695
C     -5.9290974299   -4.5008015288   12.9775130987
C     -5.2575634152   -4.0843146671   15.3975277328
O     -4.3062377081   -4.4249442267   16.3631710040
N     -5.3665868063   -2.6364084340   15.2394515007
C     -5.2943363894   -1.8736273435   16.4865066523
C     -5.3774715300   -0.3797908599   16.1639756012
C     -4.4025808422    0.0266954713   15.0553335833
C     -4.5887335555    1.4862544047   14.6573546880
C     -2.9344939197   -0.2259219752   15.3917289890
C     -2.0667825607    0.0857972633   14.1839746670
C     -2.2512772333    1.5316181863   13.7505853997
C     -3.7225043947    1.8032056130   13.4447571540
C     -1.4073115272    1.8125346031   12.5147079402
C     -1.5900772921    3.2547890311   12.0707538039
C     -3.0561931040    3.5333164095   11.7800481951
C     -3.9026607746    3.2519190853   13.0119350587
C     -6.3195550647   -2.3222039506   17.5337390857
O     -6.1930364232   -1.5377385488   18.6835954346
N     -7.7032380431   -2.3587180066   17.0543676181
C     -8.6109171086   -2.7359973718   18.1395837942
C     -9.3325264281   -1.4977130244   18.6629668331
C    -10.0010494033   -1.7691811705   20.0068156821
C    -10.7336445172   -0.5304705090   20.5308187289
C    -11.0795552540   -0.5881252532   22.0272517341
N    -12.0425613506    0.4573229801   22.3827287937
C     -9.8541880241   -0.3392344435   22.9127354310
C    -13.4479110421    0.1866089339   22.0871798821
O    -13.7817749226   -1.1182358673   22.4555271057
N    -14.2645283648    1.1522735200   22.8262887130
C    -15.7106588560    0.9682876844   22.6436326788
C    -16.2279718816    0.0635060497   23.7780056090
C    -17.6387872809   -0.5218060859   23.6491902011
C    -17.7961718598   -1.5887959541   22.5703368742
O    -17.6382269490   -1.0795112275   21.2821681925
O    -16.9185268330   -2.6537482471   22.7787145231
C    -16.4088208060    2.3386424155   22.6904772111
O    -15.9011528179    3.2165554872   21.7300993007
O    -17.7983122661    2.2728377805   22.5636060880
O    -10.2328090051   -0.2364110913   24.2519612071
O     -8.8726725204   -1.3218605711   22.7989134230
H     -4.9681789085    3.4485755679   12.7703361716
H     -7.7402025020   -3.1410933480   16.3624507257
H     -9.3804894234   -3.4570896207   17.7860618035
H     -8.0600056287   -3.2543787554   18.9568505304
H     -8.5907835409   -0.6884035308   18.8326413089
H    -10.0616544895   -1.1472026062   17.9011283024
H    -10.7132345304   -2.6208507969   19.9482592829
H     -9.1758536141   -2.0696973622   20.6784296978
H    -10.1314125906    0.3884417559   20.3619675102
H    -11.6599528243   -0.4390918183   19.9229335164
H    -11.4916645593   -1.5874323350   22.2825566470
H    -11.7643165095    1.3699596700   21.9532090084
H    -13.9638748598    2.0826707226   22.4572948302
C     -3.7998701242   -5.7706097230   10.0060941480
H     -3.8187836761   -6.8345122713   10.3332991423
H     -4.5557069594   -5.6625758706    9.1974611017
H     -2.6100802526   -4.7186617506    8.7119168605
Nd     0.5245601654   -7.8857362149    7.3197290505
