53
Properties=species:S:1:pos:R:3:forces:R:3 XYZ=T file=T generated=T by=T Avogadro.=T energy=-351.98980712890625 stress="-inf -inf inf -inf inf inf inf inf -inf" pbc="F F F"
N        1.11108824      -3.83611394       4.89854561      -0.00293452      -0.00103769       0.00176350
C        1.64928305      -4.98071256       5.62556247       0.00043353      -0.00225556      -0.00063217
C        1.23336938      -6.31651101       5.03065750       0.00171484      -0.00133634      -0.00163931
N       -0.21941240      -6.52422816       5.02334359       0.00082823       0.00575256       0.00134025
C       -0.71881883      -6.89794664       6.34224717       0.00232688       0.00138722       0.00225477
C       -2.21180425      -6.65963003       6.50178720       0.00265437       0.00060914       0.00175919
N       -2.60033528      -5.25417127       6.33920884       0.00388250       0.00068636      -0.00152761
C       -2.26424947      -4.45860446       7.51341002      -0.00057228       0.00231871      -0.00007606
C       -2.24694800      -2.96442996       7.23438364      -0.00268619       0.00190830       0.00017224
N       -1.26062223      -2.57474153       6.22085823      -0.00024980      -0.00629663      -0.00168516
C        0.09027053      -2.53785022       6.77026033       0.00036053      -0.00180154       0.00183547
C        1.16875063      -2.60939092       5.70194999       0.00028461      -0.00136298       0.00218642
C        1.80742964      -3.61122757       3.62056494      -0.00089824       0.00216985       0.00208449
C        1.09265096      -2.53838038       2.77755504      -0.00188404       0.00269544       0.00072575
O       -0.18228023      -2.51143095       2.94953337      -0.00425267      -0.00430053       0.00094968
O        1.76018647      -1.84081496       2.03775446       0.00506377       0.00189519      -0.00219727
C       -0.56157326      -7.52478279       3.99757641       0.00063267       0.00436658       0.00171304
C       -0.23373576      -7.00985650       2.58315709       0.00001395       0.00137661      -0.00032413
O       -0.37684754      -5.73819135       2.45425479      -0.00318402       0.00307429       0.00150406
O        0.11202444      -7.81144079       1.73641628      -0.00324559      -0.00728559      -0.00029230
C       -4.03331647      -5.17914378       6.00721437       0.00179432      -0.00291216       0.00010347
C       -4.32945304      -5.83958628       4.64677785       0.00170141      -0.00249946      -0.00087523
O       -3.35164491      -5.75977365       3.81318170       0.00382161       0.00412264      -0.00047982
O       -5.41772891      -6.35259989       4.47388271      -0.00611687      -0.00053799       0.00198996
C       -1.65358274      -1.28732737       5.62604136       0.00063300      -0.00383890      -0.00048381
C       -2.98821801      -1.40807881       4.86538471      -0.00147855      -0.00167012      -0.00009936
O       -3.16734678      -2.56076158       4.32290446       0.00075454      -0.00470614       0.00035590
O       -3.72922341      -0.44412838       4.83244898       0.00232911       0.00623012      -0.00225043
Ce      -1.52151359      -4.23591640       3.90535067      -0.00142743       0.00073744      -0.00514008
H        2.74931615      -4.94341752       5.66447371      -0.00034970       0.00154445      -0.00698711
H        1.30834859      -4.91865667       6.66110689       0.00562933       0.00022552       0.00173399
H        1.58189776      -6.37752749       4.00111995      -0.00290045       0.00296354      -0.00515056
H        1.74137531      -7.12284585       5.57955822       0.00378864      -0.00264427      -0.00242254
H       -0.51070766      -7.95756740       6.55753662      -0.00059578      -0.00140178      -0.00387970
H       -0.16906550      -6.32667761       7.09276182      -0.00187093       0.00694457       0.00243914
H       -2.53074864      -7.04519949       7.48140311       0.00027384      -0.00372699       0.00023517
H       -2.74773902      -7.23623563       5.74991746      -0.00011826       0.00221393       0.00217867
H       -2.96831048      -4.65012574       8.33806133      -0.00389805       0.00130092      -0.00422236
H       -1.28314480      -4.77603795       7.87353589      -0.00325274      -0.00143027       0.00562233
H       -3.22816313      -2.64898457       6.88369062      -0.00347447      -0.00061043      -0.00596246
H       -2.07093159      -2.43117348       8.17990570      -0.00397507       0.00279638       0.00221118
H        0.25144788      -1.62626447       7.36603278      -0.00209116       0.00235343      -0.00172769
H        0.20029859      -3.37285201       7.46522140       0.00188937      -0.00593087      -0.00224741
H        1.05831604      -1.76558761       5.02273814       0.00106913      -0.00231481       0.00003949
H        2.15288765      -2.49991158       6.18060761       0.00121027       0.00297474       0.00139430
H        2.85522943      -3.32935954       3.77292035       0.00397897      -0.00037082      -0.00042589
H        1.76485000      -4.52602626       3.02645852       0.00336398      -0.00033361       0.00092833
H       -1.72365358      -0.49519799       6.37954040      -0.00115038      -0.00048846       0.00278115
H       -0.04979499      -8.47689951       4.17458543       0.00202900       0.00069761       0.00119195
H       -1.64040947      -7.68949690       4.01037611      -0.00174642      -0.00052753       0.00447050
H       -0.91302104      -1.00275753       4.87603085       0.00500175      -0.00032943      -0.00099725
H       -4.65351812      -5.63494569       6.78624726      -0.00207482      -0.00065897       0.00323510
H       -4.31415540      -4.13056985       5.88937401      -0.00103523      -0.00073496       0.00252624
