58
Properties=species:S:1:pos:R:3:forces:R:3 XYZ=T file=T generated=T by=T Avogadro.=T energy=-379.2021484375 stress="-inf inf inf inf inf -inf inf -inf -inf" pbc="F F F"
N        2.17597451      -2.17447089       6.86789679      -0.00258511      -0.00341037       0.00150810
C        2.69336714      -3.55465393       6.87691442       0.00193077      -0.00232532      -0.00042364
C        2.49512826      -4.31870055       5.57361559       0.00046611      -0.00020343      -0.00179282
N        1.07730886      -4.49414626       5.21444420       0.00153884      -0.00482950      -0.00517395
C        0.46702609      -5.60847365       5.96268659      -0.00098887      -0.00092733      -0.00191789
C       -1.04494909      -5.51017911       6.14187227      -0.00435829       0.00048792       0.00184403
N       -1.46231094      -4.28431888       6.84614010      -0.00130156       0.00514649       0.00057302
C       -1.15963742      -4.39807638       8.27686982      -0.00188355       0.00256044       0.00095349
C       -1.27948567      -3.09558507       9.04423229      -0.00278696       0.00208836       0.00015920
N       -0.38909405      -2.03867975       8.51315354      -0.00165839       0.00048293       0.00077665
C        0.96398269      -2.21671682       9.06670912      -0.00113066      -0.00011985      -0.00090346
C        2.09236923      -1.63670589       8.23420467       0.00201219       0.00099954       0.00253835
C        3.04195142      -1.30266198       6.04353296       0.00091064      -0.00464153       0.00088930
C        2.79422635      -1.46737823       4.53704130       0.00087517       0.00671422      -0.00001240
O        1.54294771      -1.50511286       4.22816565       0.00031579      -0.00090452       0.00124604
O        3.74229670      -1.54578693       3.77726760      -0.00193274       0.00029952       0.00132823
C        0.92411053      -4.70170666       3.75784901      -0.00301754      -0.00337335      -0.00426359
C       -0.53273714      -4.52550127       3.30981787      -0.00515807       0.00590909      -0.00099641
O       -1.11505462      -3.50340818       3.85146481      -0.00595307       0.00687122      -0.00030923
O       -1.03063623      -5.31479544       2.53081532       0.00442195      -0.00094056       0.00092113
C       -2.89714096      -3.98853551       6.61954688      -0.00097084       0.00377655       0.00297010
C       -3.24142806      -2.51503318       6.91744599       0.00272208      -0.00060201       0.00437862
O       -2.47022110      -1.66113943       6.33520540      -0.00179893      -0.00247276       0.00529617
O       -4.15689265      -2.24103358       7.68211402       0.00054908      -0.00006557      -0.00299788
C       -0.96500038      -0.72217733       8.78672925      -0.00218982      -0.00055743       0.00302023
C       -0.63498769       0.33693894       7.75774907       0.00216442      -0.00122887       0.00220624
O        0.03616866       0.11076100       6.74077179      -0.00088720      -0.00190233       0.00075462
N       -1.12540572       1.55833016       8.00324676       0.00099272      -0.00146598       0.00281540
Pr      -0.27972669      -2.15149336       5.55922264       0.00534901       0.00219278      -0.00026715
H        3.76856106      -3.55025545       7.11077558       0.00225547      -0.00239603       0.00083096
H        2.19795616      -4.09097105       7.68826888       0.00506662      -0.00303900      -0.00141926
H        2.99094042      -3.79639022       4.75707918       0.00127934       0.00044259      -0.00005233
H        3.00132826      -5.28975716       5.66917631      -0.00124530       0.00107154       0.00162122
H        0.68582450      -6.56236895       5.46396276       0.00455387       0.00030839      -0.00223780
H        0.95322622      -5.66172819       6.93815509       0.00315364      -0.00293176      -0.00381076
H       -1.37950602      -6.40756417       6.68243002       0.00121287      -0.00418070       0.00360782
H       -1.53832623      -5.52331809       5.17282441      -0.00160955      -0.00112186      -0.00106522
H       -1.82547128      -5.13530588       8.75271433       0.00422058      -0.00140941       0.00270121
H       -0.14521590      -4.79042187       8.37287766      -0.00387037      -0.00080262      -0.00133318
H       -2.30786048      -2.74502282       9.01038421      -0.00178227       0.00520657      -0.00620665
H       -1.05483165      -3.29706179      10.10043094       0.00151770       0.00639454      -0.00085154
H        1.02585312      -1.78742579      10.07914541      -0.00577418       0.00157017      -0.00450191
H        1.11932212      -3.28817962       9.19922518      -0.00328702       0.00061771       0.00610843
H        1.96398129      -0.55913368       8.14667908       0.00381120       0.00211349      -0.00281407
H        3.03579099      -1.80416333       8.77706980       0.00652644       0.00395610      -0.00052004
H        2.78033783      -0.26903452       6.28022191       0.00066265      -0.00550166      -0.00371484
H        4.09976170      -1.46023630       6.27766134       0.00445017      -0.00004610      -0.00591753
H       -2.05539401      -0.81541099       8.75412647       0.00016749      -0.00393508       0.00064537
H        1.50253726      -3.92366957       3.25275965      -0.00366488       0.00112399       0.00290841
H        1.29466457      -5.68445235       3.45210527       0.00468069      -0.00418210      -0.00112395
H       -0.70632337      -0.35495398       9.79217489       0.00080143      -0.00164294       0.00181007
H       -3.09404140      -4.14965243       5.55729035       0.00313191      -0.00419098       0.00378338
H       -3.53927010      -4.64642764       7.21423273      -0.00233443       0.00419337       0.00139928
C       -1.99544769       1.92081003       9.10843987      -0.00121564      -0.00311046      -0.00217968
H       -2.34302556       2.93827743       8.94685897       0.00233547      -0.00195578       0.00020394
H       -2.86775058       1.26773942       9.16048132      -0.00330186      -0.00252500      -0.00006153
H       -1.46052191       1.89360484      10.05971942      -0.00486165       0.00605751      -0.00094572
H       -0.96009818       2.23293804       7.27337989      -0.00252903       0.00235793      -0.00198433
