188
Properties=species:S:1:pos:R:3:forces:R:3 XYZ=T file=T generated=T by=T Avogadro.=T energy=-1247.4476318359375 stress="-inf inf -inf inf inf inf -inf inf inf" pbc="F F F"
N       18.74413941      30.75042169      23.15569477      -0.00364470      -0.00521919      -0.00677949
C       17.32482556      31.08178516      22.99999845      -0.00335811      -0.00089543      -0.00249794
C       16.69782191      31.64961253      24.26164998       0.00140211      -0.00237328       0.00224555
N       16.79899606      30.75553291      25.42763879       0.01588774       0.00500986       0.00808031
C       15.85287699      29.63918378      25.35616178       0.00344428       0.00580119       0.00178757
C       16.21632456      28.48543048      26.27869696       0.00201614      -0.00426558      -0.00468302
N       17.50647245      27.84654310      25.95825488       0.01661120       0.00109577      -0.01596707
C       17.41338955      26.96900021      24.78749017       0.00179434      -0.01583415      -0.00656066
C       18.76975421      26.67396950      24.16234974      -0.00934991      -0.01123261       0.00030334
N       19.45009772      27.88676868      23.66402205      -0.01143161      -0.00111625       0.00576179
C       18.84222159      28.37018682      22.41881818      -0.00030690      -0.00187525      -0.00391227
C       19.18036727      29.81683655      22.10728319       0.00244787      -0.00244445      -0.01106313
C       19.60614089      31.94828583      23.12655816       0.00097793      -0.00167114       0.00170600
C       21.05853849      31.59495259      23.49911037       0.00123084      -0.00308762      -0.00549643
O       21.17849374      30.64086196      24.36550592      -0.01305360       0.00609183       0.00633526
O       21.96498849      32.21705635      22.97505677       0.01196790       0.00946236      -0.01019096
C       16.62986370      31.55927641      26.65721705       0.00068402       0.00326914       0.00513789
C       17.79091036      32.55679304      26.82913329      -0.00820309      -0.01054502       0.00002593
O       18.91389182      32.12548977      26.34633806      -0.00626826       0.00473643      -0.00079447
O       17.59303119      33.61393995      27.38921735      -0.01064038      -0.00984859      -0.00023663
C       17.96806068      27.09810761      27.14527065       0.00087884      -0.00817823      -0.00268239
C       18.39687621      28.02357390      28.29380229       0.01077268      -0.00177482       0.00641334
O       18.83751973      29.17391922      27.90233292      -0.01771897       0.01363385      -0.00199689
O       18.32993566      27.61197852      29.43488440      -0.01495318      -0.00152248      -0.00462198
C       20.88015704      27.64692624      23.48889441      -0.00428382       0.00367563       0.00724185
C       21.60477347      27.61282930      24.81937527       0.00678086       0.02346855       0.00139660
O       21.07002047      27.98561265      25.86793217      -0.01035171       0.00286771       0.00514210
N       22.86448987      27.16063422      24.78432290       0.00271162      -0.01110812      -0.00267383
Yb      19.35607787      29.91698929      25.75022227       0.00707966       0.00556064      -0.01462314
H       17.17935171      31.80484536      22.18276885      -0.00441253       0.00544691      -0.00037539
H       16.79730612      30.17485736      22.69487877       0.00538692      -0.00754392       0.00405893
H       17.19268665      32.58470427      24.52280455       0.00003652      -0.00433192       0.00310952
H       15.64801644      31.90149629      24.05602716      -0.00056776      -0.00793406      -0.00310097
H       14.83520569      29.97632492      25.60228940      -0.00740349      -0.00009777       0.00708933
H       15.81434935      29.29087609      24.32156751      -0.00105689      -0.00401902       0.00312221
H       15.40294636      27.74691697      26.26189114      -0.00395527      -0.01655799       0.00070541
H       16.28196551      28.84882157      27.30445509       0.00039657      -0.00579461      -0.00109285
H       16.93205108      26.01092382      25.03974267       0.01446423       0.02032921       0.00629592
H       16.76292484      27.44423604      24.05066889       0.00363308      -0.00016503       0.00921685
H       19.42248854      26.20278455      24.89764905      -0.00712758       0.01173013       0.01551649
H       18.63959867      25.93036095      23.36094801      -0.00690964      -0.00547086      -0.00266376
H       19.13805014      27.74153818      21.56391341      -0.00017749      -0.01268548       0.00681242
H       17.76137875      28.25779071      22.51270778       0.00069857      -0.00142824      -0.00156711
H       20.25550409      29.93389981      21.97717576       0.00604242      -0.00522942      -0.00083603
H       18.72742855      30.08075579      21.14047016      -0.00102480       0.00257443      -0.01298875
H       20.17636608      20.26750646      24.57943067      -0.00043881      -0.01011933      -0.00339961
H       18.43059034      20.09359206      24.40995038      -0.00594002       0.01212220      -0.00956222
H       21.08586457      26.72278395      22.92571602      -0.01139231      -0.00057766       0.00465679
H       15.67492095      32.09556776      26.66073813      -0.00569052      -0.01071186       0.00025983
H       16.66385815      30.89723660      27.52529225      -0.00090285      -0.00515482      -0.00485453
H       21.32499729      28.47860998      22.93711101       0.00142387       0.00566432       0.01225904
H       17.20465778      26.39625847      27.49680095      -0.00865251      -0.01339497       0.00462018
H       18.85783788      26.52563217      26.87552605       0.00476849      -0.00407755       0.00250740
C       23.75526041      27.18962545      25.93599854       0.00700797       0.00260913      -0.00123194
H       23.26771011      26.93012767      23.88839164      -0.00094065       0.00148606      -0.00377488
H       27.24246381      27.68572811      23.77608836       0.00185265       0.00145130       0.00228737
H       23.73349997      29.74578335      25.15738035      -0.00860725      -0.00720277      -0.00323457
C       25.20157946      27.38353410      25.48323269       0.00735390       0.01130438      -0.01982313
C       25.45843189      28.56869162      24.58436428       0.00659712       0.02040073      -0.01123534
H       25.79639630      27.44418463      26.39875102      -0.01550345       0.00535983       0.01181358
H       25.53629206      26.46595745      24.98790593      -0.00116545       0.00330767      -0.01478469
H       26.23426399      31.55000719      22.21856010       0.00583566      -0.01289643       0.01500904
C       26.58742786      28.55035243      23.76111996       0.01345284       0.00112061      -0.00866820
C       24.62290611      29.68613264      24.54282655       0.00454834      -0.00292481       0.00125949
H       27.75238286      29.59083399      22.29116296      -0.00847878      -0.00962379       0.02147320
C       24.89600083      30.75244575      23.69261134      -0.00227989      -0.00533238      -0.01144059
H       24.19701045      31.57786817      23.64391963       0.02340610      -0.01226972       0.00747776
C       26.87502344      29.62279838      22.92694740      -0.01531061       0.00772602      -0.01130660
C       26.02645285      30.72326932      22.88677614       0.00141969      -0.01155567      -0.00278900
C       23.68121317      25.90990046      26.78852868      -0.00500458      -0.00328097       0.01058424
H       23.43935183      28.01197830      26.58106959      -0.01349458       0.00074840       0.00215831
O       24.42261196      25.76476494      27.74432638       0.00345922       0.00118089       0.00080025
N       22.76273824      25.00051889      26.39762408       0.00048627       0.00031797       0.00138554
C       22.73109893      23.65915476      26.92320050       0.00456741      -0.00396255      -0.00729471
C       21.36294250      23.01713371      26.67258201       0.00862592       0.00277746       0.02721751
S       20.84141592      23.19761011      24.91804922      -0.00330391      -0.00475491      -0.01569924
N       24.34747133      21.87168808      27.11987125       0.00728074       0.00183475      -0.00476792
C       23.83681252      22.80191208      26.28883464       0.00585037      -0.00237630       0.00660276
O       24.15377023      22.93598164      25.11757447      -0.00463772       0.00109521       0.02013922
H       15.11391467      23.91219970      23.01388405       0.01845682       0.01551934      -0.00800407
H       20.61063626      23.50518557      27.29159267      -0.01137844       0.00575210       0.01097192
H       21.39875884      21.95599261      26.91974420       0.00288223      -0.00397158       0.00214766
C       25.28084486      20.84338978      26.70559519       0.00750559       0.00025290      -0.00253630
C       24.74733524      19.54040845      27.29557182       0.00984722       0.00657225      -0.01148236
O       28.71795693      26.02728060      25.27945950      -0.00249307       0.01114482      -0.00514567
C       26.70680465      21.10668588      27.23501152      -0.00075048       0.00199158       0.00076845
O       24.45091986      19.47567638      28.48502979       0.00435781       0.00321238      -0.00468099
H       27.38776766      25.69680913      27.58865798      -0.00126013      -0.00622674       0.00590693
N       24.60713263      18.51590725      26.44219553       0.00537090       0.00077038      -0.00899827
H       28.10390954      21.59454629      24.93930574       0.00883087      -0.01023908       0.00764735
H       28.57478112      26.73229922      25.91787759       0.00123158      -0.00089401       0.00155285
C       27.56999320      24.79673817      27.01322149      -0.00084844       0.00376917      -0.00242832
C       28.24661638      24.85572439      25.79940905       0.00516279       0.00134408      -0.00138494
H       26.54892659      23.55703401      28.41499178       0.00712375      -0.00777990      -0.00866565
H       25.28316823      20.83262903      25.61442664      -0.00018769      -0.00030405       0.00002563
C       27.27874701      22.40701136      26.74939936       0.00864951      -0.00404763       0.00740955
H       26.65577147      21.09259362      28.32696385       0.00065544      -0.00567813      -0.00030687
H       27.33541032      20.26548148      26.92685841       0.00024967       0.00862718      -0.00299050
C       27.95888604      22.49025036      25.53366726       0.00347612      -0.00906491       0.00630849
H       28.97590745      23.76044487      24.11553581      -0.00218469      -0.00602118       0.00287870
C       27.09173987      23.58012536      27.47754891       0.00099926      -0.00273138      -0.00706095
C       28.44571953      23.69702794      25.05702561      -0.01323387      -0.00034028      -0.00295994
C       24.05373222      17.24726100      26.84881165       0.01247716       0.00252134       0.01012111
C       25.01853659      16.39874338      27.73209761       0.00079086      -0.00437579       0.00721258
H       24.89956666      18.58033863      25.47774744      -0.00666481       0.00362447      -0.00076035
H       27.12661052      18.06233656      28.87589739      -0.00157870       0.01591226       0.01819428
C       23.65352547      16.52745600      25.56586677       0.02363706       0.00031333      -0.00172335
H       29.40525974      17.73523414      27.88409271       0.01430979       0.01195024       0.00606324
C       26.46625800      16.53244014      27.42006293       0.00053290      -0.00030877      -0.01076487
H       23.16282657      17.44610960      27.45123227       0.00557765       0.00801170      -0.00310358
O       24.32037020      16.62001234      24.54882467       0.00902677       0.00869098       0.00713021
H       24.85649939      16.72442570      28.75950619      -0.00970104       0.00221531       0.00340724
H       24.70234014      15.35354979      27.66895162      -0.00706554      -0.00160435       0.01247894
C       27.32895237      17.37350326      28.07271117      -0.00109965      -0.00970402       0.00796515
C       28.58227504      16.30664249      26.55478356       0.00281551      -0.00156075      -0.00109732
C       27.24717322      15.83848306      26.43771275      -0.00081328      -0.00091988      -0.01630651
N       28.59539188      17.24785284      27.55133904      -0.01202064      -0.00777893      -0.00187913
H       30.62881483      16.19240274      25.86213412       0.01086115       0.01043373       0.00323801
C       29.29446175      14.86342479      24.81634589      -0.00663723       0.01329307      -0.01734298
H       30.07463077      14.47180487      24.17656397       0.00281044       0.00380103       0.00469492
H       25.94133948      14.51755893      25.33775226       0.00165690      -0.00317750      -0.00391127
H       27.76540659      13.64961094      23.91568853      -0.00028046      -0.00832902       0.01028932
C       29.61396105      15.82899854      25.75482651       0.00944582      -0.01488816      -0.00071493
C       26.95591762      14.86991596      25.47175941      -0.00164181      -0.01506606      -0.00718031
C       27.97897975      14.39349086      24.67257642       0.00302009      -0.00361002      -0.00738762
N       22.53292713      15.76671330      25.67176960       0.00524244       0.00164422       0.00909609
O       21.47852280      17.68524173      24.13318039      -0.00630253      -0.01108837       0.01905853
H       21.95218265      15.97131579      26.46818873      -0.00705241      -0.00526980       0.00330007
C       21.82739840      15.31444789      24.48180089      -0.00094675       0.00120169      -0.00322899
C       22.59685922      14.23984441      23.70840014       0.00152445       0.00280149      -0.00485134
C       22.92962067      13.01208084      24.55248821      -0.00426771       0.00451146      -0.00922745
C       21.42087023      16.56195779      23.65457036      -0.01840487      -0.00071406      -0.00122356
N       20.94418913      16.31998656      22.42037030       0.00597818       0.00464311      -0.01160181
C       23.63680799      11.91214011      23.76176758      -0.01049748       0.00247416       0.00456393
H       23.54994503      13.30660732      25.40537714      -0.00458312      -0.00045420      -0.01401892
H       22.00180781      12.61078231      24.97399640       0.00593579       0.00955877       0.00895642
C       25.09265542      12.22014119      23.44040924      -0.01275396      -0.00003992      -0.00025919
H       23.60365405      10.96869949      24.31121215      -0.00229305       0.00310960       0.00270206
H       23.09787274      11.73482174      22.82272402      -0.00361098       0.00680797       0.00643900
N       25.64679061      11.15092818      22.61137915       0.00182529      -0.00060117       0.00211814
H       25.17347681      13.22046544      22.98469723      -0.00185516      -0.00189650       0.00091395
H       25.66894175      12.25411922      24.37044868      -0.01107351       0.00343924      -0.00509080
H       25.14403424      11.10257691      21.73279669       0.00305536      -0.00041922       0.00029458
H       26.61061894      11.34546883      22.37142182       0.00249140       0.00194060      -0.00321125
C       20.62063888      17.39652465      21.50671106       0.00341189       0.00623956      -0.00316220
H       21.03001363      15.40843332      22.00137187      -0.00329541      -0.00347051       0.00089745
C       19.73018745      18.45127303      22.17581563      -0.00602818      -0.00706244       0.00949407
H       19.09310529      18.66931390      19.52108197       0.00006741      -0.00969821      -0.00441518
C       19.87109587      16.80844971      20.30916117      -0.00402457       0.00802159       0.00493133
O       18.64781310      18.17023895      22.65973605      -0.00079358       0.00663558       0.01025528
C       18.16034486      21.01652053      21.81909429       0.00814220      -0.00949079       0.00079477
N       20.19637887      19.71882701      22.08966089       0.00516722      -0.00676626       0.00228090
N       17.12488948      21.59371886      22.44203066       0.00808538      -0.01277518       0.00646830
S       18.98933287      22.32684174      24.97945676      -0.00791151      -0.00199006       0.01216792
H       20.06206239      21.72390072      22.42311521       0.00688019       0.01411250       0.00010282
C       19.45594032      20.83655811      22.63120756       0.01716381      -0.00096217      -0.00811716
H       21.98067942      13.91243870      22.86549471       0.00787622      -0.00593882      -0.00160973
O       18.11079106      20.67712871      20.63427016      -0.00420804      -0.00041956       0.01080221
C       19.28357992      20.72578918      24.15659235       0.00495638      -0.00031716      -0.00913566
H       23.50044499      14.68675842      23.29368249       0.00319618       0.00110246       0.00093490
C       15.84506633      21.80148815      21.78102222      -0.00144547      -0.00393361       0.01588923
H       15.61307468      20.90507942      21.19719865       0.01112258      -0.00442585       0.00486097
C       19.68338356      17.81433358      19.19095512       0.00164210      -0.00461930       0.00795513
O       20.65541036      15.68165394      19.88256958      -0.01130097       0.00896493       0.00105530
H       21.54699870      17.86386770      21.14716801       0.00908256      -0.00529517      -0.00805788
H       20.25064260      15.32230732      19.08793268      -0.00014152       0.00347123      -0.00581643
H       20.65203219      18.16552710      18.82991386      -0.00520550       0.00118039       0.00419893
H       19.15821193      17.35070282      18.35286517      -0.00115555       0.01332817       0.00522503
H       17.24802030      22.05513758      23.33507643      -0.01062230       0.00444277      -0.01146823
C       14.75683659      22.04470863      22.83053280      -0.01146281       0.01848209       0.01585257
H       17.23188332      21.95281325      19.88244453      -0.00520581      -0.00880602       0.00871997
H       13.76009859      21.07983047      24.46475420       0.00355776       0.01496524      -0.01454338
C       15.95143211      22.99512648      20.81761661       0.00586796       0.01215291       0.00273764
O       15.11350101      23.16584569      23.63344119      -0.00252053      -0.01498711      -0.01288846
O       15.34687668      24.02561827      20.99769701      -0.00539076       0.00799608      -0.00481136
C       14.54012154      20.85423881      23.73932162      -0.00074899       0.00839293      -0.00330257
O       16.77124895      22.82594414      19.79074159      -0.01931217      -0.00521404      -0.01870464
H       20.89212201      14.87288035      24.84310370      -0.00372142       0.00113443      -0.00562422
H       13.83573271      22.26662986      22.27952932      -0.00183988       0.00247905      -0.01766041
H       14.23481411      19.98056223      23.16370951       0.00173439      -0.00798218       0.00050039
H       15.44934004      20.60173139      24.28544400      -0.00101826       0.00673910       0.00742595
H       22.30392892      25.14854329      25.51289194      -0.00263631      -0.00032972      -0.01190785
H       22.88118276      23.71587350      28.00463621       0.00318344       0.00773879      -0.01384825
H       24.04090871      21.82018273      28.07982074      -0.01193056      -0.01814323      -0.00650880
H       21.14976257      19.86584334      21.80837118      -0.00379300       0.00825572       0.01164167
H       18.89766086      16.46260280      20.67826446      -0.00029087       0.00011592       0.00013363
H       19.58744839      32.43439961      22.14475506       0.01144023       0.01273882       0.00852662
H       19.25284438      32.65587759      23.87960382       0.00175327       0.01039281      -0.00334048
