58
Properties=species:S:1:pos:R:3 XYZ=T file=T generated=T by=T Avogadro.=T energy=-352.1082763671875 stress="-inf -inf nan -inf inf nan nan nan -inf" pbc="F F F"
N      2.1248873543   -2.2533817917    7.0048066024
C      2.8418347248   -3.5326463211    6.9319803902
C      2.5870374434   -4.2373037859    5.6087923282
N      1.1480970475   -4.4257091280    5.3889826801
C      0.6857827106   -5.6221538745    6.1034296542
C     -0.8296141621   -5.6454766481    6.2243039257
N     -1.3169675378   -4.4220371340    6.8719729034
C     -1.2001431548   -4.5530882903    8.3300014550
C     -1.3265683788   -3.2060017606    9.0215121742
N     -0.3419927335   -2.2554053415    8.4893794225
C      0.9513982123   -2.4543031176    9.1554830627
C      2.0796666499   -1.7793739587    8.3930231079
C      2.8102662667   -1.2484013853    6.1817051600
C      1.9215377524   -0.0844794871    5.9120190513
O      0.6279150405   -0.2494237139    5.7628758331
O      2.4004151745    1.0284844886    5.7947589255
C      0.9011220026   -4.5777596845    3.9492946003
C      0.9801791395   -3.2638656003    3.2521706994
O      0.5813425046   -2.1633432866    3.8469730952
O      1.3853211643   -3.2104593038    2.1058927687
C     -2.7208058439   -4.2095542562    6.4968130355
C     -2.8276506335   -3.6879606881    5.1055742169
O     -1.9169041322   -2.8760917466    4.6207428013
O     -3.7872019106   -3.9883410730    4.4192154656
C     -0.8263183169   -0.8895612745    8.7224609370
C     -1.9487054299   -0.5666260389    7.7881652544
O     -1.8659003945   -0.9557696056    6.5354741198
N     -3.0408570379    0.1528801504    8.1780983732
H      3.9344717094   -3.3868600306    7.0782052368
H      2.5298879420   -4.2175462973    7.7421083258
H      3.0493292643   -3.6492628370    4.7916413603
H      3.1301697860   -5.2074156163    5.5825319704
H      1.0396807435   -6.5491356523    5.6015020461
H      1.1067093227   -5.6693563908    7.1248095781
H     -1.1532463258   -6.5534227585    6.7791345090
H     -1.2706681278   -5.7755991172    5.2166487415
H     -1.9623784755   -5.2565452681    8.7311081093
H     -0.2245425129   -4.9846713452    8.6210788274
H     -2.3638030604   -2.8377721971    8.8962990458
H     -1.2182664517   -3.3280944467   10.1217158496
H      0.9245808822   -2.0779606439   10.2015747736
H      1.1991791740   -3.5287640198    9.2415917471
H      1.9365792976   -0.6818562795    8.4445691192
H      3.0484959322   -1.9536364231    8.9106307597
H      3.0641513384   -1.6214998955    5.1720343048
H      3.7661890313   -0.9249282335    6.6497747846
H     -0.0616027152   -0.1237444157    8.4926310101
H      1.5968161186   -5.3173327022    3.4946313097
H     -0.1230667812   -4.9298561412    3.7246336994
H     -1.0989258467   -0.7555179356    9.7911460074
H     -3.2130847155   -3.4292024845    7.1068853162
H     -3.3194622575   -5.1383818037    6.6254324354
H     -4.1304061766    1.3378518590    9.5391065297
C     -3.2465743636    0.6662781072    9.5244421830
H     -3.7793102721    0.3539449130    7.4673778056
H     -3.4305230090   -0.1756637161   10.2242566665
H     -2.3628959352    1.2522416474    9.8539331164
Ce    -0.1237218551   -2.4451708880    6.0603138589
