        7547
  Built with Packmol                                             
  N            6.053152       39.356457       25.518011
  C            5.917747       40.646659       26.222118
  C            5.015565       40.611646       27.449444
  N            3.629916       40.207391       27.154780
  C            2.857897       41.339315       26.614074
  C            1.633279       40.952353       25.796908
  N            1.956059       40.103218       24.636540
  C            2.553602       40.900929       23.561658
  C            3.238595       40.092343       22.470519
  N            4.364781       39.271490       22.966028
  C            5.535836       40.132944       23.199077
  C            6.562553       39.549435       24.152819
  C            6.948743       38.458357       26.284450
  C            6.211657       37.777486       27.449575
  O            5.056124       37.316677       27.110637
  O            6.725725       37.728688       28.552896
  C            2.984147       39.647577       28.363166
  C            1.698281       38.873885       28.031873
  O            1.791769       38.143431       26.965662
  O            0.717951       38.994318       28.740417
  C            0.748233       39.400511       24.154938
  C            1.091943       38.209086       23.245696
  O            2.069160       37.474430       23.664787
  O            0.461704       38.042249       22.211413
  C            4.655849       38.166235       22.027622
  C            4.572448       36.789719       22.661485
  O            4.974993       36.629452       23.829540
  N            4.179710       35.745568       21.925091
  La           3.566616       38.036538       25.461411
  H            6.906996       41.000930       26.550794
  H            5.543132       41.383702       25.510070
  H            5.425850       39.919289       28.183165
  H            5.043471       41.607393       27.917071
  H            2.529254       42.002659       27.424688
  H            3.534975       41.937988       26.003470
  H            1.128595       41.878140       25.481161
  H            0.928985       40.400497       26.415358
  H            1.787146       41.527601       23.080110
  H            3.260533       41.594440       24.019330
  H            2.516355       39.437259       21.987417
  H            3.587604       40.796193       21.700452
  H            6.033015       40.365672       22.246280
  H            5.173208       41.086272       23.586408
  H            6.879800       38.570946       23.789277
  H            7.454190       40.197511       24.144533
  H            7.278998       37.660698       25.612714
  H            7.829521       38.999718       26.651437
  H            4.009781       38.229556       21.154277
  H            3.681759       38.927266       28.800741
  H            2.772449       40.427663       29.100719
  H            5.680397       38.253893       21.649355
  H            0.244551       38.993388       25.033548
  H            0.065025       40.083787       23.636386
  H            3.234458       32.937746        1.907442
  H            1.288988       32.893510        0.405391
  H            0.870924       31.262866        0.864592
  H            9.610269       27.606594       18.203286
  H            0.276959       34.333201        1.498181
  H            8.080053       35.040338       14.025800
  H            1.623892       29.671447        1.352906
  H            4.670416       34.273335       19.649628
  H            5.124415       37.245957       19.147278
  H           10.876361       29.150434       19.675406
  H            6.153363       36.182721       20.111926
  H            5.772383       33.806171       15.283341
  H            7.174425       33.404357        4.272073
  H            2.245754       30.968796        3.411868
  H            7.088570       36.594771       17.834915
  H            6.739328       34.886415       18.063120
  H            4.928516       36.916586       16.699113
  H            2.606577       34.513837       18.323517
  H            2.942116       36.222349       18.065855
  H            4.629922       33.893114       17.041746
  H            3.559547       34.893212       16.065557
  H            6.945475       32.232663       13.548353
  H            8.501823       32.851311       13.053316
  H            7.793174       30.380967       14.788768
  H            9.133025       34.329443       15.769537
  H           10.267135       33.470648       17.758396
  H           10.916946       31.566154       19.207579
  H            3.360506       31.675649        0.690614
  C            4.293891       35.289034       19.453733
  C            5.492472       36.214719       19.240514
  C            6.279264       35.879081       17.981286
  C            5.357332       35.910083       16.753175
  C            3.415131       35.240624       18.196470
  C            4.221227       34.906813       16.937016
  C            6.225431       35.796073       15.514724
  O            6.906242       36.739690       15.149735
  N            6.255581       34.589329       14.868201
  C            7.259442       34.343800       13.846179
  C            7.759326       32.898258       13.854477
  C            8.374067       32.402239       15.135140
  C            8.322861       31.062127       15.447014
  C            9.077296       33.272847       15.999737
  C            9.715010       32.794706       17.116638
  C            9.692740       31.419770       17.438752
  C            8.972613       30.533645       16.584013
  C           10.370449       30.889633       18.559312
  C           10.344349       29.543488       18.819737
  C            9.626441       28.667137       17.980913
  C            8.948352       29.153995       16.893370
  C            6.815241       34.642817       12.411074
  O            7.656824       34.762562       11.537339
  N            5.485904       34.672477       12.173618
  C            4.988504       34.979061       10.838787
  C            5.176251       33.820928        9.861732
  C            5.006887       34.246524        8.407716
  C            5.223864       33.084621        7.433147
  C            5.687259       33.517193        6.036722
  N            5.552443       32.477687        5.025256
  C            7.134397       34.031532        6.037087
  C            4.393391       32.424129        4.243688
  O            3.571204       33.324359        4.228268
  N            4.314091       31.312509        3.464719
  C            3.109502       30.976009        2.734417
  C            2.822323       31.979343        1.592212
  C            1.338004       32.183165        1.233668
  C            0.480875       32.654517        2.400622
  O            0.222615       31.960355        3.346775
  O            0.001008       33.918791        2.325129
  C            3.313644       29.545922        2.237182
  O            4.266114       28.873095        2.527262
  O            2.356607       29.046316        1.433745
  O            7.776279       33.889984        4.863238
  O            7.667760       34.537598        6.983614
  H            8.393002       28.486445       16.244467
  H            4.868245       34.690379       12.967641
  H            3.935681       35.253085       10.927720
  H            5.542438       35.847996       10.472384
  H            6.194296       33.445676        9.984935
  H            4.489701       33.003978       10.106187
  H            4.012710       34.674874        8.236315
  H            5.742006       35.023700        8.197640
  H            5.958626       32.380330        7.841921
  H            4.289003       32.534297        7.302359
  H            5.065888       34.346933        5.683706
  H            5.946994       31.583058        5.281943
  H            4.973769       30.553824        3.551685
  C            3.451180       35.725496       20.656902
  H            3.014440       36.710047       20.483914
  H            2.604281       35.049518       20.798174
  H            4.204102       34.876474       22.440830
  O           31.459946       13.311681       24.479990
  H           31.235210       13.689730       25.333393
  H           31.665529       12.393397       24.672688
  O            9.547485       10.120621       17.409253
  H            9.100609        9.422291       17.893363
  H           10.307932        9.687391       17.013432
  O           39.639240       18.283799       34.372775
  H           39.468482       17.821487       33.548861
  H           38.893093       18.880793       34.470264
  O           38.797706       15.182061        5.963397
  H           38.282964       15.987046        5.869773
  H           39.167026       15.032210        5.089447
  O           38.076815       39.444965       10.991688
  H           37.683763       38.695551       10.538241
  H           38.484592       39.063611       11.773308
  O            7.506236       18.313820       34.471295
  H            8.192261       18.021695       35.076073
  H            7.068636       19.031649       34.935914
  O           11.513915       17.136612        0.671035
  H           11.882688       17.757122        1.304042
  H           11.109720       17.692472        0.000000
  O           12.050687       30.202013       35.200430
  H           12.012535       31.141391       35.394951
  H           11.602055       29.786696       35.941297
  O           32.665930       27.106469       19.592568
  H           32.924691       26.202879       19.396886
  H           33.076395       27.627761       18.898007
  O           15.728238        1.126769       38.052839
  H           15.595651        0.176242       38.027473
  H           16.667574        1.240972       37.887772
  O            2.397341       13.217215       32.725487
  H            1.582179       12.717037       32.809495
  H            2.785325       13.190068       33.603766
  O           36.917399       20.503588       39.184075
  H           35.977197       20.674998       39.092626
  H           37.221943       20.358755       38.284676
  O           26.779090       27.337042        7.777843
  H           26.112681       26.847653        8.265821
  H           26.728672       28.227941        8.133369
  O           16.013154        7.478928        2.782299
  H           15.572394        8.205693        2.335903
  H           16.559793        7.077630        2.102014
  O           20.037097        1.704222       32.470525
  H           19.123257        1.746978       32.179333
  H           20.030927        1.057944       33.181108
  O           19.890135       38.619254       26.101212
  H           20.137167       38.024310       25.389354
  H           18.995074       38.892035       25.884189
  O           31.579098       21.621223        8.477204
  H           31.221772       22.512211        8.463631
  H           31.160848       21.208142        9.236857
  O           39.761028       38.155814       20.518388
  H           39.983085       38.538998       19.666575
  H           38.822289       38.331339       20.621361
  O           28.655104       26.928497       17.391444
  H           28.057687       27.296328       18.046821
  H           28.661467       27.577745       16.683575
  O           16.831153       13.093208        4.479136
  H           17.022721       13.702315        3.762187
  H           17.693234       12.773782        4.757388
  O           16.816993       30.571120       33.864661
  H           17.109214       30.673024       34.773477
  H           17.008179       29.653629       33.654187
  O           12.553293       20.221253       25.762199
  H           12.539623       19.268482       25.879519
  H           13.375777       20.392363       25.296491
  O            8.563052        3.597648       29.027660
  H            8.683657        4.130302       28.238066
  H            9.233197        2.913026       28.958086
  O           12.508638       36.697789       19.131553
  H           12.852362       36.500319       18.257148
  H           13.246686       37.105910       19.591296
  O           40.098077        5.504723       20.448200
  H           40.330491        6.172364       19.798612
  H           39.861918        4.734755       19.924730
  O           25.705219       23.046716       19.418596
  H           25.755461       23.653428       20.160958
  H           25.154822       22.326408       19.736183
  O           10.810902       39.788684       31.814221
  H           11.248161       39.811815       32.668618
  H           10.682775       40.713090       31.586847
  O           17.813152       16.987604       36.037956
  H           17.301599       16.348512       36.539553
  H           17.458667       17.839367       36.305319
  O           11.048958       36.323876       23.529681
  H           11.371660       35.456718       23.273505
  H           11.539348       36.534408       24.328327
  O           21.350861        8.680307       41.302500
  H           21.724685        7.826081       41.073855
  H           20.644160        8.809667       40.664940
  O           10.711741       15.444002       36.462519
  H           11.514717       15.072440       36.089831
  H           11.021394       16.043924       37.145784
  O           18.435106       40.515673       36.869411
  H           18.802348       39.995707       36.150736
  H           17.661439       40.020729       37.150678
  O           40.493420        0.728550       19.058498
  H           41.067729        1.456385       18.809196
  H           39.953672        1.083438       19.769390
  O           34.024740        4.570114       37.071372
  H           33.463141        5.342845       36.975354
  H           33.511902        3.853636       36.688883
  O           25.442999       27.281324       40.423798
  H           24.629491       27.261566       39.914347
  H           26.071790       27.728511       39.851706
  O           37.885110       34.025860       40.862228
  H           38.036690       33.707766       41.755292
  H           38.663962       33.746690       40.374278
  O           13.722022       23.146294       17.143742
  H           13.012793       22.854901       16.565979
  H           13.525809       24.070957       17.314450
  O           14.654841        7.237659       18.820457
  H           14.167985        6.443121       18.589360
  H           15.158526        6.990372       19.600068
  O            6.661036       37.360258       12.356905
  H            6.679568       38.074399       11.715512
  H            7.566479       37.298884       12.671625
  O           38.433010       21.042518        4.364312
  H           39.059863       21.758200        4.235544
  H           38.802984       20.309054        3.866524
  O           21.684987       35.242888       35.053176
  H           22.316781       35.945831       34.884558
  H           21.851254       34.601083       34.358133
  O           28.575217       26.772843        8.940591
  H           29.334582       27.301889        8.685250
  H           28.256839       27.186349        9.746996
  O           10.316077       35.058406       41.540939
  H            9.463999       35.271224       41.928749
  H           10.519495       34.182383       41.878351
  O           22.844275       41.481943       18.613575
  H           21.969836       41.872676       18.547162
  H           23.359519       41.934915       17.941278
  O            5.429876       19.472050       16.601212
  H            6.268324       19.576092       17.057177
  H            4.827243       20.050581       17.075318
  O           39.497481       22.603516       21.365242
  H           39.259639       23.452085       21.746146
  H           40.321851       22.772682       20.902166
  O           30.724633       33.593130       39.977358
  H           29.847542       33.918727       39.761896
  H           31.309316       34.073698       39.385885
  O           39.555103       33.189983       28.255010
  H           39.079394       33.843444       28.773097
  H           40.441998       33.549776       28.173718
  O           16.080084       26.835185        5.800488
  H           16.931078       27.276561        5.748318
  H           15.928358       26.720377        6.741997
  O           21.227972       18.358225        1.876254
  H           22.012039       18.327971        2.429471
  H           21.106242       17.450912        1.585383
  O           10.361955       13.013797       38.090156
  H            9.683482       12.872830       38.754632
  H           10.488254       13.965904       38.076607
  O           32.099824       37.517763       18.809333
  H           31.151735       37.667989       18.792471
  H           32.188908       36.563678       18.875868
  O            6.655350       17.834251       30.027736
  H            6.028070       18.500499       29.737293
  H            7.091946       18.231967       30.785264
  O           39.401118       12.623812       24.690668
  H           38.599746       12.096675       24.731331
  H           39.305854       13.258044       25.405732
  O           39.256221       21.835960       18.763761
  H           38.889518       22.582572       19.243161
  H           39.605975       22.219961       17.955765
  O           31.359761       25.410208       17.622161
  H           30.467317       25.736431       17.759448
  H           31.525628       24.843455       18.379736
  O           13.441266       25.719432        4.958443
  H           12.535359       26.027610        5.036448
  H           13.964630       26.410310        5.372471
  O           26.447113        0.000000       38.586207
  H           27.381792        0.148341       38.747747
  H           26.126039        0.842018       38.253703
  O           41.999998       33.117534       35.466333
  H           41.226714       32.550425       35.420025
  H           41.705794       33.952731       35.094135
  O           28.521228        2.252239       31.758469
  H           29.338545        1.929835       31.371461
  H           27.847903        2.035304       31.108689
  O           32.579951       13.503897       33.047621
  H           33.156244       13.621120       32.288760
  H           32.860172       14.182572       33.666911
  O           27.870602       23.869438        8.408173
  H           27.313927       23.091893        8.322957
  H           28.330030       23.743503        9.242264
  O           17.795132       32.533032       41.318526
  H           17.820180       33.387568       40.881645
  H           18.342374       31.967525       40.767736
  O            4.521174       30.594615       33.076954
  H            4.481021       30.270054       33.979602
  H            4.600693       31.547379       33.169475
  O           18.742535       38.114673        8.480591
  H           17.835259       38.145638        8.168156
  H           19.023767       37.212739        8.307197
  O           28.435396       37.650705        3.739629
  H           29.183154       37.931810        4.272136
  H           28.797796       36.980569        3.154628
  O           34.009683       12.454100       16.767346
  H           34.211587       13.334958       16.443232
  H           33.086322       12.501674       17.027698
  O            3.093045       24.066582       22.773577
  H            2.260763       23.588017       22.776297
  H            3.168710       24.408232       21.879043
  O           20.797137       37.984086       20.114972
  H           20.120376       38.657901       20.016512
  H           20.327324       37.223989       20.467351
  O           12.229203       41.998334       22.303379
  H           11.366117       41.780216       21.943890
  H           12.699107       41.160748       22.320166
  O           31.902840       28.926890       12.046413
  H           31.116922       29.070138       11.513930
  H           32.108600       29.793589       12.405770
  O            6.375761       39.754949       30.847462
  H            6.193497       39.563627       31.770447
  H            5.594566       39.446642       30.381281
  O           12.764105        8.252683       36.243703
  H           13.673386        8.558514       36.281119
  H           12.241435        9.034026       36.441086
  O           31.527318       25.451570       39.143857
  H           30.614654       25.386274       39.434558
  H           31.471363       25.843879       38.268868
  O           22.278387       19.010551       31.996597
  H           22.552525       19.379543       32.839460
  H           22.078851       18.091555       32.192232
  O            1.049793        1.392382       27.194867
  H            0.475218        1.178492       27.933676
  H            0.810947        2.292595       26.959898
  O           11.727282       17.206994       16.476516
  H           12.284838       17.856131       16.911807
  H           12.342546       16.547652       16.145818
  O           27.899637        3.068184       39.367806
  H           28.368031        2.263646       39.602435
  H           28.589859        3.731503       39.288790
  O           41.726332       31.266178       28.412678
  H           41.288628       30.800219       27.696422
  H           41.067088       31.304463       29.110227
  O           34.193282       31.290725       40.099085
  H           34.473996       31.274379       41.017048
  H           33.384832       30.772148       40.087710
  O            0.005491       36.165974       22.737008
  H            0.018139       36.558358       23.613136
  H            0.931139       36.113457       22.485892
  O           13.892281       14.492684        2.544782
  H           14.429395       15.220807        2.865828
  H           14.292365       14.253484        1.704926
  O            6.809745       31.804922       20.125736
  H            6.587918       30.965572       19.715846
  H            7.768800       31.798288       20.178757
  O           27.240770       30.077523       12.172470
  H           26.383349       30.305846       12.539108
  H           27.321897       30.632163       11.392448
  O            7.200209       39.102691       13.769723
  H            6.283189       39.162467       14.047620
  H            7.703286       39.244017       14.575690
  O           15.058367       28.191240       26.552118
  H           15.164314       28.494506       25.647391
  H           14.611570       28.916531       26.995929
  O           33.724271        9.509257        6.016106
  H           34.042043        8.639642        6.270108
  H           33.101726        9.337326        5.305107
  O           31.526538       14.743676       15.026142
  H           31.703080       13.801679       15.082709
  H           30.576859       14.800755       14.893875
  O            2.937673        8.308784       13.475022
  H            2.727889        9.003948       14.103085
  H            2.563160        8.615904       12.645528
  O            0.858837        1.602867        9.927148
  H            0.000080        2.028528        9.982587
  H            1.165245        1.564796       10.836712
  O           27.916530       16.710918        4.961012
  H           27.363063       17.314330        4.459721
  H           27.309864       16.279254        5.567860
  O           11.036787       40.427057       38.227487
  H           10.457818       39.704539       38.481433
  H           10.569267       40.867487       37.513282
  O           14.539869       37.461593        8.157041
  H           15.283554       36.860151        8.073821
  H           14.161116       37.495910        7.274992
  O           12.750241       32.033946       22.173943
  H           11.821985       31.989328       22.414932
  H           12.746037       32.066863       21.213974
  O           18.413970        9.399478        3.469444
  H           18.033700        8.793292        4.109489
  H           17.792202        9.394119        2.737312
  O           41.788914       27.531280       23.383244
  H           42.000000       26.596319       23.438150
  H           41.300698       27.617574       22.560541
  O           32.758714       36.264280       26.503678
  H           32.445885       37.083611       26.894266
  H           33.540264       36.519959       26.007240
  O           40.368949        9.394256       12.025438
  H           41.160788        8.892057       11.819251
  H           40.658655       10.310035       12.017708
  O            7.319514        9.122978        3.189936
  H            7.935532        9.191736        2.456779
  H            7.152742        8.180737        3.273667
  O           40.881640       11.042486       37.632924
  H           40.059499       10.754776       38.036697
  H           40.961180       10.502028       36.842848
  O           20.901846       28.788526       26.186502
  H           21.789489       28.554608       26.467746
  H           20.674128       28.120104       25.535351
  O           37.363524       40.280181       29.385201
  H           37.112374       40.469238       28.478059
  H           38.278821       39.995193       29.324740
  O           26.832886       34.811330       26.049370
  H           26.081192       34.402903       25.613629
  H           27.225529       34.101031       26.563130
  O            8.657604        1.660215       31.877761
  H            8.446427        2.562706       32.128041
  H            9.315194        1.752904       31.183768
  O           37.717052       26.089234       32.502322
  H           37.732653       26.988379       32.838507
  H           38.125514       25.567540       33.197762
  O           33.064323       30.890657       23.163485
  H           32.123488       30.703195       23.125903
  H           33.152599       31.752058       22.747748
  O            1.641007       28.976803       13.456691
  H            0.864525       29.478494       13.197638
  H            2.377114       29.567288       13.277485
  O           18.647966        3.774235        0.847397
  H           19.141509        2.950755        0.842738
  H           18.292985        3.834421        1.737908
  O           25.832472       14.821720       25.526353
  H           25.576809       14.372313       26.335300
  H           25.892275       14.120443       24.872690
  O           19.304545       18.094068        7.228768
  H           19.808994       18.637913        6.619269
  H           18.612703       17.707015        6.686378
  O           26.481009       19.694411        7.550828
  H           26.151093       18.815471        7.751690
  H           27.345234       19.541270        7.160565
  O           13.993961       21.502649       18.716644
  H           14.200691       21.088185       17.875688
  H           14.840344       21.564037       19.166654
  O           37.842463       16.661134       38.026253
  H           38.635451       16.900812       37.541021
  H           37.458647       15.943365       37.516217
  O           18.911813       14.512586        1.466491
  H           18.274544       13.842881        1.725544
  H           18.479055       14.990867        0.754726
  O            8.404857       41.247468       28.555697
  H            8.990549       41.999992       28.444349
  H            7.992211       41.391018       29.411125
  O           13.898573       11.683319       31.682967
  H           13.937841       10.770908       31.979092
  H           13.306330       12.111107       32.306576
  O           13.645614       12.332036       39.570046
  H           13.588984       11.374242       39.536156
  H           13.574922       12.607673       38.652620
  O           18.331026       26.363262        0.528622
  H           17.543749       26.206199        0.002076
  H           18.854045       26.971253        0.000000
  O           17.190643       11.504784       16.229491
  H           16.436880       11.978059       16.589459
  H           17.524144       12.079703       15.536031
  O           31.236810       28.124418       35.093680
  H           31.927330       27.484106       35.280518
  H           31.454970       28.462699       34.221548
  O           39.323981       23.058598        7.427210
  H           38.406124       23.325925        7.515529
  H           39.714534       23.261161        8.281071
  O           23.219124       36.407820       18.635707
  H           23.457412       37.279116       18.310458
  H           22.309564       36.287669       18.351264
  O           32.352595       12.194673       39.506216
  H           31.586454       11.997383       40.050118
  H           32.314120       11.548329       38.796708
  O           12.313131        9.532212       14.894783
  H           12.297255       10.457406       15.150689
  H           12.247091        9.548677       13.936654
  O           17.299512       41.347933       13.589969
  H           17.024891       40.960285       14.424257
  H           16.517125       41.298213       13.034955
  O           25.649270       18.946741        4.714569
  H           26.471450       19.328963        4.398894
  H           25.543208       19.306368        5.598911
  O            0.897873        5.591733       34.740804
  H            0.031580        5.988229       34.622263
  H            1.354147        5.763895       33.913268
  O           30.022358       13.124571       37.314260
  H           29.475956       12.662672       37.954430
  H           30.911272       13.066627       37.673588
  O            9.608505       36.851989       29.731908
  H            8.986234       37.554166       29.528313
  H            9.452692       36.656838       30.659421
  O           29.217889       10.569503       33.967735
  H           29.797353       10.732661       34.715616
  H           28.394529       11.003642       34.204892
  O           28.501172        3.008546       19.765565
  H           29.110422        3.671216       20.099343
  H           29.031107        2.210338       19.697190
  O           41.830442       33.462223       38.832338
  H           41.784481       33.948374       38.005737
  H           41.118297       33.827297       39.363575
  O            9.095982       23.428179       40.117759
  H            8.396385       22.771316       40.146383
  H            9.732423       23.071593       39.492915
  O           40.863057        1.656769       31.585293
  H           40.885704        2.615956       31.551042
  H           41.737844        1.387076       31.294338
  O           36.418427       31.696856       25.309550
  H           35.592987       32.145909       25.506338
  H           36.967287       32.373340       24.904873
  O           15.246583        5.874231       22.062417
  H           14.749667        5.141473       22.433720
  H           15.558111        5.546032       21.215140
  O            1.580182       30.369845       15.164527
  H            2.442654       30.791052       15.143247
  H            0.957501       31.101211       15.160797
  O           25.533988        8.895136        3.832281
  H           25.712606        9.093093        2.909983
  H           25.551728        9.751166        4.267644
  O           27.847615        6.431636       35.319447
  H           28.219876        7.305772       35.457409
  H           28.121765        6.193360       34.430229
  O           10.479317       38.676668        3.194706
  H           10.011436       37.846329        3.079165
  H           10.185711       38.998678        4.050712
  O            7.447483        5.386578       32.476834
  H            7.991811        4.633083       32.716994
  H            6.806945        5.029854       31.856268
  O           37.792792        2.522319       37.117734
  H           38.323824        1.724962       37.180595
  H           37.327230        2.433479       36.282269
  O           12.006915       20.082256        0.422760
  H           11.861478       21.031064        0.404389
  H           12.954295       19.983810        0.298577
  O           14.989629       28.701612        6.921276
  H           14.240768       28.470003        6.366939
  H           14.664962       29.417042        7.473900
  O           32.231840        2.875793        4.193402
  H           31.507871        3.468531        3.978330
  H           32.500497        3.138495        5.077400
  O            8.193716       21.001525       31.769410
  H            9.116519       21.065714       32.026391
  H            8.113246       20.124175       31.386755
  O           10.763692       20.293581       40.613460
  H           10.815285       21.007718       39.973873
  H           10.781720       19.494557       40.080658
  O           21.765897       34.856099       16.769392
  H           21.329236       34.102533       16.365424
  H           21.174941       35.593837       16.598643
  O           25.295769        7.309412        9.857806
  H           24.823616        8.139770        9.761362
  H           24.627329        6.688571       10.158447
  O            3.910114       26.153829        8.759694
  H            3.680359       27.072643        8.602475
  H            4.770485       26.048992        8.345674
  O           39.379929        0.539140        8.311963
  H           40.115756        0.170145        8.806054
  H           39.403306        1.477729        8.514807
  O           18.491654       10.780721       23.769346
  H           18.611545       11.026984       22.849180
  H           17.539042       10.774656       23.892373
  O           18.973375       19.003441       21.778417
  H           18.166033       18.487307       21.718994
  H           18.686966       19.910408       21.644175
  O            1.838573       41.098322       37.386415
  H            2.619227       40.609792       37.115042
  H            1.980273       41.274771       38.319918
  O           17.093790        0.573387        1.362824
  H           17.491521        0.085458        0.637937
  H           17.729302        1.265768        1.561253
  O           36.361132       30.713777        2.706179
  H           36.674935       31.595400        2.491715
  H           35.667280       30.858786        3.354395
  O           32.816633       18.932467       36.287096
  H           32.030262       18.666435       36.769354
  H           32.545123       19.715634       35.801736
  O           12.012828       12.274384       24.148260
  H           11.261634       11.731316       24.398280
  H           12.605648       12.223027       24.902296
  O           35.063942       37.926344        9.817868
  H           35.696276       37.310094       10.194850
  H           34.365269       37.367275        9.468671
  O           41.528438        9.473090        7.480253
  H           41.999637        9.977901        8.147233
  H           41.718223        9.930171        6.657027
  O           34.874310       34.193405       18.682291
  H           34.463257       34.718577       19.372910
  H           34.598374       34.616166       17.865116
  O           10.649669       18.388644       36.428872
  H           10.460752       19.318699       36.283843
  H           11.261264       18.382242       37.169515
  O           40.272046       18.248460       25.251111
  H           40.599434       17.637386       24.586934
  H           40.686383       17.957738       26.067474
  O           31.188408       16.655745        8.451307
  H           30.378497       16.140544        8.469632
  H           31.468161       16.627606        7.532836
  O           35.467179        4.760361       34.769996
  H           36.153927        5.197612       34.261161
  H           35.874366        4.590132       35.623144
  O           33.848691       31.966025       14.472554
  H           33.154584       31.673958       13.877040
  H           34.530105       32.314196       13.891956
  O           41.345018       22.285368       15.108319
  H           40.625054       21.769145       15.478307
  H           40.930970       22.813969       14.421451
  O           39.274016       33.281308       23.249000
  H           39.689936       32.417001       23.207665
  H           38.438330       33.165974       22.789688
  O           24.982513       34.628082       12.362909
  H           25.523636       34.191846       11.700634
  H           24.950568       34.004751       13.093032
  O            6.467276        4.351346       37.658571
  H            5.944473        4.610666       36.896236
  H            6.156572        4.921968       38.366029
  O           13.776705       10.035678       23.179675
  H           12.961731       10.380512       23.552008
  H           13.991608       10.646140       22.469890
  O            9.366028       14.109150       22.641022
  H            9.844605       13.405472       22.196583
  H            9.297505       14.804287       21.981680
  O           18.233684       23.734694       30.998447
  H           17.373610       23.440088       30.689895
  H           18.120822       24.675349       31.156789
  O           11.648415       22.172174       13.857081
  H           12.563843       22.019167       14.102654
  H           11.434263       21.443386       13.269162
  O           34.599787        8.511690       25.621052
  H           35.016442        8.603887       26.481066
  H           35.256423        8.059630       25.085222
  O           37.201569       38.913486       38.181651
  H           38.083380       39.186406       37.917742
  H           36.614623       39.460607       37.653640
  O           12.339396       41.192130       35.368880
  H           12.353424       40.624750       34.594537
  H           12.771549       42.000000       35.080380
  O           21.115604        7.691961        1.258333
  H           20.975094        7.251635        2.099816
  H           22.042515        7.943500        1.272701
  O           19.768993       30.059717       33.405369
  H           19.380305       30.936238       33.356809
  H           19.530379       29.741180       34.279576
  O           12.034453       33.385289        5.367430
  H           12.223189       32.560599        5.821292
  H           11.280655       33.182332        4.807752
  O           40.428504       12.435848       35.771810
  H           39.575139       12.123742       36.081784
  H           40.217937       13.007267       35.028988
  O           20.968103       11.457650       32.832219
  H           21.409686       11.777205       32.041893
  H           20.899266       12.231941       33.396468
  O           29.856726        6.290506       20.902719
  H           28.933940        6.401154       20.661993
  H           29.858270        5.540690       21.503065
  O            5.407863       30.852305       10.825137
  H            5.237222       30.002081       10.413158
  H            5.303303       30.686854       11.765528
  O           22.220012       19.501116       27.850804
  H           22.448704       20.421928       27.704072
  H           21.524884       19.530691       28.513046
  O           35.876377        3.539045       30.372207
  H           36.694410        3.679625       30.854683
  H           36.085299        3.792702       29.469626
  O           40.568244       15.657105        2.389159
  H           41.186824       16.189035        2.895256
  H           41.105625       14.950048        2.023189
  O           13.003432       11.763386       27.977125
  H           13.954146       11.851910       27.876967
  H           12.650061       11.997337       27.115128
  O            0.789156        3.642916       32.083330
  H            0.536841        3.411389       32.980246
  H            0.897945        4.597031       32.105008
  O           35.460443       28.527102        8.395732
  H           35.364610       27.613233        8.117553
  H           35.059401       29.035582        7.686327
  O           40.918673       21.522040       23.331576
  H           40.952981       22.424270       23.005187
  H           40.676874       21.612228       24.256801
  O           13.624772       11.653498        8.963120
  H           13.345724       12.540057        8.722557
  H           13.147635       11.465499        9.775302
  O            6.897621        4.723099        8.883540
  H            5.981894        4.945398        8.699819
  H            7.335013        5.573063        8.977831
  O           13.062202       34.146881        3.271808
  H           13.080857       33.235762        2.969748
  H           13.933820       34.290966        3.648854
  O            5.944649       38.991624       39.389836
  H            6.369958       38.183501       39.093569
  H            6.540086       39.343991       40.056120
  O            8.423238       23.582725        8.212249
  H            7.616406       23.123953        8.457763
  H            8.131098       24.464358        7.967260
  O           40.332932       15.820233       29.850017
  H           40.005234       15.902500       28.951368
  H           39.562304       15.562372       30.362151
  O           25.537266        0.011202        1.718051
  H           24.740114        0.544764        1.678248
  H           26.218006        0.570698        1.335691
  O           35.747648       37.841167       35.349024
  H           35.196778       38.524124       35.738686
  H           35.194574       37.055864       35.356076
  O            8.858755       37.475034       10.968574
  H            9.759131       37.410918       10.641562
  H            8.673976       38.417614       10.975009
  O            8.952526       21.733568       36.124192
  H            9.499482       22.214339       35.498554
  H            8.150827       21.532605       35.634769
  O            5.109526       28.105119       12.359097
  H            4.509967       28.806167       12.625152
  H            5.852276       28.565259       11.960055
  O           31.546812        3.305238       26.647220
  H           31.184008        3.795027       27.388978
  H           30.787444        2.863329       26.258995
  O           10.615530       26.674071       26.322994
  H           10.364986       27.346779       26.960503
  H            9.885755       26.049650       26.336019
  O           21.185780       28.740594       40.919447
  H           21.071244       28.697556       41.871684
  H           20.368748       28.381229       40.564541
  O           26.104542       41.366679        9.168943
  H           25.355009       41.005055        8.690242
  H           26.409487       40.640240        9.718431
  O           26.015948       36.613760       13.672676
  H           25.723174       37.431116       14.082479
  H           26.578755       36.898510       12.948241
  O           40.153996        5.918275        7.650749
  H           40.972096        5.417037        7.685351
  H           40.069380        6.297499        8.529198
  O           33.611428       13.851627       18.697662
  H           34.497282       14.146862       18.474452
  H           33.057340       14.620473       18.541119
  O            0.528243       26.775559       18.119540
  H            0.123979       27.555439       17.732133
  H            0.926970       27.093145       18.933664
  O           25.785305       28.805979       37.920304
  H           26.743641       28.858862       37.943140
  H           25.561143       28.938834       36.995781
  O           35.562335       38.651397       20.078813
  H           36.515493       38.691943       19.971242
  H           35.218660       39.197881       19.367557
  O            9.118969        1.444072       16.285638
  H            8.375591        1.998086       16.036274
  H            8.798543        0.939329       17.037438
  O            6.043669       39.422230       16.380765
  H            6.603627       40.189044       16.238745
  H            5.525612       39.645978       17.158066
  O           11.020580       11.943152       14.135909
  H           10.901947       12.700229       14.714256
  H           11.554666       12.278103       13.411201
  O           41.608290       27.380793        2.472918
  H           41.083465       28.130210        2.763879
  H           41.816958       27.577406        1.556161
  O           10.421923       23.669586       19.076938
  H           10.908322       23.230687       18.375148
  H           10.944205       23.507323       19.866580
  O           39.046771       30.698596        8.356002
  H           38.429444       30.831085        7.632760
  H           39.411909       31.571619        8.520767
  O           34.868226        0.183885       10.092018
  H           34.257767        0.402421       10.800048
  H           35.313078        1.012456        9.896522
  O           28.180311       20.773869       36.580101
  H           28.962486       20.490547       36.100876
  H           27.473799       20.729485       35.930860
  O            0.000000       24.519811       35.224490
  H            0.605188       23.904622       34.803758
  H            0.569424       25.110354       35.724148
  O           17.626212        1.937421       12.369614
  H           17.792240        2.359445       11.523413
  H           17.614338        0.998069       12.169318
  O           41.005145        5.651752        3.110059
  H           40.551799        6.437389        2.795452
  H           40.531302        5.406849        3.908895
  O           35.106597       33.817972       41.538524
  H           35.886625       34.160530       41.981170
  H           35.055634       34.321063       40.721858
  O            1.636625       17.854871       22.396373
  H            0.863405       17.392659       22.728358
  H            2.337837       17.199126       22.427064
  O           11.700781       38.570629        0.535073
  H           12.509416       38.060191        0.449705
  H           11.031570       38.030471        0.107255
  O           19.906586       17.032969       34.670771
  H           19.495188       16.287235       34.227649
  H           19.285151       17.755188       34.548869
  O           18.808091        6.510624       34.863440
  H           18.022612        6.144024       35.276177
  H           19.482672        5.839985       34.996949
  O            1.696881       40.594086       41.721175
  H            1.528612       41.497857       41.997958
  H            0.914408       40.110436       41.997689
  O           33.080897       23.237972       19.574061
  H           33.014603       22.754799       20.401028
  H           33.175337       22.554683       18.905600
  O           34.255189       12.325890       40.602992
  H           35.118605       11.996531       40.342684
  H           34.416200       12.791128       41.427777
  O           17.366684        8.035292       37.093470
  H           17.741752        8.114554       36.213262
  H           16.427809        7.901039       36.941376
  O           18.634909       40.123959       27.670987
  H           19.395145       40.433607       28.168866
  H           18.295442       40.912084       27.239405
  O            3.568131        5.016285       18.274589
  H            4.390111        4.596111       18.538271
  H            3.220599        4.447287       17.583138
  O           40.395747       18.208882       21.878619
  H           39.461224       18.428316       21.863090
  H           40.441688       17.397602       22.390827
  O           40.458496       25.193899       40.793541
  H           40.527218       26.044444       41.233513
  H           39.550232       24.920131       40.944370
  O           11.261951       41.633623       18.165296
  H           11.997890       41.173733       17.754663
  H           10.702127       41.892881       17.429073
  O            0.719390       30.976598        9.310906
  H            0.454618       31.342876        8.463875
  H            1.535793       31.435462        9.524381
  O            3.113047       14.475994       35.832557
  H            3.542680       15.223574       36.254772
  H            3.834624       13.973329       35.446168
  O           28.298265       20.940900        8.565125
  H           28.993844       21.476854        8.953260
  H           27.546455       21.066170        9.149702
  O            6.579099        2.522848       26.624050
  H            7.326507        2.863772       26.127182
  H            6.379552        3.214977       27.259488
  O           40.813219       18.477287       41.568083
  H           40.525372       17.668455       41.997802
  H           40.299211       19.168791       41.992652
  O           28.613339        7.292280       25.694415
  H           28.061445        6.527763       25.875113
  H           28.301900        7.615831       24.845320
  O           40.434052       10.018463       24.390290
  H           39.509748       10.069630       24.135792
  H           40.451937        9.364087       25.093223
  O           32.348181        3.459302       38.513781
  H           31.864092        2.819690       37.986259
  H           31.931373        3.419660       39.378270
  O           17.959874       24.374510       14.191251
  H           17.598335       24.890989       13.467191
  H           17.292232       24.429049       14.879670
  O            4.488497       28.760671       31.731017
  H            3.818512       28.138912       32.024720
  H            5.314240       28.276371       31.810037
  O           18.167007       22.247033        7.250495
  H           18.859393       21.828295        7.767201
  H           17.430966       22.331102        7.861902
  O           10.399690       15.079345        2.597680
  H           11.178065       15.230877        3.138879
  H            9.662381       15.290005        3.176160
  O            0.394685       19.930938       15.859876
  H            0.533863       20.434988       15.054712
  H            1.211878       19.440189       15.978214
  O           10.078564       24.185987        1.929861
  H            9.881963       24.499980        2.815571
  H            9.266073       23.762762        1.641103
  O           12.593699       35.770672       13.776652
  H           12.227659       36.599159       14.095006
  H           13.197623       36.030318       13.076294
  O           16.630973       20.061088       14.862401
  H           15.864367       20.620106       15.009165
  H           17.195217       20.577840       14.281680
  O           21.126242       37.794649       34.817550
  H           21.823882       38.449375       34.737826
  H           20.382957       38.281464       35.182489
  O           24.064988       11.102625       34.470530
  H           24.247637       11.994688       34.166247
  H           24.500096       10.537475       33.827157
  O           14.528599       25.598236       22.093339
  H           14.416609       25.513189       23.043050
  H           14.186412       26.472480       21.890248
  O           22.896861        1.437503       40.536309
  H           22.812859        0.829949       41.274921
  H           21.995971        1.715533       40.352630
  O           10.631878        6.357261       15.861040
  H           11.269899        6.809701       16.417774
  H           10.814348        5.424343       15.998916
  O           31.272610       22.373206       37.504026
  H           31.456275       21.498870       37.152561
  H           31.651382       22.359792       38.386632
  O           21.285308       24.865183       18.189171
  H           20.902200       25.742228       18.264970
  H           20.645336       24.287975       18.613328
  O           23.286505       32.348244       25.003555
  H           22.597558       33.011298       25.089789
  H           24.057943       32.842169       24.714480
  O           26.360428       11.803620       26.363973
  H           26.169572       11.110753       25.727393
  H           25.609836       11.790207       26.963201
  O            4.533386       12.872489       30.853566
  H            4.755348       12.082221       30.355635
  H            3.573370       12.872461       30.885385
  O           13.502799       25.375209       26.579093
  H           13.667834       24.475018       26.289018
  H           13.971473       25.446215       27.414524
  O           31.573905       17.879555       15.796303
  H           31.584631       18.809885       15.559457
  H           30.664035       17.709292       16.052795
  O           18.830884       20.261272       24.094228
  H           19.591095       19.797019       23.736075
  H           19.063914       20.428750       25.010901
  O           39.700941       29.738804       22.150292
  H           40.147323       29.452436       22.950580
  H           40.222162       30.483597       21.840043
  O           13.961649        1.618362       18.136381
  H           13.951460        1.770441       19.084270
  H           13.395662        0.852363       18.011700
  O           37.688632        0.480600        5.839889
  H           38.204579        0.000260        6.491654
  H           38.286402        0.589865        5.095998
  O            3.100784       29.619028       41.494634
  H            3.124441       29.186795       40.637697
  H            3.792506       29.184554       42.000000
  O           25.668579       13.989352       14.162338
  H           25.004363       14.269958       13.528459
  H           25.247780       13.275765       14.648511
  O            7.207486       40.731037       41.627954
  H            6.356238       41.001318       41.980162
  H            7.556266       41.523813       41.212623
  O            3.928658       24.355908       13.979224
  H            3.453484       23.883573       14.666853
  H            3.243463       24.644445       13.371033
  O           37.563262       41.509261       13.162751
  H           38.454730       41.236630       13.392279
  H           37.308230       40.916180       12.451516
  O           33.836491       20.275352       38.404322
  H           34.275207       19.809227       37.688794
  H           32.907893       20.053100       38.299667
  O           29.027510       26.067696        2.044016
  H           29.026955       26.976340        2.354002
  H           29.605007       25.606749        2.657749
  O            5.563405       16.956885       32.883488
  H            6.311429       16.770715       33.455786
  H            5.905304       16.828975       31.995014
  O            1.423677       37.271031       10.293271
  H            1.623015       38.204679       10.394707
  H            1.164412       37.181218        9.372751
  O            9.891561        2.174448        0.000000
  H           10.848134        2.211711        0.072833
  H            9.585583        2.110809        0.908278
  O           19.453138        6.368873       37.484807
  H           18.512826        6.186120       37.420457
  H           19.580107        7.156503       36.949868
  O            3.182675       40.105812       19.423085
  H            2.267753       39.887807       19.615745
  H            3.445732       39.464330       18.758295
  O            2.154568       28.246115       11.078054
  H            2.482824       27.770969       10.311106
  H            2.675997       27.906795       11.809912
  O            8.015144       34.844918        9.527330
  H            8.180265       33.953194        9.212228
  H            8.632750       35.390407        9.033724
  O           34.285651       36.242360        6.527090
  H           33.855227       36.984108        6.095500
  H           33.562596       35.728931        6.896177
  O           25.400347       22.106496       27.679894
  H           25.644079       21.849886       26.787442
  H           24.738467       22.791937       27.558539
  O           13.898490        1.951104       38.954228
  H           13.231400        1.275479       38.811935
  H           14.369674        1.659443       39.738805
  O           30.851505       19.296543        3.515898
  H           31.055783       19.666513        2.653855
  H           31.052082       18.361335        3.427601
  O           21.156761        0.303249        1.759210
  H           21.060213        0.568475        0.841572
  H           20.587431        0.906912        2.243044
  O           28.429080       42.000000       32.973973
  H           28.497240       41.094438       33.285479
  H           27.833110       41.949380       32.222376
  O           15.299700       16.471678       37.444707
  H           15.399367       15.741531       38.060074
  H           14.350534       16.607623       37.387752
  O           30.553121       20.167418       25.833463
  H           31.385123       20.602163       25.632229
  H           29.884175       20.824137       25.624005
  O           11.019776       24.531374       41.391791
  H           10.505954       23.831252       41.801108
  H           10.740575       25.329583       41.847369
  O           18.646259       20.787483       29.821460
  H           19.352377       20.148109       29.701778
  H           18.947315       21.342491       30.545320
  O           41.892537       36.233576        4.576261
  H           40.990920       35.968157        4.772131
  H           41.821606       36.734349        3.759660
  O           39.371157       10.882617       26.399503
  H           39.942795       11.208962       27.098398
  H           38.932743       10.120551       26.786403
  O           23.930060       20.151152       10.280726
  H           24.148715       19.967061       11.197255
  H           23.683894       19.296463        9.918027
  O            2.561419       41.298095       33.911997
  H            3.464837       41.618869       33.860388
  H            2.192577       41.746394       34.677259
  O            9.347627       37.757901        5.663391
  H            9.912078       38.347322        6.169061
  H            9.743861       36.890610        5.779347
  O           33.560201       39.027666        6.961268
  H           32.943552       39.496475        7.528444
  H           33.536404       39.511541        6.131846
  O           25.084004       24.114280       23.167171
  H           25.336448       24.993030       22.874263
  H           24.521250       24.269697       23.929926
  O           20.654760        5.113223       26.168110
  H           21.030952        5.907690       26.554151
  H           20.679687        5.273339       25.221335
  O            2.746496       15.471281       31.250693
  H            2.185899       15.299451       32.010910
  H            3.223546       16.272146       31.482385
  O            5.806750       15.107709       19.597564
  H            6.084086       14.202160       19.755015
  H            4.855792       15.048120       19.476034
  O           26.609304       24.902900       18.248442
  H           27.513755       24.972686       18.562804
  H           26.549414       25.556825       17.547416
  O            1.953991       40.416322       31.531256
  H            1.501908       41.082754       31.008556
  H            2.206885       39.744121       30.893421
  O            1.692577       39.105349       34.317737
  H            0.971864       39.717226       34.484783
  H            2.356561       39.334459       34.972929
  O           39.510755        9.356193        3.287308
  H           38.573766        9.158460        3.218918
  H           39.946214        8.542829        3.019994
  O            5.029638       25.592647       16.802323
  H            5.925752       25.713931       16.479842
  H            4.612414       25.033172       16.142358
  O           25.467185        4.168488        1.341484
  H           24.596276        3.851767        1.592344
  H           25.364431        4.451267        0.429278
  O           15.547022       27.621443       23.226264
  H           14.938564       28.324428       23.465671
  H           15.615216       27.084582       24.019846
  O           21.722921        5.947635       38.125812
  H           21.601089        6.007531       37.175394
  H           21.380517        6.779336       38.462969
  O           41.040401        9.401824       39.573331
  H           41.951660        9.551915       39.311023
  H           40.886997       10.037572       40.276846
  O            4.363890       14.578560       22.895423
  H            4.718191       15.449076       22.699467
  H            4.615046       14.043021       22.138613
  O           34.202983       34.429564       28.623363
  H           35.008826       33.932185       28.465389
  H           33.767017       34.455177       27.767840
  O           30.539806       39.180277       25.113541
  H           30.806212       38.306162       25.407948
  H           29.658965       39.052103       24.752525
  O            0.670283        1.249359       35.508183
  H            0.302683        0.891227       36.319562
  H            0.184297        0.804208       34.809398
  O           13.711881       30.399113        0.501925
  H           12.972751       30.950804        0.768473
  H           14.290926       30.993632        0.018297
  O           14.193051        1.229862       24.294080
  H           14.676536        0.421945       24.481798
  H           13.819097        1.086549       23.421004
  O            0.680225       33.165843       32.593764
  H            0.000003       33.758341       32.922350
  H            1.406871       33.746574       32.354221
  O           28.711951        4.304141       17.019161
  H           29.497292        4.061218       16.523225
  H           28.025723        4.389094       16.352440
  O           29.592852       20.072291       10.568445
  H           29.304217       19.474131        9.875179
  H           29.230123       19.695984       11.374338
  O           37.718797        0.291743       10.741858
  H           38.621719        0.140918       10.452533
  H           37.788695        1.008410       11.377582
  O            7.620419        2.646497        8.940920
  H            7.381076        1.960702        9.568713
  H            7.721551        2.181285        8.106658
  O           14.967592       15.411403       15.290725
  H           14.890928       14.712422       15.944386
  H           14.855549       14.963495       14.448426
  O           10.731226        8.670009        9.884529
  H           10.623660        9.552429       10.247144
  H            9.896124        8.489106        9.445757
  O           24.567244       14.176744       41.401575
  H           25.514201       14.314505       41.323996
  H           24.330019       13.696692       40.604132
  O           15.734173       20.121334       30.692594
  H           15.141902       20.871400       30.783922
  H           16.404282       20.420731       30.072951
  O            5.916461       29.514779        8.112012
  H            4.977707       29.715507        8.125199
  H            6.251697       29.992325        7.348986
  O           10.484045        4.861903       38.250959
  H           11.064508        4.123444       38.052300
  H           10.983598        5.397332       38.872573
  O           34.866270        3.765191       10.233210
  H           35.786326        3.629869       10.471770
  H           34.713436        3.148164        9.513097
  O           15.533305       35.812022       12.257439
  H           15.919279       36.656525       12.501494
  H           15.955274       35.589003       11.423864
  O           14.452850        7.698362       40.139841
  H           14.357819        7.034777       40.827117
  H           15.398939        7.741930       39.979657
  O           31.043023       18.614330       41.907539
  H           30.161008       18.246600       42.000000
  H           30.984882       19.182000       41.134874
  O            6.929818       17.661246       24.853424
  H            6.051989       17.272527       24.847110
  H            6.858663       18.420303       24.269119
  O            8.692813       41.407095       20.322217
  H            8.856391       40.596935       19.833743
  H            8.300637       41.999968       19.676197
  O           40.317642       26.528985       14.558712
  H           40.769121       25.803103       14.995732
  H           39.993138       27.075907       15.278584
  O           11.702631       22.072622       34.092928
  H           12.604733       21.814622       33.889523
  H           11.215820       21.895420       33.284067
  O           12.228767       26.188953       33.272553
  H           11.729667       26.741232       32.666242
  H           11.561995       25.797884       33.842747
  O           21.236089       22.617302       28.104847
  H           20.685718       22.994892       27.414743
  H           20.796817       21.795268       28.337102
  O           35.193791        6.646084        2.871557
  H           34.326527        7.056959        2.899150
  H           35.617542        7.035064        2.102290
  O            5.690102        4.878378        4.120756
  H            4.909566        5.011093        4.663781
  H            6.321205        4.456675        4.709413
  O           37.272969       18.054726       18.988112
  H           38.019402       17.457807       19.078942
  H           37.209711       18.489113       19.842482
  O           15.462561       38.044348       15.365488
  H           16.314360       38.411970       15.118471
  H           14.901222       38.812227       15.499286
  O           40.268954        2.889054        5.378476
  H           40.495869        3.816878        5.475309
  H           39.536556        2.758055        5.985991
  O           26.557987       39.253459       33.589100
  H           26.295040       40.169094       33.708250
  H           27.278530       39.292877       32.955139
  O           39.851081       33.650290       30.832461
  H           40.038120       32.768858       30.501071
  H           40.607058       34.174378       30.555923
  O           12.328909       17.587655        4.297478
  H           11.781877       16.923821        4.723865
  H           12.404833       17.286165        3.388642
  O           37.710818       41.129861       23.403126
  H           37.442837       41.897048       22.891916
  H           38.656481       41.244202       23.526776
  O           31.592043       13.522734       35.580793
  H           31.511057       12.590059       35.367992
  H           31.061069       13.966297       34.914490
  O           34.241096       23.207309       22.515771
  H           33.307824       23.186395       22.740027
  H           34.301647       23.853026       21.807234
  O            9.402435       41.575815       34.152374
  H           10.263530       41.999868       34.172857
  H            9.355123       41.174159       33.281125
  O            2.362468       31.233906       39.464748
  H            2.396378       31.173961       38.507156
  H            2.056762       32.128063       39.636995
  O           12.859258       18.968008       35.775304
  H           13.756109       18.778217       35.490061
  H           12.963044       19.629509       36.463989
  O            5.118918       31.407131       26.962113
  H            5.536162       32.206231       26.631852
  H            4.578313       31.706814       27.697353
  O            1.595440        3.084152       23.330358
  H            1.619982        4.023611       23.134044
  H            2.174819        2.688288       22.674422
  O            7.053888       21.352402       38.213072
  H            6.557208       21.439103       39.030089
  H            6.703343       22.044224       37.646377
  O           16.305336       26.634069       17.254863
  H           15.701796       26.637954       18.001488
  H           17.064899       27.136871       17.559653
  O            4.323828       38.513693       41.989236
  H            3.526856       37.978481       41.999626
  H            4.598596       38.514372       41.068832
  O            2.068769       40.508760       13.968285
  H            1.579241       41.326010       13.849165
  H            1.462120       39.934376       14.442312
  O           25.102061       19.475847       34.827512
  H           24.520780       20.178066       34.526303
  H           24.764856       19.243424       35.696370
  O            3.455264       33.067783       26.384626
  H            4.009465       33.754071       26.005686
  H            2.680925       33.536803       26.705659
  O           10.587249        3.891913       25.415163
  H           11.508659        3.690227       25.594193
  H           10.429570        3.529433       24.539728
  O            8.654918        9.804801       36.799382
  H            7.871449        9.288970       36.594883
  H            9.265800        9.169395       37.181119
  O           35.548989       33.921677        3.566810
  H           35.769674       34.793197        3.903670
  H           36.274309       33.703714        2.976009
  O           22.188140       37.169128       31.593355
  H           22.896554       36.556506       31.382242
  H           21.934665       36.940289       32.491144
  O            6.703448       33.550546       31.893988
  H            5.824866       33.752453       32.224219
  H            6.877871       32.660143       32.209267
  O           16.085032        7.214931       29.209671
  H           16.968023        7.120317       29.574500
  H           15.966903        6.432466       28.665212
  O           21.395076       17.152650       27.493900
  H           21.371003       16.227698       27.237758
  H           20.771668       17.580425       26.901437
  O           27.792366       29.247965       31.911079
  H           28.347573       28.994899       32.652313
  H           27.218725       28.489973       31.773147
  O           22.435363       41.841659       22.467328
  H           21.656474       41.999993       21.928824
  H           22.279060       40.981679       22.865631
  O           34.854044       10.478939       17.684734
  H           35.383870        9.753685       18.023874
  H           34.986251       10.446515       16.733885
  O           32.578793       35.670005       16.270081
  H           32.530227       35.151358       17.076538
  H           32.559084       35.017531       15.565431
  O           30.626336       33.439564       29.673393
  H           29.673443       33.518168       29.760230
  H           30.912914       33.073095       30.513759
  O           24.342788       17.264010        4.165456
  H           23.450651       17.612847        4.101188
  H           24.645014       17.213020        3.255126
  O            2.365977       11.666001        7.051175
  H            3.082844       12.195521        6.694193
  H            1.578204       12.012709        6.624737
  O           15.220159       13.890241       33.517236
  H           15.708501       13.233632       33.015129
  H           15.885894       14.528241       33.786300
  O            9.217951       24.424311       22.095691
  H            9.976484       23.886598       21.856491
  H            8.939135       24.077948       22.947123
  O            2.772804       11.603012       29.199582
  H            3.190186       10.762269       29.401243
  H            2.042906       11.373628       28.618828
  O           15.103980       37.684778       28.855644
  H           14.334755       38.259044       28.840286
  H           15.544392       37.898200       29.682161
  O           15.910087       25.671903       34.756159
  H           16.146669       24.777224       34.500613
  H           16.514844       25.883248       35.471872
  O           25.671472        3.020718       30.095921
  H           25.883424        2.084534       30.114921
  H           25.991235        3.354713       30.937848
  O           26.991129        6.777657        6.011433
  H           26.548518        6.923467        6.850814
  H           27.826165        6.367416        6.250305
  O           23.893004       17.113002       41.226663
  H           23.103571       17.147871       40.681407
  H           23.917082       17.966732       41.666217
  O           40.769155       41.458520       33.429466
  H           40.470476       41.091485       34.264811
  H           41.694911       41.207928       33.376337
  O           18.446438       26.358484       38.170400
  H           18.648031       25.512312       37.764100
  H           18.893429       27.002188       37.614986
  O            0.983891       24.464458       30.179763
  H            1.548819       23.709862       29.997647
  H            0.603089       24.688561       29.326880
  O           31.568015       14.214151       39.888502
  H           30.962283       14.248636       40.632562
  H           31.216465       14.854671       39.264973
  O           18.663447        7.953079       15.916356
  H           18.644967        8.908500       15.823860
  H           18.515513        7.801328       16.853228
  O           26.910096       12.540134       22.096057
  H           27.049635       13.393092       22.514048
  H           26.249122       12.110834       22.645107
  O            9.217902       11.615057       30.434224
  H            9.106837       10.851185       29.863356
  H            9.982720       12.071915       30.075092
  O            4.414644        3.551129        9.391891
  H            3.566643        3.930162        9.149086
  H            4.296585        3.265701       10.301415
  O           30.240159       32.555815       22.606486
  H           30.172519       31.598955       22.566885
  H           31.179146       32.724012       22.718978
  O           18.623599       23.806601       26.328596
  H           18.704194       24.535335       25.708776
  H           17.693408       23.569051       26.297668
  O           42.000000       25.019092       20.402256
  H           41.333549       25.553045       19.963550
  H           41.844677       24.128908       20.076543
  O           26.879116       39.847710       17.832732
  H           25.949670       39.924440       17.604771
  H           26.896758       39.209077       18.550004
  O           10.503084        5.379682        5.913498
  H           11.379699        4.992702        5.972813
  H           10.561217        6.183098        6.436742
  O           17.028395       39.710469       24.775214
  H           16.981649       40.669349       24.784681
  H           17.753446       39.512997       24.176927
  O           21.674790       33.383779        7.004197
  H           21.159100       34.098882        7.384220
  H           21.801981       32.769039        7.731217
  O           21.505329       24.997594        9.804031
  H           21.166839       25.788579       10.230051
  H           22.027412       25.327783        9.068472
  O            4.594009        3.194845       34.522638
  H            4.395561        3.162596       35.461415
  H            4.634346        2.273033       34.255661
  O           12.959339       21.314644        7.523251
  H           12.524028       20.470136        7.385282
  H           13.311310       21.258550        8.415221
  O           32.816676       15.948493       28.616333
  H           32.432879       15.329190       27.991122
  H           32.478991       15.665656       29.469922
  O           28.249830        3.928582        1.746522
  H           27.727852        4.435857        1.120474
  H           27.604067        3.572368        2.361944
  O           12.755508       33.940724       18.524441
  H           13.575908       34.374262       18.278040
  H           12.381999       34.506342       19.205035
  O           37.098464        5.477185       19.482625
  H           37.667033        4.762033       19.777603
  H           36.751502        5.173816       18.639876
  O            8.763794        5.824315       12.398604
  H            7.869631        5.566310       12.634465
  H            8.699801        6.764835       12.214297
  O            6.986142       15.170894       11.936859
  H            6.834068       14.499159       11.268001
  H            6.205767       15.729423       11.895595
  O           18.755812       35.907737       34.660566
  H           19.501973       35.475951       34.238038
  H           18.401994       36.489462       33.983033
  O            0.971235       37.927454       36.030040
  H            1.002254       36.968847       36.072885
  H            0.883875       38.204344       36.945650
  O            8.237071       41.249338       10.508793
  H            7.692832       40.699658       11.077459
  H            7.611251       41.830157       10.068746
  O           28.975781       16.317231       37.377178
  H           29.730972       16.846235       37.644698
  H           28.440765       16.915279       36.849220
  O           28.195607       37.511641       23.847330
  H           28.475217       36.641324       24.140744
  H           27.721351       37.346260       23.028568
  O            2.490842       37.322660       29.015469
  H            3.146421       37.046270       28.370837
  H            1.661028       36.980644       28.673306
  O           24.897156       10.852666       39.736877
  H           25.472772       10.224227       39.294774
  H           24.378633       11.240927       39.027631
  O           28.826602       19.861030        0.673036
  H           29.139576       20.001923        1.569652
  H           28.166804       19.168016        0.756942
  O            0.856149       21.453900       33.482324
  H            1.706593       21.516184       33.923448
  H            0.895316       22.122232       32.793527
  O           20.995733       22.149334       24.937229
  H           20.267268       22.673030       25.279000
  H           21.768412       22.486692       25.397445
  O           27.024121       10.110631        8.377895
  H           26.513355        9.444578        7.911830
  H           26.952822        9.861733        9.302886
  O            9.996637        8.334065        0.387865
  H            9.111275        8.492521        0.723650
  H           10.576368        8.660859        1.080511
  O           38.643177       31.176592       28.341585
  H           38.726102       31.348431       29.282500
  H           39.184265       30.396986       28.192993
  O           24.165600       36.360776       10.810157
  H           23.950899       37.023848       10.149882
  H           24.912995       35.886351       10.437379
  O           27.741327       37.526027       35.017174
  H           27.017036       37.276622       34.438448
  H           28.402039       37.896140       34.426313
  O           13.778238       27.752660       13.757223
  H           12.905477       27.362049       13.843450
  H           13.941902       28.161453       14.610888
  O           26.939424       33.034704       15.561074
  H           27.673675       33.257022       14.983861
  H           26.413139       33.837418       15.597355
  O           36.384278       14.662759       39.215539
  H           36.363580       13.734432       39.459478
  H           35.459330       14.908107       39.132363
  O           27.219195       12.517349       36.007812
  H           27.913983       12.034443       36.461460
  H           27.246807       13.395601       36.395824
  O           31.676244        7.995843       36.949387
  H           32.569473        8.088198       36.609772
  H           31.763800        7.388778       37.688608
  O           28.457921        2.239089       13.555289
  H           28.951337        1.441117       13.351553
  H           28.609468        2.380183       14.493248
  O           18.334389        2.504518        5.822100
  H           18.636716        1.642340        6.117011
  H           17.782003        2.822174        6.540853
  O           13.371951       13.045622       11.430301
  H           13.371286       12.357007       12.099281
  H           12.442546       13.245746       11.293199
  O           14.783320        1.221237       13.146178
  H           15.195924        1.161421       14.010992
  H           13.876441        1.477602       13.331891
  O            6.880378       27.084510       14.781463
  H            7.690451       27.154042       14.270902
  H            6.186834       27.325865       14.162281
  O           22.471125       38.941105       23.664918
  H           21.572840       38.950980       24.003609
  H           22.532157       38.117183       23.174950
  O           22.756084       22.901665       35.708073
  H           22.085719       22.371597       35.270623
  H           23.291403       22.262662       36.185305
  O            1.280893        9.697450       24.072080
  H            0.782282        9.138168       24.672342
  H            1.936191        9.109793       23.687521
  O           36.708497       32.147281       28.772671
  H           36.532846       31.273282       29.129039
  H           36.235275       32.163533       27.936944
  O            8.610334       28.371096        3.064905
  H            9.384649       28.938059        3.038184
  H            8.604312       28.017667        3.958042
  O           11.918966       29.494159        6.704428
  H           11.274465       29.949426        7.251306
  H           11.419681       28.789357        6.284178
  O            5.857754       23.539324       21.860317
  H            5.394493       23.937930       22.600741
  H            5.628753       24.093198       21.109701
  O           38.227229       25.560821       38.036482
  H           37.473875       25.870515       38.544688
  H           37.858055       25.327564       37.180945
  O           40.187720       16.505939       39.995171
  H           40.061246       15.837205       40.672314
  H           39.847656       16.100725       39.193423
  O           28.088749        7.033098       31.222301
  H           27.670277        7.834924       31.544297
  H           28.824809        7.345494       30.690073
  O            3.606172       21.558534        3.790179
  H            4.187440       21.789169        3.061714
  H            3.924063       22.088171        4.525755
  O            4.045808       19.073793        5.062567
  H            4.692663       18.364757        5.086450
  H            4.090416       19.407026        4.162785
  O           30.150236       16.426735        5.681417
  H           30.769919       17.132880        5.483738
  H           29.597727       16.783417        6.381528
  O           23.396993       19.123565       22.620194
  H           22.711295       19.473209       23.194034
  H           23.183593       19.475062       21.752120
  O           26.112975        2.496811       11.241495
  H           26.372790        2.091676       12.072209
  H           26.575591        1.986208       10.572232
  O           24.778688       30.004965        2.539708
  H           25.649518       29.976253        2.136526
  H           24.538645       29.082039        2.654723
  O           10.797115        2.914733       32.950235
  H           11.406464        3.601983       33.229711
  H           11.251943        2.471411       32.229653
  O           33.036468       31.479172       26.017677
  H           33.851249       31.032237       26.258728
  H           32.659233       30.930318       25.325510
  O           21.149017       11.297849        3.910777
  H           20.225098       11.369015        3.659708
  H           21.155336       10.643266        4.613716
  O           21.856896       16.735598        6.003928
  H           22.730321       16.443186        6.274760
  H           21.720704       17.556315        6.484049
  O           41.811194        1.050874        4.518279
  H           40.857677        0.998741        4.419225
  H           41.999988        0.515924        5.293409
  O           21.212318        1.970653       11.937886
  H           21.057089        2.820555       12.356571
  H           20.960379        1.326813       12.604698
  O           12.180814       34.311438       16.435629
  H           11.691629       34.915234       15.871844
  H           12.422106       33.585460       15.854788
  O            9.210184        3.068320       34.965229
  H            9.792527        3.788746       34.713063
  H            9.508413        2.816736       35.842958
  O           36.624353       41.062007       19.398559
  H           37.082357       41.735235       18.889913
  H           35.706043       41.343668       19.394512
  O           37.963406       13.877057       14.930758
  H           38.515527       13.116026       15.124973
  H           38.529332       14.633140       15.105994
  O            4.242148        0.690588       39.453692
  H            5.064307        0.208896       39.570964
  H            4.309292        1.429058       40.064262
  O           27.030624       17.581592       19.363654
  H           26.912632       16.631314       19.294553
  H           27.253965       17.727650       20.286382
  O           30.840542       23.967442       21.882993
  H           30.600329       23.041453       21.801963
  H           31.465211       24.115131       21.168417
  O           16.288436       41.417985       34.708927
  H           16.615592       40.810355       35.376370
  H           16.693956       41.115966       33.892239
  O           20.334049       14.483760       12.966730
  H           21.166049       14.889539       12.712084
  H           20.006878       15.037949       13.679805
  O            8.138281       20.408300       24.818020
  H            7.381679       20.614247       24.264066
  H            8.829421       20.165121       24.196867
  O           35.791868       28.480899       41.440103
  H           35.648338       29.350162       41.821555
  H           35.253854       27.893277       41.976652
  O           24.873834       35.095153       34.371109
  H           24.031372       34.728882       34.092132
  H           25.191142       34.481773       35.038733
  O           22.301169       27.879685       15.603172
  H           21.813444       28.659232       15.327208
  H           22.274093       27.908847       16.562890
  O           20.439458       34.276803        2.428765
  H           20.302120       35.216409        2.570201
  H           19.567316       33.889311        2.537670
  O            4.492276       32.112607       38.995970
  H            4.263840       32.920640       38.530541
  H            5.451973       32.084174       38.967404
  O           39.007367       20.926345       40.127854
  H           39.916753       20.777965       39.858178
  H           39.049806       21.701778       40.693137
  O           37.390621       13.429285       37.098658
  H           37.711466       12.655402       37.567580
  H           36.644288       13.106018       36.587651
  O            4.784118       30.880818       40.850994
  H            5.593927       31.344357       41.076971
  H            5.043062       30.275636       40.151462
  O           33.994743       12.529708        6.014068
  H           34.347015       12.600837        6.904332
  H           34.624003       13.009543        5.469611
  O           28.557242       19.990853       40.493451
  H           29.226870       20.641432       40.269684
  H           27.799898       20.513369       40.769221
  O           23.609905        5.860979       29.719634
  H           22.669504        6.013728       29.601145
  H           24.030811        6.545768       29.193760
  O           29.510585        7.960317       32.743476
  H           29.798467        8.874656       32.690259
  H           29.445375        7.785333       33.685692
  O           16.872650       38.249145        0.629380
  H           16.370817       38.178359        1.444781
  H           16.252913       38.626569        0.000000
  O           39.938362        1.020049       26.419156
  H           39.861222        0.150014       26.020641
  H           40.377864        1.550721       25.749928
  O           23.716374       35.225956       15.415263
  H           24.381084       35.354280       14.734515
  H           23.325547       34.373074       15.209135
  O            2.086987       35.428850        3.055684
  H            1.574977       35.021071        3.758028
  H            2.961286       35.546783        3.435600
  O           12.127182       17.017082       38.847605
  H           11.502698       17.550778       39.344510
  H           12.797665       17.641422       38.558996
  O           14.645418       33.528907       11.264204
  H           14.132676       32.718031       11.300277
  H           14.171578       34.136351       11.837903
  O            4.328468       26.572728       37.359794
  H            5.058281       26.544485       37.982931
  H            4.503643       25.847824       36.754426
  O           29.509746        3.212465       41.233239
  H           29.403765        4.126977       41.505564
  H           29.231780        2.702187       41.998086
  O            2.279057       31.124777       26.566780
  H            2.919353       30.472181       26.859806
  H            1.895649       30.742998       25.773126
  O           17.080492        7.729291       32.756089
  H           16.955766        7.123615       33.490476
  H           18.015162        7.948925       32.784269
  O           22.986953        9.024395       38.878125
  H           22.034776        8.934760       38.962079
  H           23.338887        8.547806       39.634199
  O            1.359521       30.420114       36.526274
  H            1.209242       31.363909       36.434660
  H            1.994775       30.211775       35.836571
  O           39.445579       36.650686        8.890094
  H           38.634246       36.999945        9.266235
  H           39.217455       36.445657        7.979839
  O           36.704615       27.865331       18.548516
  H           37.644152       27.718307       18.416686
  H           36.651467       28.330731       19.387098
  O           18.419798        2.478346       27.948027
  H           17.572513        2.028021       27.915754
  H           18.340510        3.182334       27.299370
  O            0.311350        7.084612       37.704790
  H            0.483919        6.194228       37.389890
  H            0.780322        7.136697       38.541446
  O           12.169861       41.305421       24.892278
  H           12.984749       40.863068       24.643265
  H           12.428861       41.902206       25.598966
  O           37.476388       39.881354       21.553153
  H           38.157851       40.485957       21.250186
  H           36.663203       40.389014       21.492707
  O           18.041125       20.207361       16.592405
  H           18.242043       21.112649       16.841021
  H           18.636392       20.023142       15.861404
  O           35.796167        6.887935       31.556601
  H           35.491647        6.066508       31.163854
  H           36.311988        6.611246       32.318187
  O           23.629663       27.359185       26.624933
  H           23.402929       26.890085       27.431322
  H           24.590091       27.372775       26.619015
  O           12.399065       16.658116       13.481685
  H           12.244170       15.728204       13.663335
  H           13.082875       16.912425       14.106483
  O            5.815718       27.438048        9.693782
  H            6.480221       28.130168        9.727403
  H            5.961466       26.928466       10.494860
  O           40.602387       38.779701       34.769659
  H           41.179529       38.200001       34.267085
  H           41.128397       39.038629       35.530522
  O           11.787075       20.178917        2.609614
  H           11.903535       21.105182        2.833656
  H           11.859197       19.719437        3.450041
  O           31.408032       36.043097        7.836193
  H           30.587748       35.625348        7.563530
  H           31.642203       35.597343        8.654183
  O           33.359560        0.288721       40.930286
  H           33.774735        1.154289       40.942400
  H           33.436774        0.000000       40.017422
  O           13.697065       29.176462       30.024535
  H           13.823051       29.484100       29.123862
  H           14.445985       29.536422       30.506396
  O            7.882681       25.352952        2.462107
  H            7.954563       25.525106        1.520342
  H            7.952707       26.220210        2.869050
  O           20.469079       38.347119       12.305384
  H           20.052385       39.152457       12.620856
  H           21.410516       38.513666       12.398124
  O           15.435786       28.288064       40.431248
  H           15.096508       28.273639       39.533246
  H           14.650856       28.346803       40.981771
  O           28.453813        5.447118       10.871866
  H           29.186324        6.057062       10.757321
  H           28.026420        5.737184       11.681705
  O           13.930766       34.299885       31.882919
  H           13.626477       35.207834       31.813918
  H           13.912491       33.973016       30.979888
  O           42.000000       24.251315       25.391327
  H           41.702085       23.917108       26.240607
  H           41.829365       23.531473       24.778667
  O           16.927860       15.805390       32.324952
  H           17.303622       14.938454       32.154806
  H           17.538360       16.212382       32.944863
  O           41.161878        3.911238       21.529448
  H           40.909204        3.658666       22.420565
  H           41.968121        3.417001       21.361094
  O            0.765378       16.456211       20.646170
  H            0.000138       16.144920       21.135281
  H            0.398947       16.819064       19.835795
  O           21.838141       35.418507       21.527540
  H           21.663466       34.491526       21.706200
  H           22.728943       35.561153       21.857336
  O           16.614170       33.681981       10.294227
  H           16.945978       33.027006       10.912804
  H           17.298024       33.743528        9.622515
  O           25.840768       10.809497       35.842401
  H           25.433852        9.945286       35.746045
  H           25.200672       11.319730       36.344974
  O            8.532023       16.272974       37.445473
  H            8.013909       16.147206       38.243887
  H            7.944132       16.747056       36.851948
  O            7.843376       23.068599       28.142428
  H            7.885197       22.190358       28.528005
  H            7.329185       22.952241       27.339489
  O           28.277985       15.975615       39.541506
  H           29.184314       15.660224       39.512859
  H           27.753160       15.181525       39.670430
  O            6.678981        3.582688        1.808622
  H            6.122486        3.080106        2.408164
  H            6.166396        4.370797        1.611688
  O            5.767095       23.647872       18.508121
  H            5.331499       24.456876       18.786497
  H            6.074449       23.836736       17.617892
  O           14.720520       34.433408       20.505366
  H           14.139138       33.669906       20.477326
  H           14.140534       35.180947       20.339707
  O           16.414493       12.193150       29.922779
  H           17.115325       12.326312       30.565296
  H           15.604555       12.285150       30.430892
  O           29.089671       11.863081       27.648462
  H           28.771170       11.377573       28.413030
  H           28.429049       12.545982       27.507515
  O           22.568749       27.952264        3.349972
  H           22.339693       28.258821        2.469472
  H           22.374395       28.699930        3.920817
  O           16.420371        5.554700       38.677188
  H           16.807454        6.406077       38.894095
  H           16.079542        5.227701       39.513579
  O           32.478604       22.018760        6.253131
  H           31.590633       22.380096        6.201469
  H           32.897562       22.515920        6.960202
  O           15.032244       38.215220        3.395009
  H           15.965877       38.144375        3.607224
  H           14.593993       37.689405        4.068877
  O           16.225530       25.528639       28.549414
  H           16.221616       24.706979       28.052840
  H           17.024398       25.482318       29.080738
  O           26.657473       15.234190       28.763867
  H           27.438931       15.697758       28.453783
  H           26.511525       15.578295       29.648702
  O           24.255861       13.082494       37.277798
  H           24.774169       13.830249       36.971294
  H           23.797498       13.412542       38.054724
  O           41.388696       15.222822        8.968609
  H           41.452302       14.362031        9.388988
  H           41.007791       15.790238        9.643584
  O           29.379934        0.773693        2.219440
  H           28.869940        0.434830        1.479979
  H           30.284768        0.519196        2.021577
  O           19.836917       35.223729       12.786161
  H           20.513836       35.853476       13.044860
  H           20.244351       34.710912       12.083552
  O            0.944035       34.081898        8.079421
  H            1.103301       34.224190        9.015430
  H            0.000691       34.228333        7.973115
  O            8.239656       32.194391       27.367927
  H            8.894587       31.584791       27.716033
  H            7.408820       31.891333       27.742773
  O           14.055741        8.514978        4.706789
  H           14.973666        8.233674        4.704316
  H           14.030735        9.241607        5.334505
  O            3.933513       21.926486       33.281874
  H            3.979082       21.266276       33.977410
  H            4.550530       22.608286       33.559508
  O           15.243570       16.712358       34.227686
  H           15.432401       16.958495       35.136248
  H           14.297851       16.544557       34.217752
  O           24.955630       15.964871       21.574830
  H           25.553590       15.640695       22.252383
  H           25.065283       15.349276       20.845679
  O            9.489659       10.730872       34.986680
  H           10.280100       10.227147       35.194501
  H            9.678412       11.615185       35.310723
  O           34.146642       29.956186       17.629747
  H           34.374500       30.734979       17.116632
  H           34.639310       30.057291       18.448098
  O            9.609772       31.074706       22.376848
  H            9.710401       31.741709       21.693689
  H            9.757936       30.242293       21.921021
  O            6.728806       12.323166       18.152054
  H            6.764973       12.607782       17.235860
  H            7.612929       12.489730       18.488545
  O           32.026961       34.163119        6.722789
  H           31.227425       33.732760        6.410926
  H           32.431840       33.518394        7.308488
  O           19.357885       35.259273       10.111438
  H           20.112241       35.825703        9.933032
  H           18.867011       35.248850        9.285862
  O           35.193613       12.809469       34.925616
  H           34.500588       12.735323       34.265355
  H           35.176002       11.966344       35.385477
  O           18.209499       20.552032       34.228429
  H           18.116364       19.597136       34.263430
  H           17.592015       20.826964       33.545958
  O           33.868004       21.021248       23.721505
  H           34.650771       21.508380       23.989281
  H           34.085128       20.103163       23.902113
  O           16.704863       11.417124       21.823235
  H           15.907923       11.846585       22.142883
  H           16.666144       11.522305       20.869254
  O            2.784481       17.483939       12.260618
  H            2.109962       17.686989       12.912937
  H            2.596210       16.579831       11.996449
  O           23.421297       33.166070        2.957806
  H           23.564904       32.708723        2.125979
  H           22.882786       32.560199        3.473139
  O           14.081291       24.109966       29.733700
  H           13.291976       24.542885       29.400102
  H           14.465736       24.748797       30.339290
  O            4.485003       41.692726       17.170830
  H            4.286707       41.730242       18.109444
  H            5.392962       41.999506       17.106508
  O           36.982654       15.544737       32.045731
  H           37.656891       16.027049       31.561475
  H           36.756344       16.122596       32.778878
  O           32.500897       35.533994       31.734516
  H           32.564439       36.033552       32.551908
  H           33.398722       35.236973       31.566200
  O            2.845994       19.053681       27.999863
  H            1.916644       19.194770       27.804603
  H            3.083522       19.787721       28.572059
  O           20.074894       17.097408       41.176667
  H           19.862487       17.969580       41.517145
  H           19.262737       16.595665       41.282956
  O           22.325858       31.860501       22.978684
  H           23.182312       31.659301       22.594328
  H           21.875591       32.373126       22.302579
  O           14.064465       29.293385       16.816123
  H           14.278210       28.402711       17.103765
  H           14.849975       29.805858       17.023457
  O           13.377250        0.589740        8.522868
  H           14.025523        0.108897        8.003006
  H           12.599242        0.624756        7.960624
  O           32.678120       39.223909       17.539295
  H           33.636656       39.268530       17.508587
  H           32.444894       38.617226       16.832058
  O            4.275346       15.435072       38.318378
  H            4.366458       14.480329       38.274923
  H            4.471798       15.651939       39.233264
  O           20.846617       13.986288        6.654585
  H           21.644569       14.341691        6.256232
  H           20.257272       13.832828        5.911777
  O           28.798558       12.184985       20.814975
  H           28.726196       11.230389       20.742626
  H           28.125595       12.521067       20.217637
  O            4.343520        0.176988       36.783669
  H            4.088283        0.550936       35.937063
  H            4.768046        0.903476       37.246957
  O           29.425993       30.145008       18.131476
  H           29.736945       29.255302       18.314386
  H           28.945761       30.064240       17.303529
  O           37.793497        6.420454        3.630078
  H           37.169557        7.102959        3.888170
  H           38.307127        6.821477        2.924383
  O            0.468367        3.546868       36.158512
  H            0.001540        4.146104       36.745636
  H            0.009371        3.629994       35.318837
  O           34.594159       18.714215       11.026194
  H           34.460635       17.810914       10.729639
  H           33.819297       18.906866       11.560157
  O           27.396301       38.157515       16.471743
  H           26.667602       38.398793       15.895108
  H           28.181916       38.423039       15.987029
  O           22.172649       18.916088       13.021022
  H           21.430047       18.320083       12.898363
  H           22.800200       18.658185       12.341091
  O           14.383217       35.426221       27.636093
  H           15.329757       35.461297       27.792801
  H           14.279804       34.763770       26.948265
  O            1.157435       17.700448       36.551515
  H            0.223899       17.688804       36.327685
  H            1.482181       16.843285       36.264369
  O           27.338791        2.942015        4.636359
  H           27.055522        2.041743        4.460304
  H           27.992044        2.854102        5.335053
  O            9.789245       12.817663        0.040833
  H           10.390622       13.564927        0.000000
  H            9.242107       12.993709        0.810436
  O           38.509362       15.207153        8.280145
  H           38.235920       16.088108        8.546365
  H           37.728996       14.663917        8.416397
  O            4.819662       40.715790       14.476861
  H            4.751623       41.521652       14.994241
  H            5.225939       40.995258       13.652556
  O           22.332672       25.873327       38.344781
  H           22.960488       26.141236       39.019908
  H           21.897101       26.689649       38.086830
  O           18.532454        3.818442       40.470392
  H           17.670715        3.449665       40.262701
  H           19.141173        3.085505       40.348296
  O           11.725729       17.476249        7.102031
  H           11.868582       18.005009        7.890530
  H           11.201406       18.040614        6.528255
  O           19.952957       11.248780        6.353727
  H           19.244713       11.685550        5.874824
  H           19.511085       10.810173        7.085174
  O           15.554681       13.604014       20.703684
  H           15.795708       14.497656       20.958702
  H           14.734197       13.435034       21.173678
  O           32.696057        4.179393       34.058200
  H           33.240345        3.444844       33.765091
  H           33.261130        4.669169       34.661071
  O           22.801297       39.396943       39.994515
  H           23.300200       40.193564       39.799027
  H           22.257959       39.635245       40.749921
  O           23.406765       16.352899       12.403007
  H           22.602496       16.454202       11.888601
  H           23.190739       15.679658       13.053177
  O            5.892683        5.748576       20.201338
  H            4.980366        5.642880       20.481037
  H            5.829807        6.129192       19.321668
  O           26.266575       36.462676        2.213487
  H           25.821390       35.614807        2.145262
  H           25.952520       36.958729        1.453261
  O           31.780386       38.165608       11.877688
  H           32.498553       38.012757       12.496233
  H           32.203522       38.161759       11.015376
  O           34.161732        9.551843       34.006259
  H           34.703747        8.836059       33.666263
  H           34.679532        9.922047       34.725616
  O           23.605804       32.173665       14.895716
  H           23.694755       31.401161       14.332642
  H           23.207940       31.836284       15.702264
  O            3.378937        1.735508       18.182195
  H            3.506124        1.948526       17.254740
  H            3.582813        2.552375       18.644586
  O           12.009489       21.664232       21.456832
  H           11.712971       22.544178       21.700751
  H           12.164773       21.223754       22.296181
  O            0.089847       13.532076        4.297017
  H            0.856816       13.006273        4.535798
  H            0.399892       14.095754        3.583728
  O           41.002161       26.153532       28.965091
  H           40.055465       26.096680       28.815891
  H           41.345971       26.557005       28.164062
  O           36.784539       20.690271        6.316534
  H           36.845233       21.639913        6.443895
  H           36.697786       20.335613        7.204978
  O           31.584746       10.193531        7.971454
  H           30.870669        9.699127        8.380580
  H           31.233439       10.456994        7.117163
  O           27.059704       27.868386       25.133898
  H           26.895420       28.337333       25.955375
  H           27.495048       28.515312       24.573002
  O           12.857643        9.458290       10.967938
  H           13.742866        9.186023       10.715002
  H           12.996454       10.093705       11.674777
  O           37.019035       21.270187       14.102235
  H           37.637909       20.547328       13.974978
  H           36.561627       21.051618       14.918107
  O           35.200371       23.867890        8.757775
  H           34.691621       24.668115        8.907903
  H           34.537892       23.189196        8.605663
  O            2.909605       24.464433       38.004665
  H            3.424470       25.003856       38.609366
  H            3.301106       23.589951       38.072858
  O           20.368489        0.161864       24.468347
  H           19.457101        0.000000       24.723095
  H           20.306871        0.530229       23.583388
  O            0.839475       31.262420       30.825090
  H            0.745636       31.008220       31.746123
  H            1.404272       32.039016       30.848435
  O           14.774589       17.484934       40.665616
  H           13.956929       17.934659       40.439996
  H           14.527356       16.559031       40.730595
  O           41.898538       13.939686       41.257664
  H           42.000000       14.820095       40.888461
  H           41.300927       14.059856       42.000000
  O           38.365980       39.500614        4.519527
  H           38.892825       39.345060        5.306904
  H           38.755151       38.926525        3.854988
  O            1.976384       28.393662       16.406243
  H            1.947595       29.149235       16.997855
  H            2.191797       27.651863       16.977184
  O           30.261215        0.265336       11.607835
  H           31.031033        0.540273       12.111338
  H           29.839848        1.088477       11.347967
  O           13.464447       17.259388        9.222516
  H           12.958514       16.528848        9.585928
  H           14.216304       16.840083        8.796445
  O           23.948373       15.006525       17.967670
  H           24.678817       15.005134       17.344634
  H           23.352668       15.682706       17.635168
  O           37.627368        2.097480       27.922509
  H           37.739696        2.517864       28.778303
  H           36.852701        2.523795       27.547292
  O           18.698872        5.264443       19.427027
  H           18.958716        4.457056       19.876840
  H           18.309001        5.806982       20.117168
  O           23.599505       19.797469       37.481889
  H           23.754001       20.181426       38.348164
  H           22.867410       19.190538       37.617217
  O            1.229745       25.792222        0.873167
  H            0.303713       25.612542        0.694545
  H            1.412173       25.316512        1.687454
  O           18.427506       36.607981        1.992759
  H           17.639458       36.377647        1.495113
  H           18.877802       37.252739        1.441250
  O           15.819703       21.327389       40.319452
  H           15.518052       20.437566       40.516798
  H           16.464398       21.518230       41.005447
  O           25.687800       21.677666        6.888058
  H           25.974084       21.907873        6.001057
  H           24.937773       21.093129        6.752348
  O           25.377574       38.183024       41.138411
  H           25.650072       37.308038       40.852283
  H           24.728515       38.456130       40.485129
  O           28.967090       19.791944        5.199111
  H           28.755483       19.208571        4.466566
  H           29.853601       19.532230        5.462341
  O           35.729196       26.467282       35.277294
  H           35.950485       26.923582       34.462096
  H           36.563329       26.097560       35.577576
  O           15.266685       37.333670       39.783862
  H           15.009865       36.428212       39.973371
  H           15.764655       37.273783       38.964666
  O            2.589433        5.488017       39.601650
  H            1.660484        5.581748       39.825240
  H            2.648781        5.798059       38.694460
  O           16.595713       18.717845       24.134896
  H           17.488313       18.554226       24.448296
  H           16.256211       19.395337       24.725138
  O           27.892203       33.120473       40.377884
  H           27.336462       33.026258       41.155058
  H           27.737118       32.316900       39.875031
  O           22.820032       13.591571       27.443105
  H           22.021180       13.093002       27.630158
  H           22.588324       14.138852       26.688494
  O           30.029449        9.496911       27.375016
  H           30.246192        9.751139       28.275081
  H           29.945852        8.540687       27.410913
  O           37.742483       40.386181        8.576673
  H           38.609606       40.518195        8.967050
  H           37.345341       41.260779        8.576683
  O           27.078091       11.087671       15.132154
  H           27.574544       11.214864       15.943993
  H           27.744117       10.859796       14.478607
  O            7.961519       14.273951       29.410610
  H            7.099516       14.238382       28.989407
  H            8.314142       15.131560       29.160001
  O           23.966586       19.013813        7.429707
  H           23.597750       18.128779        7.478707
  H           23.457024       19.446632        6.740029
  O           37.434249       18.584049        5.589995
  H           37.672263       18.153686        4.765457
  H           38.214447       19.091231        5.828109
  O           34.348512       34.644802       34.135465
  H           35.048637       34.709831       34.789164
  H           33.843541       35.454445       34.245582
  O           11.375445       28.898896        2.092074
  H           11.733805       29.684254        2.512212
  H           11.647613       28.974375        1.173994
  O            2.112647        7.010889       23.046343
  H            1.948469        6.483078       23.831319
  H            1.577701        6.596810       22.364424
  O           38.150575       23.408024       13.135518
  H           38.435194       23.004068       12.312391
  H           38.915865       23.339355       13.711935
  O           39.823610       25.034501       26.574646
  H           39.898215       25.466823       25.720680
  H           39.263123       24.272459       26.407949
  O            1.624837       33.305260       14.317976
  H            2.554737       33.400490       14.099022
  H            1.461693       33.992130       14.969310
  O           33.118717       18.858169       18.204836
  H           32.347841       19.428237       18.254829
  H           32.839658       18.128248       17.646282
  O           26.418784       11.120474       28.897255
  H           26.728987       12.020424       29.022112
  H           26.761861       10.642521       29.656531
  O           10.292433       30.250877        9.214701
  H           10.915839       30.980901        9.202276
  H            9.431964       30.673176        9.277146
  O           40.193221       30.747414       15.880611
  H           39.736838       29.927191       16.082285
  H           39.515578       31.423382       15.961293
  O           26.279463       24.258705       30.752941
  H           26.779965       23.439947       30.723661
  H           26.944747       24.940577       30.875784
  O           38.283940       30.745387       23.499128
  H           37.521168       31.195189       23.128207
  H           37.999939       30.478947       24.377191
  O           16.090815       11.070728       33.146917
  H           16.465854       10.256075       32.804264
  H           16.552808       11.215458       33.976530
  O           41.725787        9.562810       14.544873
  H           42.000000        8.659958       14.367699
  H           41.966265        9.709170       15.463236
  O           26.876347       40.573670       14.256422
  H           27.565966       40.155526       14.777293
  H           26.889099       40.100785       13.420444
  O            6.427252       17.741496       18.778153
  H            6.731936       17.131820       19.454309
  H            7.163045       17.803325       18.163801
  O           11.881606       38.270798       30.504417
  H           11.445299       38.327996       29.651135
  H           12.766295       38.608279       30.342942
  O           25.848510       26.788569        4.943972
  H           26.092688       27.673913        4.664206
  H           25.743925       26.859745        5.896147
  O           34.520639       20.168716        8.750218
  H           35.043228       20.955963        8.580311
  H           33.746250       20.492757        9.217081
  O           31.280559       16.468931        1.713016
  H           32.133789       16.132434        1.996727
  H           31.115032       16.024999        0.877452
  O           26.112724       25.425770       10.415369
  H           26.316233       26.333259       10.653640
  H           26.709435       25.230583        9.688403
  O            2.188018       12.953384       24.063245
  H            2.987478       12.984940       23.532592
  H            2.413640       12.380450       24.800459
  O           19.005578        9.586568       11.891067
  H           18.974589        8.797837       12.437573
  H           18.095100        9.891045       11.860010
  O            7.514931       10.608219       27.934604
  H            7.281322       11.466813       28.295115
  H            6.839987       10.015268       28.274462
  O           31.837896       26.146238       14.925579
  H           30.934115       26.272461       15.223862
  H           32.371641       26.597665       15.584344
  O           41.331182       25.581781        8.785275
  H           40.961728       26.443193        8.577434
  H           40.677606       25.174199        9.359171
  O           12.368984       35.324387       10.499932
  H           11.637312       35.928483       10.353473
  H           12.039554       34.705684       11.156684
  O           25.546266       16.716606        9.202675
  H           24.630690       16.869249        8.957430
  H           26.012991       16.669725        8.364456
  O           14.286754       15.022359       23.624459
  H           14.943971       15.683601       23.395220
  H           13.789714       15.419648       24.344011
  O           29.906174       12.659521       14.528985
  H           29.077344       13.127720       14.653711
  H           29.756383       11.798986       14.928590
  O           30.931475       25.771175        4.405160
  H           30.906990       24.868421        4.730982
  H           31.856757       25.924929        4.198142
  O            6.511178        5.267161       41.079642
  H            5.959548        5.747505       41.701492
  H            6.534769        4.371034       41.424667
  O            7.567675       12.004699        8.388284
  H            7.024863       12.420933        9.061952
  H            7.489259       11.064092        8.566471
  O            6.686338       20.067685       11.773049
  H            6.252469       20.910498       11.620900
  H            6.027806       19.539888       12.231750
  O           18.526199       16.214984       24.648719
  H           19.099240       16.966328       24.818512
  H           19.000692       15.696362       23.994097
  O           15.982384       27.922253       36.824814
  H           15.068555       27.807534       37.095886
  H           16.481676       27.876305       37.644105
  O           29.802963       11.544668       30.706219
  H           29.754340       10.639095       30.391101
  H           28.925564       11.900714       30.544836
  O            4.759476       14.263293       26.152571
  H            4.954660       14.538461       25.253732
  H            4.281062       13.436672       26.050294
  O            0.223017       15.921185        5.188900
  H            0.000000       16.586438        5.844206
  H            0.694625       16.406609        4.507291
  O           27.631964       39.895628       24.612038
  H           28.059591       40.548648       24.053089
  H           27.073067       39.396614       24.010988
  O           21.657165       16.680351       36.847442
  H           21.741569       15.724027       36.840695
  H           22.497295       16.996276       36.505367
  O           17.443860       27.239061        2.341319
  H           17.201830       28.103698        2.681245
  H           18.366285       27.135400        2.588357
  O           22.673217        5.832561        1.656602
  H           22.648636        5.148245        2.329530
  H           22.276729        5.421731        0.884167
  O           17.067929        6.123081       41.922790
  H           16.389921        6.757781       41.679509
  H           17.599362        6.025705       41.128599
  O            7.622947        1.427108        1.629812
  H            8.225060        0.795924        2.030800
  H            7.232925        0.949733        0.893173
  O           22.742712        3.486623       39.019721
  H           23.542365        3.104126       38.650972
  H           22.989457        4.388368       39.240209
  O            8.573813       41.562602       13.519657
  H            7.760516       41.124594       13.258080
  H            8.916583       41.021355       14.235340
  O           34.860664        7.484414        9.781050
  H           34.579057        8.036888       10.513986
  H           35.807368        7.383610        9.908457
  O            0.375060       28.853750       29.280914
  H            0.889943       29.222582       30.002429
  H            0.000001       28.047247       29.643577
  O           16.127718       39.684800       10.182417
  H           16.400415       40.604605       10.218762
  H           16.290930       39.423495        9.272624
  O            8.808984       14.614359       40.703948
  H            8.677664       15.512301       41.017284
  H            9.343815       14.713890       39.912310
  O            5.544588       30.387786       30.655296
  H            5.609515       31.145263       31.241588
  H            6.377076       29.923254       30.772836
  O           19.112779       23.483142       28.978431
  H           18.726314       24.217150       28.495108
  H           19.914079       23.846776       29.363568
  O           39.518045       17.242652       14.218126
  H           38.680141       17.286389       14.684740
  H           39.643424       18.128918       13.869624
  O           38.109538        8.264883       31.460609
  H           37.606626        8.936289       31.927534
  H           38.404647        7.665213       32.150499
  O           16.651587       33.186436       24.435395
  H           17.208036       32.685642       25.036473
  H           15.778389       32.800522       24.541400
  O           12.678131       32.655121       28.239136
  H           13.009061       33.464129       28.636271
  H           13.422051       32.315067       27.735560
  O            4.614364       29.559748       28.175196
  H            5.456705       29.865088       28.520091
  H            4.732076       28.613190       28.061999
  O           24.267080       15.443390       28.449814
  H           23.878666       14.997427       29.206106
  H           23.512756       15.730541       27.929063
  O           37.753265       31.582743       40.969187
  H           38.086111       30.726474       40.690362
  H           37.014921       31.374809       41.547333
  O           17.361451        1.606006       25.392657
  H           17.641656        1.231141       24.554393
  H           16.458913        1.296195       25.502587
  O           34.116916        6.982217       13.877028
  H           33.965549        7.915845       13.712250
  H           33.377226        6.541895       13.450863
  O           25.873826        8.938192       21.536578
  H           26.150922        8.131252       21.976794
  H           25.456789        8.636279       20.725670
  O           15.083543        8.042429       16.748174
  H           14.433223        8.693711       16.474970
  H           15.848506        8.562972       17.006068
  O            0.988440       29.183059        7.522249
  H            0.256718       29.629268        7.089575
  H            1.705821       29.228662        6.885126
  O           40.424535        4.134261       28.513668
  H           40.055776        4.278455       29.388282
  H           40.559782        3.184506       28.465549
  O           14.374628       12.011191        3.651150
  H           14.085668       11.999502        2.735678
  H           14.759688       12.883312        3.768519
  O            6.917125       27.341090        7.043635
  H            5.978197       27.480572        7.187453
  H            7.213983       28.145216        6.610161
  O            8.819727        7.801570       19.557608
  H            9.224701        6.976126       19.281269
  H            7.986143        7.536950       19.954793
  O           23.539594        1.137050       29.325653
  H           23.719038        1.998028       29.710675
  H           22.649443        0.925824       29.618322
  O           32.986656       41.327716       19.598056
  H           33.577338       41.494225       18.859751
  H           32.686113       40.425286       19.464129
  O            5.743391       20.906584       19.004059
  H            6.673765       20.899447       18.767250
  H            5.658245       21.643748       19.613961
  O           28.678773       22.732138       12.324656
  H           28.087577       22.217541       11.770217
  H           29.158945       23.290125       11.707626
  O           38.699119       40.234132       18.515155
  H           39.191445       40.962123       18.901640
  H           39.236355       39.951587       17.770717
  O           26.052370       11.695529       19.801021
  H           25.928052       12.624067       20.010993
  H           25.188280       11.301040       19.943739
  O            0.185532       11.752963       16.247347
  H            0.000000       12.380869       15.545181
  H            0.815221       12.207018       16.813004
  O           29.380611        9.546722       24.734113
  H           29.611818       10.402138       24.364610
  H           28.675249        9.738898       25.357151
  O           15.351093        3.929674       31.554468
  H           16.154816        3.500145       31.856560
  H           15.111839        4.520364       32.273137
  O           32.333178       10.645233        9.990330
  H           31.506282       10.991168       10.334275
  H           32.938651       11.389774       10.031590
  O           21.296685       33.846177        4.886779
  H           21.934544       34.335327        4.361810
  H           20.936690       33.195323        4.278967
  O           31.800499       15.590750       22.799283
  H           32.374035       16.314025       22.535360
  H           31.161442       15.520596       22.085611
  O           17.375455       30.422136       13.845510
  H           17.029524       31.214607       14.262698
  H           18.117014       30.733460       13.320335
  O            4.499952       15.931453       14.418316
  H            4.212567       15.045860       14.652536
  H            5.295074       15.794087       13.897208
  O           15.878652       28.480540       15.604926
  H           16.662799       28.957342       15.322970
  H           16.004660       27.591495       15.263806
  O           32.563917        8.918529        2.501033
  H           31.692665        8.881567        2.902629
  H           32.527860        8.270272        1.793146
  O           14.183183       14.760333        7.695478
  H           13.626820       15.391765        7.233440
  H           13.789362       14.689795        8.568731
  O           26.436741       34.933833        4.398647
  H           25.608932       35.414616        4.325809
  H           27.092018       35.529633        4.026791
  O            5.280436       21.875826        8.596425
  H            5.553367       21.293955        7.883221
  H            5.245201       22.746927        8.193208
  O            6.011498       27.971653       41.459749
  H            6.496755       28.788989       41.324797
  H            6.145152       27.477988       40.646685
  O           14.651876       10.158266       25.385404
  H           14.925867        9.255966       25.205103
  H           15.234598       10.447711       26.092015
  O            4.412051       22.024702       28.789817
  H            4.360053       21.357658       29.478347
  H            3.606721       21.904654       28.280235
  O            1.117225        4.936392       10.490518
  H            0.206591        4.875652       10.788481
  H            1.305199        4.070268       10.120197
  O           19.965937        8.643802       23.157989
  H           20.248188        9.561419       23.151734
  H           19.062315        8.674499       23.482284
  O           20.838764       36.724918       22.990602
  H           21.130933       36.268793       23.783263
  H           20.142059       37.311370       23.296082
  O           35.727984        1.597946       29.237927
  H           35.097525        1.147328       28.671191
  H           35.462272        1.357016       30.128989
  O           17.727933        6.972895       25.679308
  H           17.033204        7.430382       25.199951
  H           18.412740        6.824136       25.022382
  O            7.880714       13.801638        2.659383
  H            7.964110       14.402808        1.915498
  H            7.592578       12.974069        2.266001
  O           25.180503        4.894121       11.807358
  H           25.599415        4.296667       12.431286
  H           25.822040        4.986811       11.098498
  O           39.764446       14.190186       33.053645
  H           39.053081       14.753529       32.740070
  H           40.565816       14.662906       32.814931
  O           38.637817       37.631978       22.766002
  H           38.369577       38.236302       23.462110
  H           39.583621       37.774550       22.677847
  O           23.813964       40.592771       13.759020
  H           24.678209       40.938646       13.524123
  H           23.744109       40.747559       14.704431
  O           32.544585       17.520780       26.551790
  H           31.965073       16.792277       26.316900
  H           32.795496       17.907161       25.708940
  O           14.323931        9.923950       29.147288
  H           14.174420       10.658124       29.747589
  H           15.216560       10.061365       28.820223
  O            6.553155       23.397373       30.486688
  H            6.586079       24.023279       29.759445
  H            6.003749       22.680550       30.159641
  O            8.093972       37.099812       35.622151
  H            8.021824       37.392098       34.710511
  H            9.035655       36.965446       35.755642
  O           15.663728       15.976141       17.796974
  H           16.133949       16.527262       18.426960
  H           14.855953       16.461756       17.611717
  O           14.477837       40.835333       18.947151
  H           15.103377       41.018415       19.652067
  H           14.951049       41.063919       18.143123
  O            8.572804       12.119701        4.245322
  H            8.276314       11.206806        4.224280
  H            9.193343       12.152030        4.977803
  O           29.531604       23.027891        1.980585
  H           29.097723       23.771495        1.555703
  H           29.469864       23.220554        2.919579
  O           22.222892        0.826357        4.427511
  H           22.711548        0.000000        4.418896
  H           21.301246        0.558002        4.462109
  O           39.442335        4.969709       34.836100
  H           39.949411        5.076542       35.644298
  H           40.103633        4.800363       34.160342
  O           23.943535       18.226737       29.567102
  H           24.245426       17.555704       30.183789
  H           23.411070       17.743219       28.930444
  O            8.032726        5.470628        1.228036
  H            8.827211        5.434949        0.690220
  H            7.951032        6.396184        1.471579
  O            1.161693        2.044485       19.171554
  H            1.494221        2.944124       19.213973
  H            0.831923        1.870193       20.056719
  O           30.766902       38.710269       40.120424
  H           31.628034       38.290054       40.060466
  H           30.875555       39.380762       40.799597
  O           12.098975       28.148927       24.841552
  H           12.504499       28.522516       24.055609
  H           12.595895       27.343609       25.006402
  O           37.321623        6.165892       36.486378
  H           37.772840        6.848291       36.988832
  H           37.940867        5.431749       36.471761
  O           16.419179       11.892598        1.410205
  H           17.061746       11.773242        2.113474
  H           16.947294       12.120000        0.640774
  O           11.164416        8.365065        5.534909
  H           11.459030        9.136635        5.045411
  H           11.422819        7.620967        4.985193
  O           40.428808       38.501365       29.198194
  H           41.168720       37.937566       29.435654
  H           39.973719       38.017810       28.504140
  O           28.198549       42.000000       29.243933
  H           27.278974       41.756831       29.374220
  H           28.619929       41.189201       28.947814
  O           28.698429       24.153214       16.843714
  H           28.671567       24.983742       16.362854
  H           29.628754       23.914466       16.855425
  O            4.190309        8.693640       32.688551
  H            3.821048        9.517758       33.014435
  H            4.853547        8.965842       32.049283
  O           13.150145       35.570472        7.606436
  H           12.618910       35.959954        8.304876
  H           12.523892       35.397072        6.899059
  O           13.947821       15.352921       12.272242
  H           13.430951       15.907835       11.683480
  H           14.843052       15.409859       11.928787
  O           13.345427       22.628223       31.978972
  H           13.036263       23.509227       32.202524
  H           12.931078       22.437491       31.133644
  O           14.795057        1.766528       31.626322
  H           14.995922        1.692382       30.690437
  H           15.507398        1.291266       32.061452
  O            3.160349       26.524827        3.759642
  H            2.959836       26.382112        2.831659
  H            4.113618       26.421319        3.816258
  O            6.927869       25.066562       38.513029
  H            7.479457       24.307104       38.714770
  H            6.320375       24.748125       37.840577
  O           17.420222       31.550368       22.709425
  H           16.847184       32.273344       22.443611
  H           18.272590       31.965769       22.862896
  O           23.249736        8.021320        7.614516
  H           24.143585        7.934541        7.275064
  H           23.299066        8.756405        8.230842
  O           19.406235        1.801045       38.558008
  H           20.253254        1.367578       38.686033
  H           19.002134        1.324098       37.828716
  O           16.869972       21.286479       22.720196
  H           16.370507       21.938194       23.217717
  H           17.697437       21.727886       22.512585
  O           12.409438       28.962521        9.171806
  H           11.637485       28.488024        8.854527
  H           12.131320       29.335509       10.012146
  O           41.633172       40.279152       37.275941
  H           41.233978       40.913932       36.676421
  H           40.886099       39.836025       37.686016
  O           25.372603       32.914210        3.942150
  H           25.362827       32.186051        3.316518
  H           26.055646       32.676336        4.574217
  O           16.492161       26.679722        9.198914
  H           16.040895       27.470918        8.895445
  H           16.052222       26.455492       10.022817
  O            3.125763       27.062689       13.942467
  H            3.125919       26.836000       14.875385
  H            3.956433       26.711687       13.611669
  O           30.880123       17.805571       35.103192
  H           30.008367       17.693387       35.489432
  H           30.740535       18.412254       34.371691
  O           39.283922       36.317786       39.753120
  H           40.012360       36.836487       40.102480
  H           39.612579       35.978147       38.916895
  O           23.587621       14.544487       23.755469
  H           24.226482       15.231463       23.959541
  H           23.638542       13.942166       24.501966
  O           17.448397       29.733959        0.683908
  H           17.036052       28.962931        0.287408
  H           18.033364       30.069706        0.000000
  O           25.337371       29.125627       27.726175
  H           24.610321       29.743873       27.621801
  H           25.050394       28.536445       28.428422
  O           39.167370       34.245002       25.352430
  H           38.221183       34.153741       25.217799
  H           39.380087       33.577871       26.009948
  O            5.486277        1.654096        8.395163
  H            5.387041        1.710551        7.441911
  H            5.834545        0.771849        8.546792
  O           34.804128       32.001135       35.176803
  H           34.661698       31.209387       34.652806
  H           35.101867       31.672728       36.028942
  O           24.751882       12.150525       10.821490
  H           25.697478       12.316445       10.828101
  H           24.424057       12.668657       10.082091
  O            7.930729       36.114099        4.086382
  H            7.048831       35.833689        3.830744
  H            7.850902       36.331679        5.018545
  O           40.451109       20.313971       20.961855
  H           41.331949       20.627858       21.179389
  H           40.539515       19.949450       20.077574
  O            0.741505        3.922459       14.508949
  H            0.747539        3.040573       14.129520
  H            1.463291        3.914308       15.142669
  O           11.638614       12.649824        4.039133
  H           10.847162       12.412468        3.550266
  H           11.316138       13.181192        4.771458
  O           28.402234       26.988821       23.248122
  H           29.020685       26.723404       23.932809
  H           27.596263       26.509381       23.455944
  O           31.262338       20.501463       22.906073
  H           30.713582       20.105114       23.586881
  H           31.296726       21.432547       23.139612
  O           14.014494        4.249281       18.643294
  H           13.851128        3.921780       19.530863
  H           13.411180        3.747611       18.089234
  O           14.348958        6.375778       12.446027
  H           14.031835        6.231587       13.340659
  H           15.220279        6.763227       12.561464
  O           30.502883       39.319134       32.947165
  H           29.574235       39.264505       32.709778
  H           30.675688       40.261299       33.018630
  O           12.558370       38.705624       39.463129
  H           12.432971       39.543562       39.914637
  H           13.114404       38.195434       40.057415
  O           18.147063       40.812423       39.247994
  H           17.632404       41.483567       38.793663
  H           17.575304       40.515067       39.960253
  O           22.573087       35.858579       26.584873
  H           23.187402       36.277484       27.192212
  H           23.120475       35.580261       25.846261
  O           34.131167       24.929714        2.360618
  H           34.714894       24.619532        1.664360
  H           34.606124       25.662207        2.761256
  O           21.951862       16.603679       30.118788
  H           22.610658       16.160724       30.658698
  H           21.790083       15.995425       29.393188
  O            0.000000       15.859000       13.762333
  H            0.345001       16.751964       13.835247
  H            0.310735       15.552465       12.906692
  O           10.933336        4.583415       18.809889
  H           11.704100        4.355583       19.334998
  H           11.258124        5.229340       18.177484
  O           36.672386       16.988980       25.095773
  H           37.105411       17.099339       24.246047
  H           36.998987       16.146714       25.422212
  O           12.159632        1.893270       26.773174
  H           12.542025        2.605228       27.291456
  H           12.084159        1.162132       27.391546
  O           38.489482        4.392872        7.486161
  H           37.723902        3.827235        7.360996
  H           38.853040        4.118369        8.331806
  O            5.989327       31.483435        2.100310
  H            5.405263       32.243716        2.049635
  H            6.319455       31.376265        1.204669
  O           30.817309       32.368029        3.635775
  H           31.762648       32.298967        3.483169
  H           30.742647       32.897834        4.433506
  O           28.027651       41.064914       11.647269
  H           27.924064       41.687312       10.923656
  H           28.135177       41.618799       12.424630
  O           19.963626       39.167966        6.154690
  H           20.574066       38.728724        6.751476
  H           19.266952       39.498821        6.727248
  O            7.169344       33.034884       37.833943
  H            7.017400       33.924888       38.160332
  H            7.854136       33.138662       37.168412
  O           40.673574       21.394244       32.750820
  H           39.831516       21.513971       33.196163
  H           40.501729       20.714025       32.094761
  O           22.668820       38.317882       26.533935
  H           23.432593       38.599938       26.025191
  H           22.779944       38.744592       27.387289
  O           33.944413       38.763212       28.002161
  H           33.710460       38.894251       27.080305
  H           33.521959       39.493416       28.461483
  O           28.156606       16.445576        2.034874
  H           28.190577       17.362553        2.317228
  H           28.902294       16.352537        1.436596
  O           36.319234        9.505491       10.183435
  H           36.322902       10.433516        9.937506
  H           37.148085        9.379809       10.652319
  O           33.288219       35.057764        4.138718
  H           32.487385       35.297282        4.610969
  H           33.838292       35.843648        4.188214
  O           28.862188        8.234524       13.989775
  H           29.486044        7.612737       13.607795
  H           29.032760        9.058455       13.526433
  O           12.379278        9.641125        7.744722
  H           12.422435        8.843656        8.277551
  H           11.846404       10.247304        8.265523
  O           21.564292       19.535132        4.217110
  H           20.951469       20.271377        4.281262
  H           21.738333       19.289601        5.129287
  O           15.810422       18.563758       16.313178
  H           16.454225       17.964806       15.927821
  H           14.961794       18.222345       16.020073
  O           41.991716       36.841826       38.749647
  H           41.810821       35.930037       38.989735
  H           41.378348       37.026071       38.033774
  O            4.813210       13.357459       16.764038
  H            4.923074       13.315914       15.811185
  H            3.875699       13.201227       16.902990
  O            6.750628       21.794881       33.759172
  H            6.186128       21.280945       34.341353
  H            6.401125       21.628373       32.880102
  O           36.881905       20.956874       19.142548
  H           36.840465       21.875587       18.866915
  H           36.249590       20.895336       19.862988
  O           29.616310       26.974005       20.497394
  H           29.457809       26.318524       19.814058
  H           29.527200       26.486799       21.320396
  O           16.489819       34.826165       16.378597
  H           17.133807       35.324578       16.887113
  H           17.019966       34.270509       15.801680
  O           36.241266       36.022122       32.900661
  H           36.517546       35.137015       33.149620
  H           35.436545       35.887015       32.393895
  O            0.797491       33.624623       12.102928
  H            1.095278       34.312147       11.502630
  H            0.027157       33.247644       11.670362
  O            5.859411       34.039098       21.689982
  H            6.451771       33.327250       21.436787
  H            6.437061       34.706771       22.068366
  O           33.443700       32.399052       11.820185
  H           32.804650       33.115293       11.801809
  H           34.067908       32.618524       11.123882
  O           32.887448       28.903228       20.842589
  H           32.562410       29.525741       20.187950
  H           33.298586       29.454978       21.512798
  O           14.461688        3.024773        7.227896
  H           14.631317        3.966970        7.155682
  H           15.334399        2.630365        7.301786
  O           10.217365       19.844191       15.780065
  H           11.112498       19.572610       15.996178
  H            9.720296       19.022904       15.747618
  O           27.792428       23.947625       25.539513
  H           28.314139       24.638021       25.123705
  H           27.937239       23.174549       24.988127
  O            7.058539       35.499301       32.850678
  H            6.812080       35.852219       33.708834
  H            8.013636       35.407717       32.895896
  O           16.614027       33.368698        4.387375
  H           17.489294       32.974204        4.384769
  H           16.088086       32.785702        3.834072
  O           25.324534       36.975077       30.229477
  H           24.903049       37.371634       30.995518
  H           24.595071       36.744562       29.648627
  O           37.648290       22.159417        9.342700
  H           36.927289       22.161651        8.708761
  H           37.349376       21.572296       10.041686
  O           11.267857       36.976278       32.174009
  H           11.568321       36.253352       31.618289
  H           12.076647       37.371140       32.509547
  O           25.225118       28.949932       10.214923
  H           24.797435       28.093163       10.283910
  H           24.673951       29.442876        9.601846
  O           21.663886       19.765902       41.668628
  H           21.860661       18.838596       41.820641
  H           21.720416       19.868464       40.715251
  O            9.507221       16.817625       16.514579
  H            8.634705       17.152588       16.294943
  H            9.407335       15.862454       16.496888
  O           18.287225       12.731900       34.261644
  H           18.719902       11.879774       34.170012
  H           18.163889       13.035018       33.358566
  O           33.405128       11.395397        1.431826
  H           32.581980       10.932668        1.605131
  H           33.937116       10.761228        0.944525
  O           39.521141       29.510252       39.062121
  H           39.894044       29.962516       38.301776
  H           38.601353       29.365646       38.826067
  O           16.693494       23.990383        1.894567
  H           16.018137       23.312273        1.970631
  H           17.320902       23.632092        1.261615
  O           25.005955        8.016040       26.322734
  H           25.587780        8.742322       26.086684
  H           25.590707        7.356458       26.704387
  O            2.515483       15.907890        3.377797
  H            2.529258       14.993545        3.085381
  H            3.258569       15.976007        3.982632
  O           20.149456       32.756037       31.554968
  H           20.846520       32.184418       31.885238
  H           20.411053       33.636994       31.834475
  O            8.766616       32.227641       10.625690
  H            9.329569       32.706579       11.238411
  H            7.991560       31.997321       11.144229
  O           19.614479       11.173948       13.484256
  H           20.522516       10.890918       13.614977
  H           19.270848       11.291000       14.373559
  O           36.205417       36.644592        7.524498
  H           35.697758       37.435801        7.719426
  H           36.714399       36.485047        8.323325
  O            3.346627       39.714044       16.649754
  H            3.234957       39.758087       15.697223
  H            2.710963       40.346639       16.993843
  O           20.386125        2.481054       14.516057
  H           20.911751        1.995337       15.155996
  H           19.485213        2.189265       14.676864
  O           28.465389       17.723090       15.882753
  H           27.675777       17.461171       16.361957
  H           28.550202       18.663538       16.058839
  O           33.800342       23.777075        4.248490
  H           32.909504       23.976433        4.545792
  H           33.771660       22.845164        4.017492
  O           31.720268       20.513405       13.062784
  H           30.866018       20.466994       12.627092
  H           31.521580       20.843848       13.942541
  O           10.097032       18.775389        2.491882
  H            9.396601       18.644745        1.848411
  H            9.735009       18.430002        3.311815
  O           36.780053       39.048373        5.974357
  H           36.713252       38.095048        5.882525
  H           37.234578       39.176061        6.810865
  O           25.057079       23.620340        9.687209
  H           24.142762       23.771995        9.436709
  H           25.005917       22.975762       10.397522
  O           31.102619       13.555821        9.642169
  H           30.617764       12.768138        9.384882
  H           31.674437       13.261415       10.355605
  O            9.045650       22.960835        4.146596
  H            8.804374       23.101978        5.065067
  H            8.231377       23.112445        3.660165
  O            5.473552       24.793534       40.829301
  H            5.836895       24.167449       40.198647
  H            4.631415       25.054471       40.448040
  O           26.909136       31.069196       25.600025
  H           26.111870       31.599137       25.527533
  H           27.535698       31.641444       26.050130
  O           29.184299        5.801579       18.560128
  H           28.253357        5.627972       18.718029
  H           29.189414        6.576516       17.992600
  O           15.862713        1.757506        2.769633
  H           15.004203        1.965598        3.145642
  H           16.145605        2.575880        2.353845
  O           24.272913        3.346450       40.729622
  H           23.688646        3.376311       41.490848
  H           24.910661        2.661315       40.945282
  O           23.719633       11.364069        2.254353
  H           24.079697       10.526719        2.555888
  H           23.327242       11.161533        1.401329
  O           13.914319       24.839497        1.431685
  H           13.761287       23.976094        1.040734
  H           14.692333       25.172471        0.977301
  O           19.911077       25.115750       14.886682
  H           20.116283       25.208175       15.819995
  H           20.173973       25.955031       14.500501
  O           34.162106       23.329849       30.119580
  H           33.363661       23.431834       30.642849
  H           34.091518       24.007372       29.442364
  O           38.992610       35.119736       20.644127
  H           38.831126       36.033298       20.397040
  H           38.671149       34.610036       19.896123
  O           26.838809       18.165931       39.006860
  H           27.681224       18.393713       38.606638
  H           26.715843       18.824758       39.694951
  O           40.168677       26.571254       10.994184
  H           39.245811       26.483769       10.744404
  H           40.265324       25.993920       11.755753
  O           33.637317       28.890268       32.898182
  H           33.580879       28.405624       32.071345
  H           33.550717       29.811647       32.640883
  O           10.955872       30.865877        4.470810
  H           10.733916       29.931850        4.463463
  H           10.146122       31.301189        4.749108
  O           23.731020       12.645612       17.846940
  H           23.826235       11.780905       18.253068
  H           22.781510       12.779926       17.791886
  O           11.679255       24.500416       14.063313
  H           12.275573       24.679972       13.332636
  H           12.238299       24.101363       14.734780
  O            1.363936        6.307285       29.693542
  H            1.503051        7.232897       29.479965
  H            0.746211        6.322510       30.428951
  O            4.606190       35.239570        1.860140
  H            3.914830       35.027414        1.228685
  H            4.780036       34.409526        2.311190
  O           13.119486       26.488579        8.481266
  H           12.294026       26.571594        7.998101
  H           13.752030       26.989917        7.960506
  O           41.097057       22.568281       10.642190
  H           41.125638       22.220770        9.747682
  H           41.580850       23.396559       10.591772
  O           17.295843       35.459081        4.465795
  H           18.050689       35.483210        3.873048
  H           16.707515       36.140319        4.130492
  O            1.834598       25.331276       40.808782
  H            1.871311       25.779610       39.960623
  H            1.096651       24.722165       40.724754
  O           31.292954       31.293046       37.970358
  H           32.231294       31.169077       37.809503
  H           30.867412       30.627342       37.424104
  O           17.685722       14.816474       13.921273
  H           17.549318       13.909882       14.206245
  H           17.134603       14.906212       13.139699
  O           32.648707       26.134506       30.991956
  H           32.467614       25.728303       30.141116
  H           33.288928       25.549033       31.404243
  O            5.220399       33.873985       28.400374
  H            4.266198       33.768566       28.410979
  H            5.517253       33.439257       29.203824
  O            6.494017       33.311358       40.676006
  H            7.348337       33.243446       40.243281
  H            5.982984       33.890686       40.105158
  O           37.126259       16.207164        3.897740
  H           37.523501       15.370963        3.643394
  H           36.493048       15.972343        4.580781
  O           21.933249        2.701810        8.402788
  H           22.045736        1.749199        8.362741
  H           22.594023        3.045628        7.796315
  O           22.591106       29.357618       31.197782
  H           21.943802       29.174065       31.882641
  H           23.438637       29.210001       31.625032
  O           11.443781       41.391268       12.142768
  H           11.687130       40.529009       11.797782
  H           12.080463       41.556355       12.842786
  O           37.240703       25.322373        9.751314
  H           36.459424       25.447025       10.295181
  H           37.390289       24.373619        9.762758
  O            7.527389        8.591862       38.932793
  H            7.558737        9.535469       38.758584
  H            7.233630        8.527453       39.845043
  O           24.035080        4.229837       10.045863
  H           24.410562        3.372543        9.831890
  H           23.371256        4.375524        9.367074
  O            8.878284       12.928498       20.220383
  H            8.202302       13.587554       20.394791
  H            9.413446       13.314760       19.522496
  O           32.013239       16.084192       36.307612
  H           32.656416       15.376718       36.220844
  H           31.172220       15.630957       36.407146
  O            4.409744       28.302933        5.373929
  H            5.324868       28.591790        5.402839
  H            4.043780       28.585613        6.215834
  O            9.737010        6.565591       36.171612
  H            9.205148        7.196297       35.680635
  H            9.810821        5.808407       35.585210
  O           29.864377       35.102586        4.685589
  H           30.329903       35.810792        4.234530
  H           29.180618       34.834525        4.066510
  O           22.102126       39.752070       20.220885
  H           22.519765       39.685642       21.082795
  H           21.578952       40.556087       20.270771
  O            7.488924       11.803739       35.038091
  H            7.476692       12.763216       35.006795
  H            6.816681       11.577722       35.685893
  O           30.833581       15.783951       19.870271
  H           29.959255       16.147123       19.710948
  H           31.435076       16.471642       19.573745
  O            6.676000       25.640895       33.489803
  H            6.792358       24.982927       32.800409
  H            6.192950       26.352134       33.061500
  O           29.907175       25.649505       29.088550
  H           28.995542       25.409855       28.906293
  H           30.069696       26.412576       28.528237
  O           14.081932        1.345346        5.449697
  H           13.288604        0.966482        5.835466
  H           14.802947        0.892136        5.893971
  O           16.640333       10.354786       18.767531
  H           17.077235       10.129347       17.942898
  H           16.455109       11.294122       18.690190
  O            5.886408       36.573765       31.330635
  H            6.176132       37.404357       30.946054
  H            5.298608       36.833720       32.044467
  O           40.535306       24.144773        2.948591
  H           39.902394       23.677781        3.499106
  H           41.006938       24.716282        3.559805
  O           10.949889       10.829427       18.791908
  H           10.756513       11.613297       19.311406
  H           10.438714       10.133002       19.211830
  O           20.556744        0.566366       28.012278
  H           19.599015        0.621042       28.050905
  H           20.791690        1.055200       27.219509
  O           36.313061       26.073106       41.291068
  H           35.645758       25.428527       41.537945
  H           36.155550       26.233632       40.357224
  O            2.566556       19.419349       20.260226
  H            2.803174       20.334244       20.090802
  H            1.861683       19.471893       20.910638
  O           38.029937       15.881679       41.516001
  H           38.104044       16.707499       42.000000
  H           37.368997       15.380136       42.000000
  O           35.365803       29.816314       38.962729
  H           35.679897       30.133955       38.112920
  H           36.153795       29.783355       39.511021
  O            0.604796        1.500509       16.856810
  H            0.000001        0.755333       16.831106
  H            0.647297        1.804597       15.946663
  O           20.607023       41.055258       30.626278
  H           21.056827       41.894898       30.746305
  H           20.902964       40.747070       29.765998
  O           40.149485       10.688385       21.600183
  H           40.905461       10.816099       22.178036
  H           39.836018        9.804867       21.809409
  O           35.459989        1.512801       17.577311
  H           35.963307        1.591361       18.391083
  H           35.207361        0.586761       17.541666
  O           11.277141       21.642445        5.595955
  H           10.448540       21.571042        5.116323
  H           11.760295       20.847430        5.356884
  O           24.489150       19.500606       27.858430
  H           24.508825       20.250815       28.457199
  H           24.627904       19.885471       26.989368
  O           22.912408       25.094093       15.537286
  H           22.201234       25.700541       15.317794
  H           22.491328       24.416433       16.072180
  O           33.342066       12.351436       27.396358
  H           32.589781       12.493911       27.975575
  H           32.969982       12.378540       26.511225
  O           27.957075        1.220254       24.655687
  H           28.611925        1.782759       25.075787
  H           27.588566        0.703735       25.376833
  O           11.830059       23.368614       24.340373
  H           12.616913       23.177778       24.856287
  H           11.200613       22.693855       24.607095
  O            6.316117       24.764881       14.267282
  H            7.133472       25.064836       13.862704
  H            6.252849       23.839160       14.018930
  O           23.197048       41.039479       25.351885
  H           22.588304       41.655164       24.937051
  H           22.704062       40.680170       26.093845
  O           35.494584       27.902327       12.821106
  H           35.428438       28.809787       12.514730
  H           34.873412       27.851562       13.552004
  O           21.611426       39.580441       10.484418
  H           22.059761       40.292872       10.946114
  H           21.069119       40.025568        9.828365
  O           34.038922       38.031626       15.433434
  H           33.472595       37.593338       14.793979
  H           34.565008       37.322469       15.811550
  O           16.749743        5.287628       18.384274
  H           15.933692        5.057011       17.934161
  H           16.946062        6.177615       18.080920
  O            8.033034       30.107382        4.342664
  H            7.286812       30.059173        3.740541
  H            7.636878       30.069036        5.216868
  O           10.246600       21.868242       29.500845
  H           10.079499       21.529307       28.618278
  H           11.011932       22.439144       29.396063
  O           40.224061        8.808861       31.162347
  H           40.697806        9.426929       30.600846
  H           39.998406        9.320798       31.943144
  O           19.050206       28.710717       23.972327
  H           18.581727       29.518926       23.750850
  H           18.628089       28.403783       24.778708
  O           23.598588        9.750717        6.159502
  H           24.119749       10.552181        6.071341
  H           22.738684       10.057140        6.458354
  O           29.805054       32.070124       14.677355
  H           30.680463       32.028302       14.285392
  H           29.468385       31.173420       14.605124
  O           17.751339        4.610217       25.707720
  H           17.320554        3.805558       25.409940
  H           18.573391        4.638183       25.211645
  O           34.098369       15.420584       24.697494
  H           33.414210       14.787207       24.926593
  H           34.798306       15.256345       25.334483
  O           22.631999       21.029374       14.365117
  H           22.107253       20.325831       14.754211
  H           23.530692       20.690443       14.375973
  O            3.839718        3.216921       21.324978
  H            3.865345        3.929018       21.968396
  H            4.075761        3.637526       20.494305
  O           21.437517       13.452994       41.509391
  H           22.391572       13.395636       41.600018
  H           21.105522       12.696869       42.000000
  O           14.417183       17.979810       11.082278
  H           15.167639       17.919471       10.486544
  H           13.933791       18.752590       10.779318
  O           17.184462       35.521769       13.947163
  H           17.468098       36.433376       14.048392
  H           17.623077       35.223103       13.146502
  O           41.482781       35.882129       32.675652
  H           41.990843       35.988038       31.867950
  H           41.978178       36.374278       33.335207
  O           14.169853       37.024757       11.027833
  H           14.309545       36.610895       10.172889
  H           13.242502       37.275032       11.022904
  O           15.370851       12.706210       14.804945
  H           14.433162       12.564980       14.654884
  H           15.803393       12.133754       14.166318
  O           34.104884        2.966774       18.724316
  H           34.779754        3.499456       18.297087
  H           33.716554        3.553492       19.378231
  O           36.712892       11.647944       19.457089
  H           37.181701       11.395293       20.255907
  H           36.337792       12.507986       19.662683
  O           22.908090        5.379723       25.463364
  H           23.525547        6.082503       25.679170
  H           23.408646        4.788668       24.895262
  O           14.299367       33.579786       37.905111
  H           13.970532       34.476115       37.804184
  H           13.610398       33.127156       38.398152
  O           16.890590       21.269667        1.995025
  H           17.847259       21.195924        2.027754
  H           16.575788       20.510637        2.492434
  O           17.445091       17.082214       13.888060
  H           16.526145       16.845889       14.034392
  H           17.431552       18.036562       13.779990
  O            3.991602       41.587146       31.727468
  H            4.866344       41.904845       31.963306
  H            4.145854       40.986340       30.994065
  O            5.438659       16.239772       17.141832
  H            4.801562       16.936180       17.317465
  H            6.036918       16.621614       16.494588
  O           35.174963       23.882975       18.547629
  H           35.885441       24.485755       18.779150
  H           35.544867       23.334801       17.850980
  O            3.619449       24.395323       29.710338
  H            4.507372       24.697553       29.505460
  H            3.752804       23.610996       30.248566
  O           18.582307       19.051821        1.656640
  H           19.038585       18.208274        1.612345
  H           18.616013       19.388621        0.757711
  O           33.748098       21.017799       16.570791
  H           33.360538       20.159817       16.382669
  H           34.194102       21.261825       15.755822
  O           36.096121       36.790099       26.515250
  H           35.535366       36.350048       27.158393
  H           35.713302       36.556615       25.665794
  O           22.962207       10.888489       14.946569
  H           23.837834       10.964807       15.332805
  H           22.747435        9.955568       15.025146
  O           20.543837        3.716504       38.228874
  H           20.896997        3.804559       37.340477
  H           19.815133        4.341592       38.258818
  O            2.163442        4.358046       26.105498
  H            2.063822        3.455387       25.794037
  H            1.808129        4.896429       25.393783
  O           11.003578       16.501160       25.609821
  H           11.077350       17.373021       26.004967
  H           11.704410       16.476810       24.953404
  O           11.114082       23.526209        8.801754
  H           10.336433       23.140557        9.211949
  H           10.778793       23.952821        8.009148
  O           12.389447       20.570184       29.388812
  H           11.789790       19.876029       29.105464
  H           12.903839       20.168019       30.093301
  O           12.582731       38.792059        3.830637
  H           12.295141       39.706257        3.887718
  H           12.936852       38.708573        2.941665
  O           26.497170       30.174764       41.477701
  H           26.335058       29.376566       41.985958
  H           27.276598       29.970337       40.954879
  O           41.668746       22.678816       17.343867
  H           41.997379       23.044363       18.168549
  H           41.794456       21.731033       17.436311
  O           30.080046       24.212425       27.410307
  H           30.696798       24.864849       27.070184
  H           29.755586       23.760175       26.627467
  O           11.016860       25.246743       31.217652
  H           10.929507       24.412616       31.684908
  H           10.155190       25.386994       30.817034
  O           30.175424       40.778142       27.447324
  H           30.977030       40.341430       27.149942
  H           29.489950       40.440378       26.865360
  O           13.022133       14.591075       39.427569
  H           12.378653       15.101177       39.925017
  H           13.396311       15.220537       38.805951
  O           10.346930       33.952428       29.384875
  H            9.695658       33.292868       29.634975
  H            9.978673       34.365390       28.599704
  O            2.861513       32.570645       18.719237
  H            2.620444       31.759655       18.265469
  H            3.820790       32.544412       18.760957
  O            3.130492        6.389826       16.554183
  H            2.953607        7.298650       16.808105
  H            4.021098        6.411636       16.195034
  O            9.379740       17.400268       21.387933
  H           10.129657       16.816487       21.524127
  H            8.616266       16.818032       21.415350
  O           40.476816       28.120015        4.959623
  H           41.207690       28.434129        5.497099
  H           39.736108       28.674926        5.216660
  O           24.315095        5.578120       37.103045
  H           25.067147        6.119307       36.851533
  H           23.897890        6.066744       37.817068
  O           11.891595       24.948202       22.068994
  H           12.636754       24.608073       21.568221
  H           12.260799       25.668421       22.586309
  O           36.274949       11.638314        6.460908
  H           36.601274       10.736096        6.496117
  H           36.988283       12.164482        6.830967
  O           33.063962       32.054542       31.473195
  H           32.960004       33.000309       31.601421
  H           33.621941       31.979351       30.694961
  O           39.899240       29.315961       41.229142
  H           40.711176       29.381690       41.737240
  H           39.785983       28.373613       41.081510
  O           21.598412       23.884519       22.449227
  H           21.613851       24.833672       22.305720
  H           21.831572       23.779543       23.375109
  O           20.890015        3.827537       22.063678
  H           21.450427        3.262991       21.526137
  H           21.230951        3.722300       22.955490
  O           24.973782       22.609944       39.033624
  H           25.756838       22.900210       39.507222
  H           24.370866       23.355555       39.090175
  O           34.654688       20.658620        5.765698
  H           34.559607       21.609019        5.668611
  H           34.044562       20.428783        6.471079
  O           39.148444       13.430982       28.142069
  H           38.507979       12.941751       27.620358
  H           39.359109       14.197724       27.603211
  O            2.215617       22.706831        2.452172
  H            1.929199       21.909987        1.999701
  H            1.432457       23.262502        2.475239
  O           39.779214       28.564265       12.003087
  H           39.874225       29.509305       12.143076
  H           40.051583       28.171257       12.836155
  O           35.515947       10.669293        4.162134
  H           35.781780        9.813912        3.816620
  H           36.113682       11.292556        3.741540
  O           39.645200       26.914977       17.838277
  H           40.196333       26.944222       18.623848
  H           39.803854       27.757042       17.404230
  O           31.822617       10.266794       41.649791
  H           31.969674        9.375387       41.974589
  H           30.979437       10.217797       41.192311
  O           10.776113       15.114995       19.654216
  H           11.493738       14.641200       19.227299
  H           10.174166       15.331931       18.937808
  O           24.664924       14.537709        8.180086
  H           24.689617       14.696046        7.233490
  H           25.482957       14.069412        8.364917
  O           29.255211       33.245022       20.559474
  H           29.338767       34.180105       20.358569
  H           28.615739       33.211185       21.275417
  O           38.451716       38.611962       27.150696
  H           38.650723       39.549733       27.202732
  H           37.583349       38.529819       27.552981
  O           41.018100       23.617210       32.464388
  H           40.114458       23.710826       32.153917
  H           41.530720       23.470471       31.665433
  O           16.618996       26.323270       20.260482
  H           16.471180       26.074686       21.175950
  H           17.570401       26.257067       20.146078
  O           20.216831        0.383211       10.238215
  H           19.365711        0.428935       10.680061
  H           19.997689        0.288361        9.307827
  O            2.732298        1.494852        5.368332
  H            3.326541        2.204972        5.114697
  H            2.020316        1.936189        5.838380
  O           31.408642        2.173264       18.461759
  H           31.041541        2.956525       18.878250
  H           30.643376        1.627372       18.264245
  O           24.913130        6.309728       20.345459
  H           25.806825        6.533809       20.075605
  H           24.924981        5.353848       20.439236
  O           27.443218        1.403608        7.221381
  H           27.498723        0.456236        7.366740
  H           26.743779        1.504433        6.570795
  O           33.687990       35.223369       39.123138
  H           34.195170       35.775503       38.523437
  H           33.894980       34.325157       38.852933
  O           30.605288       40.542755        4.671870
  H           31.388328       40.210146        4.226959
  H           29.964878       40.666504        3.966744
  O           28.879425       26.763533       33.739241
  H           29.752537       26.780395       34.138136
  H           28.275653       26.787960       34.485903
  O           24.335266       27.850796       18.378602
  H           24.602650       28.014778       19.285983
  H           23.993716       28.695429       18.074333
  O           22.971231       31.097148       33.824090
  H           23.389653       31.925969       34.068434
  H           22.521373       31.291612       32.997983
  O           40.510347       20.929582       13.313621
  H           39.656696       20.545535       13.100283
  H           41.096030       20.173628       13.403908
  O           40.939651       12.309225       33.014937
  H           40.770980       12.113139       32.090369
  H           41.655694       11.716720       33.257553
  O            2.554958       19.411386       34.076114
  H            2.700941       18.908471       34.880782
  H            3.230179       19.094324       33.470976
  O            3.047815        4.524476        2.939572
  H            3.949992        4.614275        2.623762
  H            2.544937        4.280406        2.158428
  O           20.995248       26.296742        2.407858
  H           20.259522       25.723578        2.635706
  H           20.588785       27.034057        1.945477
  O            4.749505        8.548784       16.121138
  H            5.299432        9.276658       15.821965
  H            4.630807        8.710100       17.060568
  O           10.851201       33.218321       35.379611
  H           10.157879       32.589383       35.166382
  H           11.139478       32.965877       36.260412
  O           11.973837       15.219844       32.867592
  H           12.019574       15.235114       33.826445
  H           12.589842       15.902010       32.588613
  O            9.203973        7.961312       22.226828
  H            9.679596        8.742392       21.934559
  H            8.858351        8.201758       23.090178
  O            6.531419       38.918115        4.816574
  H            6.898728       38.264081        4.217366
  H            5.754132       38.492295        5.186905
  O           10.647957       32.936297       14.490991
  H           10.571043       33.872750       14.293852
  H           10.631867       32.509421       13.630665
  O           21.099554       25.355944       36.529194
  H           21.447426       24.461243       36.544033
  H           20.198782       25.256282       36.210888
  O           24.107706       10.939407        8.719880
  H           24.554149       10.262394        9.233754
  H           24.816116       11.391762        8.254935
  O            5.483213       20.254662        1.617758
  H            6.082465       21.002153        1.680034
  H            5.455707       19.896265        2.508509
  O           38.451393       31.559573       37.843641
  H           38.140733       32.443313       38.053926
  H           37.648270       31.043314       37.738226
  O            2.424897       15.139409       39.855769
  H            1.949284       14.335805       39.632749
  H            2.459654       15.137292       40.815680
  O           32.209922       21.795735       33.635650
  H           32.046201       21.722905       32.692456
  H           31.355959       22.028785       34.008582
  O           25.974313       31.281858       28.405464
  H           26.333923       32.171635       28.431956
  H           25.505974       31.189058       29.238944
  O           12.251156       37.649554        6.001326
  H           12.557433       38.559303        6.017928
  H           11.890049       37.503484        6.879340
  O           17.680570       34.699486       23.082305
  H           16.876009       35.115221       22.763601
  H           17.856870       35.133075       23.921090
  O            9.579287       11.104409       21.728644
  H            9.029738       10.868480       20.977606
  H            8.960967       11.191385       22.458547
  O           33.879539       23.600085       16.377783
  H           34.420128       24.350714       16.120791
  H           33.432227       23.890754       17.176572
  O           16.146595       31.139682       28.307830
  H           15.740105       30.269933       28.313041
  H           15.539697       31.683467       27.799288
  O           23.586025        8.122266       19.415489
  H           22.930186        8.331871       18.746410
  H           23.317287        8.635337       20.181766
  O           40.789628       14.283588       18.059350
  H           40.929141       14.836109       18.831996
  H           40.504765       14.896126       17.376493
  O           28.945550        1.700101       27.817938
  H           29.535054        2.423409       28.043850
  H           29.373698        1.266610       27.075364
  O           22.323379       27.239180        5.724378
  H           22.346042       26.712805        6.526961
  H           22.090896       28.121543        6.024426
  O           28.592911       21.953677        5.363123
  H           29.329792       22.008365        4.750147
  H           27.818092       22.118340        4.819814
  O            3.150392       15.319814       17.689625
  H            2.211659       15.232708       17.871057
  H            3.193123       15.543663       16.756507
  O           33.868091       19.576517        3.091180
  H           33.052835       19.273514        3.497718
  H           33.605989       19.854975        2.210042
  O           39.002172       12.842372        5.913508
  H           39.914331       12.779235        5.620752
  H           39.063233       13.165653        6.815950
  O           19.506689        9.100759       26.057540
  H           19.978904        9.225340       26.884110
  H           20.113305        9.421995       25.385628
  O           36.909451       29.157228       36.471958
  H           37.660221       28.670458       36.819988
  H           36.167435       28.555820       36.573749
  O           29.567550        5.374411       37.614014
  H           28.766498        5.880869       37.767446
  H           30.153238        5.986111       37.160765
  O           20.420704       18.285348       10.223247
  H           21.251983       17.897642        9.939726
  H           19.780085       17.973206        9.579185
  O           21.721961       12.866912       14.719991
  H           22.339063       13.431873       14.249109
  H           21.563568       13.325640       15.548919
  O           27.260155        1.963709       33.595000
  H           27.453739        1.780636       34.517352
  H           26.957016        2.875156       33.591351
  O           10.918300       25.597358       24.328343
  H           10.395842       26.383577       24.153353
  H           10.267455       24.909916       24.491027
  O            9.810775       29.857709        0.000138
  H           10.524056       30.498298        0.051146
  H            9.100688       30.250085        0.514395
  O           31.002140       26.778804       41.503706
  H           30.692678       25.953329       41.883901
  H           30.274016       27.074761       40.951540
  O           12.024225        3.748719        8.838535
  H           12.862891        4.182395        8.664494
  H           11.893225        3.170828        8.082544
  O           19.147223       21.772339       18.997772
  H           19.777156       21.701187       19.718777
  H           18.451335       21.151173       19.226976
  O           40.382045       33.151239       17.812901
  H           39.798947       32.395330       17.914501
  H           39.910441       33.874436       18.233874
  O           20.913159       26.319786       23.771351
  H           20.072753       26.283425       24.234081
  H           21.498055       25.766775       24.295486
  O           23.711886       40.925564       33.230816
  H           22.906974       40.666377       32.776213
  H           23.801893       40.284524       33.940470
  O           39.019884       29.226700       20.121633
  H           38.172805       29.451919       20.513372
  H           39.312267       30.039791       19.702064
  O           19.445992       11.484068       36.542129
  H           20.104656       11.717708       35.883874
  H           18.710642       12.075858       36.364122
  O           37.874663       33.216084        4.813900
  H           37.733331       34.128197        5.078098
  H           38.370266       33.279534        3.993538
  O           30.841712       23.077141       13.139231
  H           31.773020       22.945818       13.331959
  H           30.538148       23.675808       13.826318
  O            7.402629        1.751165       29.332690
  H            6.508301        1.859713       29.000846
  H            7.290079        1.326724       30.186988
  O           30.488318       30.782325       29.768385
  H           30.263070       30.555166       28.863185
  H           31.401002       31.077807       29.720006
  O            4.343292       22.795615       16.721622
  H            3.417177       22.670371       16.501736
  H            4.498290       22.192780       17.453201
  O           37.330043       39.422017       34.378786
  H           37.023696       40.130638       33.808056
  H           37.013457       39.665666       35.252314
  O           16.285226       24.438214       19.166644
  H           15.666537       24.480020       18.433704
  H           16.088024       23.602821       19.597773
  O           33.462092       32.067381        5.474235
  H           32.508690       32.140902        5.559932
  H           33.598172       31.218982        5.044883
  O           11.541361       14.255855        8.184500
  H           11.001912       14.881398        8.673800
  H           11.570128       14.612112        7.292931
  O           32.650946       34.883108       23.590001
  H           32.410390       35.797557       23.756254
  H           33.362706       34.707198       24.210562
  O           12.199251        6.849822       21.075979
  H           11.888553        6.411675       21.871730
  H           13.112577        6.565556       20.988401
  O           18.766187       34.081474       19.093222
  H           19.648199       34.129837       18.717136
  H           18.850435       34.500638       19.953366
  O           31.212939        6.652233       28.293706
  H           30.889305        5.750328       28.353318
  H           30.938070        7.059234       29.119199
  O           36.373299       13.736057       25.553839
  H           37.162991       13.314367       25.900668
  H           36.595457       13.945963       24.643220
  O           37.191708       34.271311       10.400683
  H           37.158804       34.712841        9.548807
  H           38.129475       34.198595       10.595485
  O           28.626021       24.362474       32.264943
  H           27.860157       23.889346       32.598600
  H           28.856066       23.902001       31.453965
  O            7.289929        8.044690       17.483702
  H            6.736912        8.790351       17.728418
  H            6.706657        7.284186       17.547489
  O           23.413159       21.747927       16.821561
  H           22.847564       20.978778       16.720383
  H           24.262208       21.386167       17.087810
  O           12.032101       38.711265       35.923850
  H           12.569880       39.296860       36.461992
  H           11.207064       39.188297       35.803865
  O            7.475522       19.551681        0.232903
  H            8.320490       19.159875        0.000000
  H            7.119318       18.967162        0.906771
  O            7.139264        9.956616       22.308531
  H            7.434226        9.462153       21.540268
  H            6.392362        9.453901       22.643280
  O           40.813348       41.034236       21.760871
  H           40.322863       40.261216       22.049990
  H           40.319397       41.360922       21.004610
  O            3.871425        3.608192        6.850193
  H            4.731742        3.723638        6.440007
  H            3.356805        4.357497        6.539789
  O            0.895465       28.459608       38.314747
  H            1.258369       27.579281       38.192075
  H            1.651841       29.044364       38.222016
  O            1.870927       19.101916        4.709951
  H            0.965353       19.195738        4.405225
  H            2.010648       18.152594        4.753644
  O            3.339196       20.165891       14.824998
  H            3.011159       20.645002       15.589569
  H            2.551392       19.965015       14.313475
  O           29.852707       30.694191        4.871529
  H           30.765212       30.412908        4.971231
  H           29.346308       29.878895        4.910187
  O           10.217823       35.687068       12.953391
  H           10.897537       36.100631       12.416101
  H            9.754646       35.105137       12.345554
  O            5.838530        1.728040       20.702112
  H            5.802348        1.368500       19.812648
  H            6.668041        2.211527       20.730289
  O           32.436458       34.376566        1.207303
  H           32.256153       33.812577        1.963035
  H           32.653765       35.229206        1.592561
  O           36.226349        5.605931        8.070128
  H           36.310544        5.807630        7.135273
  H           37.041391        5.933224        8.459008
  O           19.764027        3.988144        7.690331
  H           19.965755        4.615881        6.992493
  H           19.865819        3.128350        7.274358
  O           33.665089       16.220270       33.467175
  H           32.976034       16.422153       34.104491
  H           33.742204       17.018523       32.938510
  O           40.128501        3.527248       39.753771
  H           39.723876        4.389672       39.873060
  H           40.780509        3.663454       39.061691
  O           30.559167       27.735824       13.317604
  H           30.872922       26.860866       13.077331
  H           31.202157       28.052400       13.957124
  O           33.458385        7.685269       28.940645
  H           34.264398        7.308039       29.300875
  H           33.493710        7.473510       28.004401
  O           37.019309        1.647076        8.120262
  H           36.483932        1.041893        7.601755
  H           36.417895        2.359571        8.351119
  O            1.700196       27.490823       31.873289
  H            1.905003       27.024875       31.059243
  H            1.687576       26.803855       32.544525
  O           13.065871        5.555862       16.211689
  H           13.696406        6.239451       16.450133
  H           13.247428        5.376541       15.285663
  O           22.673813        2.527505       24.548977
  H           22.418058        2.032123       23.767369
  H           22.688884        1.872925       25.251786
  O           35.028847       35.191003       13.522481
  H           35.050637       35.669103       12.690212
  H           34.922793       35.875498       14.187958
  O           33.110216        1.917131        2.114671
  H           33.759098        2.252519        2.737721
  H           33.631389        1.455076        1.453213
  O           21.840772       41.604485        6.967693
  H           21.331787       40.803275        6.823741
  H           22.690039       41.424537        6.556589
  O           19.896222        6.452041        4.761448
  H           19.188923        5.811591        4.655249
  H           19.508335        7.149111        5.296498
  O           36.009189        9.526678       13.213881
  H           36.430660       10.307520       12.847312
  H           35.425120        9.868735       13.895426
  O           34.223618       37.198079       41.439021
  H           33.708667       36.613397       42.000000
  H           34.092708       36.853751       40.551923
  O            9.224131       17.907309       24.120711
  H           10.120074       17.620762       23.928608
  H            8.673664       17.371818       23.543756
  O           35.418857       36.140799       29.565434
  H           34.497411       36.370301       29.706825
  H           35.552159       35.351497       30.096353
  O            6.909688        1.109723        4.306610
  H            7.091571        0.261684        4.718281
  H            6.523628        0.884164        3.456479
  O           13.884341       22.931875       23.074174
  H           14.269879       22.973462       22.195906
  H           14.145803       22.070300       23.408790
  O           10.868803       19.200373       21.060485
  H           11.807068       19.248632       21.258109
  H           10.440504       19.277582       21.916780
  O           13.793763       17.852285       28.321278
  H           13.497347       18.017371       29.219392
  H           13.301344       18.481574       27.788210
  O           41.744536       12.755653       11.763226
  H           41.663355       13.676848       11.505280
  H           41.111208       12.651451       12.477844
  O           18.650428       24.170445       20.501554
  H           19.265641       24.855742       20.230251
  H           18.328768       23.798518       19.676419
  O           27.275855       39.445868       40.495896
  H           27.610889       38.592670       40.781432
  H           26.748584       39.246805       39.718078
  O           37.129103       41.798675       32.063247
  H           37.929599       41.974319       31.563167
  H           36.524324       41.420339       31.420016
  O           31.057156        5.624717        8.260644
  H           30.339905        5.889105        7.679805
  H           30.708362        5.757208        9.145761
  O           35.272292       40.528297        8.220089
  H           34.586573       41.106873        7.878380
  H           34.792605       39.842865        8.692026
  O            1.772087       10.368668       36.326133
  H            0.944213       10.034792       35.972755
  H            1.602202       10.482132       37.264699
  O           28.643387       31.296842       32.648206
  H           27.894473       31.861762       32.852457
  H           29.083809       31.739415       31.918274
  O           40.357871       28.112698       35.468357
  H           40.632167       28.374927       36.350243
  H           39.505984       27.688840       35.599789
  O           19.283047       41.913093       35.045212
  H           18.820998       41.402894       34.375934
  H           20.159788       41.522244       35.079908
  O           39.828443        8.460004       14.077253
  H           38.922306        8.368256       13.773572
  H           39.748765        8.615716       15.021736
  O           30.750557       13.252378       12.354225
  H           30.872162       12.322510       12.559854
  H           31.399633       13.704023       12.899532
  O            8.791611        3.798254       11.166023
  H            8.975254        2.989568       10.682259
  H            9.167736        4.493320       10.620077
  O            6.106546       25.025660       27.298996
  H            6.183209       25.182319       26.354906
  H            6.191740       25.897501       27.693049
  O           32.772090       10.641874       12.307782
  H           33.228356        9.836532       12.052888
  H           33.027640       10.781171       13.223168
  O           13.335087       20.125452       13.292320
  H           12.696662       19.440427       13.080475
  H           13.570079       20.503794       12.441274
  O            4.689503       16.758197        7.062919
  H            5.523334       16.394645        7.369971
  H            4.514775       17.490703        7.659196
  O            4.822453       33.834875       35.685090
  H            5.463228       34.389171       36.136631
  H            4.053596       34.400088       35.575377
  O           33.351993       40.132181       24.796717
  H           33.233454       39.276051       24.378728
  H           34.296699       40.188538       24.961018
  O           30.790947       28.701727        3.588771
  H           30.453930       28.615914        2.693908
  H           30.496083       27.902354        4.032281
  O           20.932778        9.977801        1.672030
  H           20.099294        9.700629        2.059594
  H           21.583838        9.802465        2.356150
  O            6.657909       40.548925       18.908612
  H            6.240789       39.747062       19.232266
  H            6.252616       41.252411       19.421923
  O           21.531396       15.942008       32.575267
  H           20.826895       16.197424       31.975129
  H           21.733113       15.034494       32.333666
  O           15.582473       23.583871       25.672721
  H           15.944326       22.846340       25.175896
  H           15.872410       24.361867       25.189708
  O           30.670023       17.409260       29.005923
  H           29.899643       17.981003       29.042655
  H           31.178835       17.742246       28.262369
  O           10.278351       19.197266       18.001917
  H            9.594041       18.533458       17.888763
  H           10.285956       19.373311       18.946158
  O            3.533592        8.424221       36.092977
  H            4.011942        7.737059       35.623174
  H            3.264460        9.039514       35.406228
  O           34.504371       29.230395        4.791254
  H           33.845522       28.548644        4.640060
  H           35.062800       28.872418        5.485984
  O           41.758549       31.477894       39.779583
  H           41.741723       32.070716       40.534569
  H           41.123840       30.791771       40.000992
  O           17.578302       32.670484       35.979145
  H           17.352554       33.339959       35.329094
  H           18.345931       33.027803       36.432699
  O            8.717409       26.262071       29.350380
  H            7.996395       25.635592       29.253492
  H            8.517906       26.955179       28.715997
  O            6.474271       26.212875        4.500743
  H            6.623118       27.151380        4.363711
  H            5.810779       26.175463        5.194299
  O            8.303837        6.536781       40.743813
  H            9.256746        6.570831       40.855752
  H            7.964690        7.152133       41.398766
  O            8.494319       28.887299       10.186338
  H            8.382152       28.186713       10.833116
  H            8.744529       28.429443        9.379861
  O            8.570486       23.121936       31.320067
  H            8.545337       23.842433       31.954083
  H            9.186442       23.419212       30.645629
  O            5.968359       40.758486       36.228843
  H            6.711786       40.184372       36.030260
  H            5.225955       40.353361       35.773484
  O           30.023532       36.784561       41.783565
  H           29.111192       36.533763       41.946230
  H           30.425062       35.995281       41.411472
  O           13.167981       25.392732       35.734597
  H           13.884211       24.972245       35.253006
  H           12.957020       24.772871       36.437384
  O            2.531782       17.999977        1.733174
  H            2.401407       18.873839        1.357549
  H            2.704389       18.163792        2.663773
  O            9.733093       39.563319       29.032813
  H           10.231983       40.317836       29.354586
  H           10.095152       39.392938       28.159586
  O            9.445316        5.837491       22.782573
  H            9.262507        5.395177       21.950308
  H            9.174749        5.205170       23.453099
  O           32.082632        3.205337       31.909737
  H           32.703130        2.497021       31.722667
  H           31.304109        2.756806       32.249389
  O           12.633822       28.123956       19.074592
  H           11.990772       27.488093       19.396912
  H           12.345631       28.321900       18.179938
  O            2.726153        3.799862       11.856441
  H            3.451021        4.246734       12.299833
  H            2.834775        2.875558       12.094153
  O           33.008328       24.893110       13.462335
  H           33.464424       25.737430       13.491066
  H           32.174488       25.087247       13.026831
  O           27.037322       32.555799       12.697811
  H           27.269645       33.477534       12.832556
  H           26.407983       32.363779       13.397599
  O            8.177634        4.863706       19.311819
  H            7.534759        4.939139       18.602772
  H            7.750204        4.300862       19.962320
  O           31.162690       17.679762       32.340622
  H           31.366947       16.794569       32.651166
  H           30.490782       17.547049       31.667147
  O           22.613171       37.399816        3.144753
  H           21.991095       36.866086        2.644874
  H           22.873436       38.095629        2.535861
  O            4.349989       26.264060       21.896530
  H            4.681148       27.165100       21.882879
  H            4.462495       25.954988       20.994056
  O           38.374864       19.012221       27.229485
  H           38.780004       18.159873       27.405807
  H           38.585910       19.190804       26.309589
  O           17.886320       13.428920       17.386105
  H           18.384570       12.667843       17.693081
  H           18.399331       14.185028       17.682350
  O           17.999582       16.653877        2.986267
  H           17.579547       15.917373        2.535869
  H           17.939070       16.429271        3.918218
  O           19.219970        4.832313       16.036849
  H           18.935524        3.919388       15.950914
  H           18.403312        5.328170       16.136039
  O           14.665591       14.823608       31.446754
  H           13.781573       14.842780       31.072761
  H           14.694220       15.586084       32.030237
  O           19.451358        0.350885       40.814619
  H           20.393987        0.238991       40.670899
  H           19.390323        1.073603       41.444376
  O           23.492024       26.905387       14.006132
  H           24.061688       26.841176       14.776252
  H           23.537370       26.034823       13.602766
  O           38.280472       21.407487       24.277272
  H           38.544033       22.005117       23.573639
  H           37.648296       21.912601       24.794820
  O           20.080050       16.930006        3.844360
  H           20.465576       16.052677        3.902572
  H           20.724658       17.502302        4.268152
  O            8.985963       11.146296       24.661794
  H            9.282319       11.467131       25.516757
  H            8.574311       10.300055       24.854306
  O           25.132425       24.924278       14.638245
  H           26.045093       25.092837       14.883907
  H           25.193812       24.329723       13.886329
  O           36.634876        1.265605       25.664291
  H           36.954841        2.126875       25.385790
  H           36.658104        0.732855       24.865367
  O           32.593698       32.377100       17.552135
  H           33.159690       32.963235       18.059898
  H           32.173208       32.951370       16.907120
  O           20.814502       11.877237       24.131086
  H           21.360628       12.611877       24.420524
  H           20.140438       11.798902       24.810898
  O            7.870307       35.192921       30.220093
  H            7.001166       34.811992       30.074448
  H            8.315872       34.559828       30.788693
  O            7.132664       15.040327       22.389424
  H            6.641881       15.373822       21.634680
  H            7.005904       14.088818       22.354707
  O           15.169455        9.192393        0.310614
  H           15.052775       10.081723        0.652963
  H           14.325744        8.762376        0.471482
  O           10.982125       34.108513        9.302017
  H           10.305000       33.452868        9.484652
  H           10.633902       34.610882        8.561065
  O           22.642019       30.885111        6.966036
  H           22.203414       30.050434        7.146773
  H           22.214366       31.211799        6.170404
  O           18.361434       31.290461       19.100695
  H           17.667254       31.903111       19.354661
  H           18.824165       31.736933       18.387123
  O            9.788008        1.058787        9.268874
  H            9.315973        0.570513        8.590275
  H           10.713751        0.864083        9.102346
  O           26.655370       17.618877       22.446290
  H           26.940743       17.072719       23.182496
  H           27.308380       18.322027       22.403870
  O            9.645590       27.116191       13.197876
  H           10.212552       26.358594       13.360126
  H            9.015810       26.806573       12.542013
  O           40.610484       30.447216       35.611780
  H           39.678538       30.651920       35.718074
  H           40.696582       30.200971       34.687339
  O           13.679570        6.127264        1.012734
  H           14.593804        6.420293        1.006801
  H           13.175407        6.914581        0.792293
  O            4.742810       19.369339       20.585446
  H            5.687942       19.498710       20.693677
  H            4.668996       18.751082       19.854041
  O           25.766644       40.008821       25.772972
  H           25.587139       40.433414       26.615126
  H           25.521407       40.666527       25.117287
  O           21.662026        5.226536        5.246698
  H           21.815169        4.805784        4.397440
  H           22.324769        5.920338        5.292014
  O           36.424134       22.974463       21.415082
  H           36.025282       23.198584       20.571037
  H           35.987280       22.159910       21.676431
  O           20.098009       30.042988       16.613460
  H           19.483054       30.290250       15.918898
  H           20.050505       29.084099       16.643731
  O           29.816957       39.042383       22.086859
  H           30.050778       39.866966       22.519428
  H           30.089048       38.361894       22.707779
  O           11.344594       22.598991       27.078070
  H           11.795318       21.771688       27.262846
  H           11.873080       23.263827       27.526777
  O           17.524044       33.199475       29.393184
  H           16.960558       32.983589       30.139911
  H           16.936596       33.166882       28.633918
  O            7.913538       17.139176       27.089988
  H            8.423021       17.012180       27.893745
  H            8.048020       18.063503       26.865990
  O           40.742086       18.521564       16.210854
  H           41.106902       17.874657       15.602458
  H           41.270410       18.424466       17.007150
  O            7.741731       18.703360       20.693718
  H            7.867007       19.612955       20.974199
  H            8.288709       18.618431       19.908706
  O           32.387562       14.126642        7.456330
  H           32.319490       13.230123        7.792997
  H           32.403155       14.676493        8.243771
  O           39.714030       35.697921       27.771132
  H           40.143126       35.766112       28.627258
  H           40.344497       36.082791       27.157105
  O           26.697564       28.208211       15.918286
  H           26.206032       28.849808       16.436431
  H           26.318574       27.361061       16.165966
  O            0.010935       19.455071       23.514108
  H            0.733195       19.941463       23.109771
  H            0.000000       19.758296       24.425469
  O            2.367185        1.187949       14.719482
  H            3.134132        0.823673       14.271352
  H            2.706839        1.954144       15.188762
  O            9.367375       39.426650       34.621008
  H            9.649392       38.876940       33.886154
  H            8.423794       39.542567       34.483677
  O            7.969632       30.078996       32.816964
  H            8.211513       30.321573       31.920095
  H            7.222249       30.645767       33.023924
  O           37.845241       23.185062       32.566320
  H           37.097334       22.641204       32.308292
  H           38.019964       22.933722       33.476782
  O           28.066262       19.559993       24.324279
  H           27.527126       18.795762       24.541094
  H           27.645425       20.288083       24.788416
  O            8.761722       21.172396       22.242170
  H            7.843094       21.448635       22.281407
  H            9.253247       21.932710       22.563056
  O           12.310397       11.873163       36.982919
  H           12.464178       11.088091       37.513709
  H           11.593538       11.625743       36.393395
  O           29.872649       41.392891       34.976388
  H           30.783766       41.603127       34.758691
  H           29.652655       41.996711       35.690284
  O            8.332398       39.079872       37.655045
  H            8.663598       39.808330       37.124592
  H            8.928758       38.352549       37.460114
  O            8.784795       38.184411       16.193453
  H            8.943061       38.111572       17.137578
  H            8.935129       37.297238       15.857351
  O           13.455059       36.624813       22.833390
  H           14.238166       36.824625       22.315178
  H           13.246825       37.450060       23.278640
  O           36.997934        5.332737       11.190743
  H           37.446817        5.961848       10.621139
  H           36.098249        5.664032       11.249515
  O           14.337445       31.422520        2.428174
  H           14.899196       32.130098        2.103376
  H           14.766344       31.129365        3.236102
  O            9.497023       21.689879       17.327658
  H            8.954503       20.897855       17.317935
  H            9.352887       22.088210       16.465568
  O            7.356468        7.431923       30.757044
  H            6.610147        7.936539       31.088845
  H            7.988438        8.098188       30.475356
  O           25.376189       23.702730       16.452581
  H           24.840781       23.138579       15.889733
  H           25.557987       23.163739       17.226583
  O           27.668253       33.433438       10.223144
  H           26.936452       32.840881       10.410411
  H           28.431917       32.999499       10.611931
  O           37.084424        7.652768       12.798754
  H           37.708587        6.962486       12.562839
  H           36.232000        7.210148       12.808885
  O           27.950232       12.448851        2.988183
  H           28.594691       12.034733        3.566891
  H           27.240819       11.804682        2.921684
  O           10.032159       29.178604       14.073456
  H            9.900906       30.129430       14.094106
  H            9.229134       28.818645       14.458453
  O           27.345908       18.310829       26.679319
  H           26.527545       18.754025       26.915082
  H           27.326694       17.491957       27.181037
  O           32.204916       33.515973       36.576203
  H           31.590505       33.366951       37.298710
  H           33.070978       33.492089       36.990940
  O           36.896964       39.952538       25.936767
  H           36.065710       39.597992       26.260866
  H           36.640456       40.565551       25.243182
  O           40.810837       38.347911       14.687204
  H           41.101104       38.975233       14.020919
  H           40.455825       37.611566       14.182818
  O           23.521268       37.114902        5.171436
  H           24.354102       37.505722        4.896897
  H           23.237012       37.655636        5.912683
  O           24.111087        2.656811        3.389291
  H           23.458775        3.288550        3.700932
  H           24.834451        2.731835        4.016792
  O           38.466797       36.906953       33.306661
  H           38.554850       35.951007       33.318477
  H           38.631310       37.172791       34.214905
  O           15.763233        3.951613        4.475339
  H           15.669409        3.440003        5.282294
  H           16.234548        4.742872        4.748126
  O            1.187007        6.157466       13.034085
  H            1.772371        6.400733       12.313048
  H            0.417385        6.720060       12.916560
  O           17.081277       35.284452       29.938006
  H           16.370569       35.752130       30.382861
  H           17.275583       35.823541       29.167116
  O            8.171424       25.141258       19.915118
  H            8.569779       25.791404       20.498512
  H            8.712760       25.169051       19.122133
  O           37.243967       26.937282        5.127905
  H           36.339919       27.079150        5.418240
  H           37.187790       26.186494        4.531412
  O           13.423351       13.508575       29.249454
  H           12.740306       13.850755       28.668002
  H           14.243354       13.840480       28.875187
  O            1.312517       22.876821       15.895142
  H            1.350102       23.835872       15.918266
  H            1.673259       22.644723       15.035702
  O           12.599596       10.829554        5.906490
  H           11.824243       11.361268        6.100997
  H           12.915049       11.167104        5.064355
  O           17.617251        1.503853       35.038779
  H           17.259244        2.392403       35.102309
  H           17.701544        1.347690       34.094772
  O           13.325208       30.801915       33.093840
  H           12.738955       31.516828       33.352553
  H           13.265898       30.779935       32.135382
  O           41.337473       15.260097       26.224264
  H           41.433369       14.404548       26.649193
  H           41.039631       15.843293       26.926984
  O           20.050963       33.433267       34.843061
  H           19.590049       32.985202       34.129954
  H           20.291833       32.729379       35.450651
  O           13.453384       19.934402       16.097298
  H           13.208935       19.374490       15.356712
  H           13.418654       20.826650       15.743280
  O            8.050692       20.647815        8.516715
  H            7.708320       20.799634        7.632714
  H            7.358267       20.970157        9.099196
  O           17.834183        9.191946        7.217616
  H           18.152350        9.173056        6.312002
  H           16.937739        8.851363        7.162542
  O           37.171748       34.798797       27.582163
  H           37.688483       35.347387       26.987386
  H           36.880145       34.064269       27.036198
  O           30.170224       18.079140       18.243791
  H           30.126673       18.933839       17.808684
  H           30.084150       18.282790       19.178542
  O           30.548368        0.883353       39.460322
  H           31.457026        1.166070       39.587348
  H           30.622990        0.000000       39.090508
  O           31.610636        9.651517       35.374954
  H           31.505865        8.863662       34.836407
  H           32.251720       10.183596       34.896890
  O           34.817392       21.773505       11.705722
  H           35.750365       21.724008       11.926715
  H           34.662663       21.004786       11.150950
  O           26.389677       17.189277       41.369617
  H           26.407557       16.383435       41.891177
  H           27.263590       17.569747       41.488615
  O           18.766457       21.436259       40.395602
  H           18.693162       21.083657       41.285560
  H           19.644868       21.175511       40.107425
  O           14.755806        1.418685       34.895210
  H           14.385150        1.118527       34.061997
  H           14.080571        1.994443       35.262908
  O           39.945908       37.162108       30.816984
  H           39.096081       37.398231       30.437819
  H           39.727817       36.567873       31.539455
  O           38.083710       26.943857       14.193840
  H           38.098928       26.845261       13.238972
  H           37.189730       27.235899       14.389165
  O            7.708380       18.318967        4.230851
  H            6.949630       18.747008        3.827360
  H            7.360359       17.925198        5.034884
  O           33.073064       13.819813        0.984247
  H           32.639909       14.495752        0.457742
  H           32.350269       13.325282        1.378770
  O           34.532052       41.825304       32.260734
  H           34.557701       40.869755       32.350133
  H           33.709637       41.999305       31.795977
  O           23.793187       24.636702       26.021282
  H           23.351459       23.799099       26.179463
  H           23.097077       25.216981       25.702927
  O            3.496434       25.899493        0.214182
  H            4.159319       25.310117        0.581528
  H            3.981276       26.701183        0.002373
  O           34.178125       38.106233       37.643339
  H           35.022757       37.663949       37.756062
  H           34.267776       38.922150       38.142221
  O           29.567765       32.275353       41.839089
  H           28.916786       31.574241       41.759127
  H           30.413047       31.819774       41.814832
  O           34.436425        1.495530       12.737633
  H           33.595302        1.482515       13.200308
  H           34.961139        0.822081       13.177844
  O           35.655447       11.163840       37.460027
  H           36.504281       10.756663       37.648212
  H           35.588564       11.880541       38.096037
  O           30.696384       34.973993       18.583848
  H           30.508926       34.176748       18.082865
  H           29.853755       35.433236       18.625241
  O           16.631823       12.336921        8.983926
  H           16.674154       11.439827        9.323271
  H           15.756956       12.402893        8.592903
  O           37.589516       24.849270       22.423380
  H           36.671200       25.071207       22.252607
  H           37.546359       24.068354       22.981008
  O           11.342354       37.687375       37.744809
  H           12.065882       37.119593       38.020229
  H           10.825915       37.141998       37.146063
  O           15.076812       34.322291       14.769726
  H           14.586560       33.780213       15.392244
  H           14.506812       34.374214       13.998333
  O           38.327700       10.610674       30.084832
  H           38.661184       10.943784       30.921224
  H           39.070404       10.694740       29.481536
  O            2.282330        6.012064       20.206830
  H            2.615812        5.382195       20.850087
  H            1.835307        5.469959       19.551899
  O           20.504885       32.065442       28.409167
  H           20.669231       32.960704       28.714489
  H           21.247092       31.870536       27.831428
  O           27.066221       20.339025       33.168130
  H           26.413808       20.932354       32.788602
  H           26.714713       19.460628       33.002290
  O            2.767471       23.980316        8.579793
  H            3.063026       23.068976        8.641695
  H            1.852491       23.915399        8.294766
  O            3.087382       37.877555       31.900675
  H            3.126511       37.441517       31.046237
  H            3.840175       38.474162       31.898594
  O           36.183883       10.298790       23.929929
  H           36.630458       11.119831       24.149444
  H           35.313988       10.386800       24.327647
  O            3.474064       17.885498       37.984951
  H            2.550676       17.860474       38.246588
  H            3.539474       18.655561       37.414542
  O           26.234277       24.912390       40.456516
  H           26.964877       25.470527       40.180054
  H           25.551350       25.070985       39.799934
  O           36.010406       28.594234        3.180022
  H           35.748888       27.670485        3.175523
  H           36.681266       28.648777        3.865306
  O           39.332062       14.790043       37.503370
  H           39.141367       14.190972       38.228956
  H           39.566736       14.212429       36.772664
  O            4.040998       13.131655        2.631220
  H            3.197675       12.679715        2.551961
  H            4.254201       13.076355        3.566168
  O           23.367668       34.519102       39.906455
  H           22.652663       34.468846       39.267732
  H           22.967092       34.243745       40.734923
  O           21.974748       21.231356        6.948970
  H           21.632204       20.507554        7.478591
  H           22.254757       21.886494        7.593199
  O           26.312909       12.442485       39.181791
  H           26.800593       12.990846       38.562767
  H           26.513517       12.818418       40.042646
  O           27.265404       24.150938        2.712695
  H           27.445577       24.025661        3.647343
  H           26.307004       24.135499        2.650462
  O           21.992388        2.957062        5.595361
  H           21.361920        2.277117        5.844179
  H           22.848456        2.528418        5.673167
  O           35.140520       14.860014        6.541512
  H           35.960414       15.255118        6.847112
  H           34.501195       15.079481        7.223963
  O           12.430951        6.271538        3.371528
  H           11.685944        6.581141        2.851108
  H           12.057595        5.597195        3.944686
  O           35.788653       38.859311       24.040500
  H           36.106300       38.934253       23.137611
  H           36.410565       38.261670       24.463220
  O           24.525744       29.086163       14.277819
  H           24.857231       28.732768       13.448993
  H           23.584175       29.202658       14.127755
  O           35.595084        4.519711        3.540315
  H           34.779806        4.250432        3.110738
  H           35.661409        3.945343        4.307351
  O           29.194202       33.004024        5.992684
  H           28.673911       32.639097        5.273066
  H           29.584984       32.236297        6.417567
  O           25.150442       35.530090       20.231579
  H           25.499873       36.122529       19.561773
  H           24.558656       36.080117       20.751100
  O           31.659545       13.259078       20.824228
  H           32.049184       14.030073       20.405333
  H           30.770363       13.538020       21.057013
  O            8.008880       27.429139       35.269600
  H            7.312507       26.768239       35.268546
  H            8.537756       27.217003       36.042860
  O           12.990490       22.821750       40.520355
  H           12.032979       22.810575       40.451262
  H           13.210407       21.977512       40.922276
  O           34.022529       20.970739       26.952879
  H           33.367033       20.386565       26.564562
  H           33.511272       21.707503       27.297024
  O           34.103483       26.521653       38.021168
  H           34.807287       27.025141       37.605376
  H           33.359157       26.611608       37.420727
  O           19.756129        6.904319       40.016055
  H           19.633927        6.848473       40.966672
  H           19.235420        6.177211       39.665601
  O           18.170497       10.409606       30.010933
  H           18.656328       10.413631       29.182876
  H           17.282879       10.136794       29.765272
  O           20.868663       33.839317       37.502041
  H           20.303589       34.599376       37.344791
  H           21.609339       33.964973       36.903499
  O           27.877682       12.861222        8.761893
  H           28.366166       13.647665        8.507695
  H           27.307964       13.155220        9.477175
  O           34.246003       35.373294       10.390542
  H           35.105192       34.979449       10.559081
  H           33.649592       34.623578       10.320820
  O           10.199143       19.211783       13.608679
  H            9.328968       18.812608       13.536702
  H           10.801635       18.464730       13.648135
  O            2.235952       28.577822       25.963193
  H            2.829559       27.992556       26.439448
  H            1.367652       28.382108       26.324293
  O           10.136093        1.284389       11.446913
  H           11.074190        1.375613       11.264220
  H           10.077842        1.294124       12.405638
  O           36.480796       38.221417       29.583961
  H           35.557273       38.468258       29.495080
  H           36.626196       38.179609       30.532514
  O           11.221566        5.868948       13.196890
  H           11.807296        6.628619       13.236201
  H           11.539579        5.286488       13.891332
  O           11.969025       20.626364       18.169521
  H           11.908174       21.120235       17.348477
  H           11.808753       21.280967       18.853955
  O           27.074599       21.052347       19.537047
  H           27.668623       21.607753       19.026768
  H           27.060273       21.456144       20.408474
  O           26.586951       26.109039        0.268601
  H           26.538902       27.066550        0.319474
  H           25.761062       25.807957        0.655767
  O           24.009188       36.362717       23.975652
  H           24.471215       36.952112       24.576376
  H           24.215946       36.703136       23.101577
  O           37.307663       35.617675       39.086076
  H           36.384400       35.360455       39.029963
  H           37.319808       36.529709       38.784932
  O           28.373645       11.022207        0.635874
  H           28.429367       10.231902        1.178127
  H           28.857024       11.686980        1.132929
  O            4.332988       14.748181       33.260447
  H            5.247627       14.846650       33.535153
  H            3.931438       15.597732       33.459604
  O            4.173677       25.503390       32.856110
  H            4.654148       24.788667       33.280427
  H            3.765757       25.093964       32.088899
  O           39.471499       24.858156       18.599405
  H           39.063203       24.769075       19.463745
  H           40.201319       24.233846       18.614976
  O            7.568973       38.017034        7.318151
  H            8.137186       38.189135        8.072631
  H            7.738245       37.097761        7.096960
  O           34.463145       32.047226        1.633659
  H           34.272801       32.933240        1.950636
  H           35.169193       32.169405        0.993963
  O            5.766363        2.514966       11.919312
  H            6.333349        3.193270       11.544938
  H            5.347982        2.942126       12.671065
  O           29.115251       35.105712       10.779847
  H           29.622380       35.037335        9.967524
  H           28.292743       35.523911       10.512952
  O            4.430573       32.491373       22.677322
  H            5.011426       31.768549       22.428605
  H            4.888206       32.926826       23.400920
  O           28.632880       27.691340       14.405281
  H           27.793013       27.567103       13.957046
  H           28.814439       28.630288       14.315532
  O           12.755739       33.066358       13.743606
  H           12.418015       33.673939       13.081402
  H           13.150469       32.353975       13.234350
  O           36.093973       15.534648       20.439676
  H           36.264029       14.910538       19.730245
  H           36.062586       14.992367       21.231881
  O           15.062257       16.096080        4.783952
  H           15.773696       16.518186        4.296709
  H           14.282999       16.612549        4.563363
  O            2.988757       15.161518       20.634446
  H            2.857955       15.984472       20.157621
  H            2.435206       15.247479       21.414724
  O            9.066569       30.049381       35.978348
  H            9.460116       29.973330       35.105960
  H            8.250066       29.547284       35.916176
  O           25.305543       19.847922       21.306807
  H           25.552821       20.641022       21.788027
  H           26.136538       19.506318       20.967108
  O           19.714145       14.287014       26.377048
  H           19.206189       15.065475       26.617263
  H           20.425821       14.626591       25.828553
  O           21.517252        5.526117        9.648323
  H           20.575626        5.346756        9.594509
  H           21.736297        5.908477        8.794823
  O           16.381903       20.111674       11.110878
  H           16.410277       20.994184       10.733920
  H           15.576139       20.101492       11.633642
  O           33.533868       32.284508       28.039478
  H           32.604546       32.089620       28.181267
  H           33.998135       31.621781       28.557059
  O            9.193994       21.410242       12.084611
  H            8.977748       21.629084       12.994046
  H            9.225299       20.450301       12.071346
  O            4.029637        9.399259       19.772818
  H            3.499065        9.136064       19.017208
  H            4.118165       10.351387       19.681956
  O            7.280206       29.094704       37.838532
  H            6.862571       28.247944       37.664451
  H            6.675320       29.540342       38.436997
  O           27.397163        3.815893       28.972851
  H           28.182851        3.583902       29.473451
  H           27.300181        3.102379       28.337135
  O           10.380374        8.307430       39.713181
  H           11.249770        8.012081       39.432742
  H           10.559189        8.990177       40.364736
  O           31.992212       21.481588        3.556594
  H           31.562853       22.311463        3.777239
  H           31.982092       20.982350        4.377143
  O           22.801963       15.793584        8.375446
  H           22.762498       15.158389        9.094261
  H           22.061244       16.383280        8.537422
  O            4.165651       29.243286       21.377720
  H            4.937477       29.677923       21.747992
  H            3.575282       29.127132       22.126462
  O           16.145703       10.030300        4.156458
  H           16.664810       10.795904        4.413563
  H           15.717081       10.296422        3.339081
  O           39.109851       13.755561       19.528990
  H           39.267013       12.847047       19.796623
  H           38.450051       13.688689       18.834128
  O           37.267692       22.903636       38.180209
  H           36.429619       22.539875       37.885190
  H           37.929724       22.369533       37.734015
  O           18.046263       29.202176       19.746179
  H           17.568119       28.385046       19.586795
  H           18.971564       28.955456       19.671416
  O           21.589115        4.334524       14.973966
  H           22.103502        4.906022       14.399056
  H           21.642122        4.753934       15.836478
  O           18.295504        9.240435       20.434050
  H           18.314803        9.147778       21.389438
  H           18.144621        8.348519       20.110999
  O           38.087201       33.730397        7.791932
  H           38.218406       33.036414        7.141626
  H           38.876660       33.697684        8.338124
  O            4.275783       37.976178       14.489664
  H            3.416030       37.640997       14.754623
  H            4.075300       38.725014       13.922485
  O           14.614873       39.788820       12.110552
  H           15.109286       39.089693       12.544721
  H           14.064688       39.329857       11.470793
  O           33.962551       28.410348       35.882512
  H           33.931745       29.081344       36.568471
  H           34.032829       28.908766       35.064415
  O            9.650426        6.903166        3.894821
  H            9.391388        7.790480        3.635400
  H            9.062154        6.686195        4.622489
  O           14.514286       24.423438       15.055896
  H           15.211556       25.071542       15.180403
  H           14.322062       24.457724       14.115409
  O           27.059525        0.662529       20.727184
  H           27.433329        1.492680       21.031887
  H           27.580651        0.436430       19.952621
  O            5.373397       15.003967       41.148624
  H            5.299368       15.955908       41.248886
  H            5.100706       14.652625       42.000000
  O           32.340823       18.532777       21.161844
  H           31.608889       17.914729       21.225197
  H           31.941631       19.342193       20.833009
  O            3.979164       40.559158       40.540862
  H            3.178394       40.885043       40.123378
  H            3.885689       40.809129       41.463586
  O            1.968415       10.325339       31.782617
  H            1.113617       10.758068       31.721039
  H            2.604254       11.035595       31.664772
  O           20.062594       28.019075       13.421355
  H           19.969510       28.663439       14.126943
  H           20.970786       28.119417       13.125109
  O           32.092394        5.812540       11.170254
  H           32.790209        6.168464       10.615187
  H           31.915409        6.509519       11.807073
  O           12.953675       40.646079       15.470452
  H           12.222334       41.268016       15.462744
  H           13.737274       41.198765       15.414301
  O           27.632297       24.523988       22.391340
  H           28.422582       24.516251       21.846258
  H           27.023181       23.936840       21.936504
  O           27.770556       14.663593       13.646315
  H           27.225474       15.341932       13.240770
  H           28.365986       14.385722       12.945677
  O           21.707696       23.836414        4.767756
  H           21.257978       23.054316        4.439425
  H           21.022019       24.508103        4.804131
  O            2.681725       25.551055       10.523502
  H            1.907988       25.002242       10.671354
  H            3.009758       25.743318       11.405585
  O           32.944392        4.945575       25.594190
  H           32.597622        5.343529       26.396130
  H           33.556512        5.600185       25.248592
  O           36.847690       28.026057       10.822550
  H           37.238783       27.265094       11.258104
  H           36.124079       27.660221       10.307580
  O           15.145926       31.991417        9.005626
  H           15.343816       31.587570        9.853843
  H           15.764068       31.580555        8.395926
  O            9.832121        3.996672        2.685603
  H            9.863584        4.901853        3.004012
  H           10.146202        4.051591        1.779525
  O           28.732382        4.401565        7.944501
  H           28.014898        4.823125        8.423280
  H           28.294819        3.776322        7.361191
  O           33.884173       20.374886       20.841947
  H           34.128658       20.991194       21.536293
  H           34.056111       20.853384       20.027012
  O            8.496382       31.614976        2.130529
  H            9.191681       31.096992        2.542811
  H            8.185395       32.195799        2.829509
  O           40.217676       32.182883       13.788333
  H           41.083319       32.225119       13.375293
  H           39.980360       31.252905       13.750078
  O           11.204011       28.105283       15.752014
  H           12.120713       27.994956       16.015095
  H           11.074898       27.453425       15.058434
  O           12.084104        5.120416       41.083326
  H           11.584207        5.904707       41.321477
  H           12.672063        5.415798       40.383543
  O           24.918720       38.931337        2.043534
  H           25.651108       39.413902        1.653069
  H           25.284240       38.552223        2.846845
  O           28.326988       35.124622        1.465520
  H           29.186517       35.202299        1.886116
  H           28.215117       34.181152        1.324131
  O           35.245769       40.350616        3.788937
  H           35.368561       39.605157        4.381337
  H           35.877408       41.005838        4.096116
  O           23.619671       24.468978       20.798210
  H           23.793204       23.655944       21.278405
  H           22.918500       24.237929       20.183704
  O           32.142727       28.252338        6.626667
  H           32.983536       28.408172        7.063107
  H           32.182331       27.332017        6.354486
  O           32.708031       30.824220        7.325867
  H           33.311897       31.515802        7.606552
  H           32.560264       30.300895        8.117661
  O           18.705723       36.629488        5.710832
  H           19.661958       36.546944        5.687902
  H           18.548830       37.456696        6.173165
  O            4.199771       31.155067       20.279332
  H            3.571620       31.737249       20.713169
  H            3.657528       30.595051       19.718087
  O           35.348818       33.369475        8.445512
  H           35.104368       34.293503        8.355281
  H           34.634159       32.982697        8.957673
  O           26.971764       22.097831       14.950679
  H           26.719651       23.002893       14.753126
  H           27.824846       21.989148       14.522799
  O           26.008785       20.629385        2.581316
  H           26.468691       21.183883        3.215936
  H           25.170824       20.426792        3.004895
  O            4.828389       10.075776       13.674901
  H            4.979797        9.134212       13.564183
  H            4.784052       10.417206       12.778184
  O            5.804646        8.874409        8.223504
  H            5.134137        8.824283        7.538208
  H            5.397772        8.455712        8.986254
  O            5.938493       11.897969       24.041766
  H            5.824175       12.828834       23.836472
  H            5.310314       11.730878       24.748954
  O            9.971855       31.951889       32.526735
  H            9.358869       32.632398       32.238846
  H            9.543735       31.551870       33.287878
  O           10.524486       11.107169       39.765129
  H           11.170185       11.789925       39.961707
  H           10.809537       10.744953       38.922403
  O           25.334116       18.158125        1.338157
  H           26.272349       17.978096        1.433199
  H           25.290114       19.097803        1.143964
  O           10.587967       30.910398       11.391477
  H           10.524217       29.952499       11.381935
  H           11.251342       31.098557       12.060186
  O           40.386091       17.090386       18.990295
  H           40.146393       18.009756       18.852351
  H           40.028885       16.878213       19.856336
  O           15.144662       14.022600       36.104398
  H           15.490735       14.898633       35.918590
  H           14.492241       14.165458       36.794746
  O            0.000006       40.420340       17.819783
  H            0.101252       41.194554       18.378412
  H            0.511755       40.625318       17.033182
  O           17.055325        4.656968        8.036235
  H           16.303522        4.499647        8.612228
  H           16.664102        4.841790        7.178664
  O           38.763110       18.446223       40.128211
  H           38.117846       18.493515       39.418900
  H           39.605497       18.606196       39.695273
  O            9.969259       19.859546        6.412885
  H            9.107112       19.520057        6.161538
  H            9.821321       20.279307        7.264094
  O           30.803130       25.099566        7.475773
  H           31.270774       24.501385        6.888224
  H           31.497850       25.527715        7.982422
  O           36.185840       23.628897        5.249542
  H           36.243987       24.199892        4.479926
  H           35.525417       24.047362        5.807547
  O           22.931519       36.329975        8.328035
  H           22.060508       36.705011        8.477744
  H           22.762632       35.404177        8.135637
  O           28.933589       25.986469       37.591557
  H           28.508540       26.812482       37.349151
  H           29.681158       25.918164       36.992293
  O           27.986606       38.755361       28.830397
  H           27.195844       38.303668       29.134363
  H           27.669333       39.367564       28.161676
  O           12.799975       36.527093        2.000380
  H           12.150833       35.820443        1.968971
  H           13.475423       36.203810        2.601962
  O            7.747622       24.236765       15.947777
  H            8.169822       24.091556       16.797710
  H            7.985335       23.464488       15.428427
  O           17.952934       13.368563       11.527744
  H           17.788680       13.322672       10.582948
  H           18.649095       14.024313       11.617148
  O           16.431686       22.993695        4.342825
  H           17.276037       23.433657        4.466228
  H           16.112845       22.835085        5.234915
  O           28.038655       21.227785       16.666710
  H           28.760964       21.859557       16.696017
  H           28.326208       20.510246       17.236879
  O           37.172478       36.722348       36.598620
  H           38.084013       36.834422       36.318857
  H           36.991170       35.790417       36.452766
  O           36.192962       12.365399       16.489937
  H           35.988199       12.300284       15.554225
  H           36.569409       13.243291       16.591103
  O           26.234334       40.321578       31.161432
  H           27.174952       40.256985       30.980350
  H           26.049799       41.263734       31.130917
  O            5.265326       26.774680        1.794730
  H            5.939338       27.427023        1.590081
  H            5.718835       26.125898        2.338838
  O           13.987204        2.770514       41.598708
  H           13.687827        3.679389       41.520952
  H           13.246516        2.309008       42.000000
  O           25.632700       14.973482       11.524707
  H           25.541831       15.887786       11.246291
  H           26.250199       14.592768       10.895109
  O           33.266648       16.169173       16.696708
  H           33.136445       15.254440       16.435871
  H           34.044638       16.148150       17.259674
  O           29.967712       34.694426       23.051158
  H           29.012123       34.616852       23.000594
  H           30.226067       35.025772       22.187384
  O            5.983315       20.383481       26.338841
  H            6.586839       21.129226       26.302126
  H            6.522313       19.628110       26.090771
  O           40.290427        1.479831       38.241543
  H           40.055872        1.352613       39.163781
  H           40.117222        0.628486       37.831843
  O           12.588583        3.205361        2.054382
  H           12.311802        3.873115        1.422542
  H           11.950851        3.274703        2.769317
  O           16.440883       38.026766        5.803314
  H           16.053178       38.696126        6.371967
  H           15.825520       37.290565        5.847797
  O           12.192753        2.018132       21.431906
  H           12.617205        2.875208       21.515494
  H           12.225482        1.826584       20.491225
  O           25.463370       35.533785       16.718444
  H           25.870534       36.180173       16.136960
  H           25.051796       36.059870       17.408722
  O           40.017850        2.890215       10.944757
  H           39.312716        2.749513       10.308586
  H           40.068289        2.063658       11.431482
  O           27.477392       28.380637        3.037234
  H           28.037239       28.469401        3.812100
  H           27.678623       29.156272        2.507574
  O           28.598488       34.831479       32.041151
  H           28.846959       33.950025       31.753011
  H           29.215485       35.033706       32.749007
  O           35.624344       16.320561       34.836524
  H           35.501324       17.104314       34.295855
  H           34.864546       16.314612       35.424159
  O           10.186681       32.241394        7.552681
  H            9.284133       32.393134        7.842695
  H           10.410892       33.028243        7.049450
  O           17.208213       29.101447       22.084685
  H           16.323789       29.243481       21.739222
  H           17.328355       28.149147       22.048193
  O           21.134903       14.847195       34.507915
  H           22.020404       15.141229       34.734092
  H           21.079369       13.958609       34.868434
  O           31.229301       28.387230       16.161034
  H           30.368446       28.728394       15.907538
  H           31.042192       27.778320       16.879964
  O            3.624262       20.675906        9.487775
  H            4.039404       19.815598        9.583964
  H            3.402422       20.730622        8.554804
  O           19.945518       27.999762       32.083508
  H           20.156471       27.094191       32.322599
  H           19.296981       27.915712       31.379961
  O            2.882704       36.473837       37.193994
  H            2.983824       37.009806       37.984080
  H            3.758119       36.110188       37.038913
  O           35.013425       12.034046       13.329784
  H           35.715291       12.679697       13.219132
  H           34.358356       12.484063       13.869238
  O           16.375090       18.849986        1.061252
  H           16.367048       19.621319        0.489671
  H           16.217564       18.111568        0.467479
  O           15.547386        8.020193       21.596050
  H           14.964088        8.055407       22.357790
  H           15.404650        8.857511       21.147534
  O           21.101056       18.309009       38.660792
  H           21.300878       18.017677       39.553497
  H           20.956910       19.254904       38.745327
  O            9.126697       19.682120       33.886606
  H           10.012298       20.052842       33.886880
  H            9.094666       19.141756       33.093118
  O           13.157222        9.466657        2.477004
  H           13.036755        8.517331        2.554410
  H           12.886791        9.811787        3.331635
  O           21.575985       25.864755       12.612743
  H           21.567452       24.912575       12.735244
  H           20.676139       26.080027       12.354715
  O           27.613362       24.595909        6.347574
  H           27.609723       25.554849        6.393890
  H           26.683815       24.353922        6.342371
  O           20.914612        8.534779        7.395060
  H           20.586838        8.904062        6.571702
  H           20.221470        7.933662        7.679409
  O            5.909187       10.480205       39.872270
  H            5.737739       11.017346       40.649322
  H            5.396556       10.898107       39.175700
  O            6.894395       41.542017       34.066487
  H            6.085796       41.988166       33.804106
  H            7.170975       41.999528       34.864503
  O            2.341418       17.486270       40.603892
  H            3.220835       17.209679       40.871937
  H            2.402254       18.442552       40.537073
  O           35.819520       33.323141       38.421441
  H           35.952807       32.560075       37.854263
  H           36.384495       33.157667       39.180429
  O            1.482570       14.043425       25.899503
  H            2.177264       13.984533       26.559546
  H            1.487577       14.965277       25.629675
  O           26.489653       10.223411       11.642063
  H           27.420622       10.307107       11.422934
  H           26.362519       10.828057       12.377510
  O           30.093649       13.304999       17.590988
  H           30.984987       12.948320       17.586324
  H           29.975244       13.639210       18.483695
  O           11.048034       19.614039       24.004290
  H           10.997475       20.570663       24.067854
  H           11.889233       19.447978       23.571335
  O            7.819924       15.526206       24.442685
  H            7.951975       14.580458       24.541920
  H            8.217046       15.906343       25.230361
  O           22.460357       38.860057       17.150037
  H           21.666259       38.666295       17.653613
  H           22.187964       39.538443       16.526951
  O           13.105405       26.081809       16.529420
  H           14.042744       26.277351       16.599309
  H           12.948139       26.002520       15.585162
  O           19.572922        3.000865       18.056684
  H           18.868288        2.401649       17.799475
  H           20.032321        2.539519       18.762909
  O           13.708659       27.994575        1.053534
  H           14.584026       27.610420        1.142322
  H           13.251419       27.408042        0.445625
  O           27.503276       18.292770       34.691751
  H           27.915714       17.449182       34.491802
  H           27.927894       18.579112       35.504370
  O            5.700012       16.888056        1.827861
  H            5.113307       17.634768        1.969013
  H            6.397474       17.006694        2.477563
  O           18.835215       40.407268        2.130772
  H           17.953483       40.217110        1.801965
  H           19.398636       40.338450        1.355877
  O           38.007999       35.503121       30.678211
  H           37.685387       35.819530       29.831139
  H           37.728051       34.584904       30.712084
  O           29.673207       19.491370       38.252535
  H           30.375871       20.108024       38.470998
  H           29.975308       19.060628       37.448894
  O           23.481956        5.809802        7.172555
  H           23.427790        4.887515        6.911446
  H           24.124368        5.818113        7.886614
  O           13.364782       40.705330       28.367999
  H           12.949600       40.942621       27.535507
  H           13.480593       41.542805       28.823921
  O           39.060069        1.761775       41.663869
  H           38.743780        2.272529       40.914992
  H           39.804401        2.267371       42.000000
  O           31.697780        1.893939       14.535549
  H           31.017350        2.309696       14.000866
  H           31.316749        1.050555       14.792767
  O           10.555162       37.173449        8.594657
  H           10.447533       38.125625        8.535488
  H            9.915889       36.821955        7.969818
  O            4.053537       28.919106       37.412364
  H            4.926157       29.214852       37.142561
  H            3.801061       29.527684       38.111314
  O           10.956256       28.377683       30.413717
  H           10.612148       27.537032       30.724554
  H           11.119433       28.237067       29.477639
  O           41.063302        8.237654       23.012667
  H           42.000000        8.061481       22.897403
  H           40.645926        7.809790       22.260755
  O           24.256432       30.032462        4.689421
  H           23.994047       30.936805        4.502223
  H           23.649848       29.745623        5.376750
  O           30.957233       30.439497       32.710148
  H           31.378107       30.539918       31.853115
  H           31.642080       30.674992       33.341154
  O           12.250882       24.349968       38.731282
  H           13.203015       24.440120       38.815191
  H           11.895837       24.926338       39.412738
  O           13.890319       10.133102       19.467805
  H           13.534419        9.362570       19.916514
  H           14.005051        9.847350       18.557957
  O           22.990096       21.574377       41.290197
  H           23.400656       21.075033       42.000000
  H           22.190459       21.933552       41.682900
  O           33.332630       18.121481        0.004432
  H           33.302952       19.081077        0.000072
  H           33.647874       17.896677        0.883480
  O           36.799217       20.508594       26.515650
  H           37.525641       21.053132       26.827919
  H           36.132788       21.139687       26.232390
  O           28.346322        9.019238       16.202960
  H           27.429560        8.796511       16.025012
  H           28.624916        8.375775       16.859452
  O           20.415194       31.088017        8.894881
  H           20.216491       30.181132        9.139425
  H           19.807896       31.279579        8.175760
  O           36.002723       17.534976        7.415420
  H           36.887095       17.214838        7.222749
  H           36.143307       18.295721        7.984757
  O           26.612697       37.276674        5.796785
  H           26.187039       37.727307        6.529908
  H           27.476329       37.691910        5.730744
  O           30.286753       13.460920        3.501262
  H           31.084920       13.976557        3.638280
  H           30.514750       12.851920        2.794312
  O           32.188317        4.532832       21.305279
  H           32.317742        5.355110       21.783643
  H           32.129297        4.799476       20.384377
  O           29.762261       13.756516        6.532851
  H           29.816445       12.809483        6.384809
  H           30.235334       14.141308        5.790707
  O           33.923250       17.174510       37.767588
  H           33.438730       17.849375       38.248756
  H           34.416925       17.662904       37.103964
  O           35.411882        9.905645       20.679133
  H           34.928166       10.549090       20.155949
  H           35.508067       10.321763       21.539503
  O           40.253497       12.416559        8.914576
  H           39.539994       11.776425        8.968132
  H           40.821559       12.082517        8.215746
  O           41.307688       23.323724        5.462785
  H           40.417192       22.969530        5.520129
  H           41.670073       22.929788        4.665205
  O           19.062781       29.195866        2.180885
  H           18.761518       30.067087        2.449099
  H           19.582838       29.356601        1.389464
  O           14.427535       32.651758        6.378430
  H           15.272917       32.560002        5.932745
  H           14.633456       33.133652        7.183425
  O           17.557713        3.879049       33.508320
  H           18.462211        4.157106       33.346167
  H           17.147953        4.636661       33.933482
  O           15.919070        3.652623        0.172973
  H           16.579669        2.958147        0.228082
  H           16.206205        4.306351        0.815496
  O           20.380018        2.921207       34.809205
  H           19.487169        2.600251       34.662459
  H           20.667594        2.469759       35.606786
  O           22.491764       39.437623       37.440826
  H           22.129055       39.625317       36.571955
  H           21.896042       39.882398       38.049046
  O           26.927037       36.387021       21.215028
  H           27.174492       37.106783       20.629849
  H           27.718156       35.845532       21.274723
  O           30.778497       38.371344       28.160993
  H           31.196551       37.637939       28.618238
  H           30.162614       37.953719       27.553606
  O           36.010681        4.453283       21.192219
  H           36.289720        4.055807       22.020394
  H           35.130810        4.098462       21.041981
  O           38.425657       24.793910        1.413045
  H           39.316767       24.597821        1.114389
  H           38.114136       25.470061        0.806072
  O           26.974181       23.519737       28.441978
  H           27.672543       23.550427       27.783894
  H           26.770029       24.442025       28.616184
  O           13.036567       36.496437       35.247432
  H           13.552250       36.069066       35.935291
  H           13.657711       36.618880       34.525054
  O            8.608165       30.880908       40.204151
  H            9.100666       30.408668       39.528757
  H            7.696962       30.608772       40.068904
  O           21.574971       23.957963        7.266613
  H           21.294509       24.849357        7.046425
  H           20.758682       23.494873        7.471215
  O           13.742656        9.496454       38.333577
  H           13.161708        8.927243       38.843698
  H           14.556972        8.993708       38.251240
  O           21.902927       36.731218       37.763524
  H           22.395990       35.979165       37.427323
  H           22.525653       37.188847       38.333989
  O            4.347740        5.686526       34.090649
  H            3.488674        5.988357       34.394997
  H            4.428567        6.050701       33.205501
  O           23.246430        1.534650       16.435270
  H           24.197419        1.478251       16.554283
  H           23.074464        2.473915       16.331102
  O           16.059556       36.590382       19.945039
  H           16.779002       37.128958       19.607315
  H           15.842767       36.986552       20.792798
  O           38.594814       14.408868       10.425217
  H           39.048454       13.564802       10.366152
  H           39.034877       14.866119       11.146263
  O           27.117601       39.167633       37.128440
  H           26.706219       39.467644       36.314509
  H           27.928792       38.740257       36.842153
  O            0.630777       23.896619       13.359882
  H            0.850464       24.810863       13.553839
  H            1.391081       23.566520       12.874480
  O           14.972950        4.796949       27.238166
  H           15.301394        4.358652       28.026674
  H           15.751013        5.206377       26.851349
  O           16.867370       29.972349       25.620986
  H           16.451248       30.798966       25.876469
  H           16.958650       29.486785       26.444719
  O           28.756122        9.128125        7.149935
  H           28.891122        9.811706        6.489468
  H           28.135648        8.519986        6.740275
  O           14.615948       21.694299        2.639128
  H           13.956430       21.305031        2.060136
  H           14.245966       21.598457        3.520360
  O           33.910052       12.445369        3.298001
  H           33.413536       13.266990        3.309606
  H           33.477980       11.896345        3.957189
  O            0.693849       36.619702        7.293409
  H            0.821225       36.979525        6.412485
  H            1.497400       36.122704        7.466444
  O           35.642597       31.311362       21.989475
  H           35.338668       31.965390       22.623193
  H           34.842682       31.021820       21.543444
  O           37.432152       15.418210       17.121787
  H           37.643963       16.354426       17.140775
  H           36.472193       15.390506       17.140601
  O           12.408858       10.370910       41.098407
  H           12.078972       10.365499       42.000000
  H           12.636140        9.454435       40.922173
  O           18.121823        7.944711        0.564879
  H           17.932478        8.697562        0.000000
  H           18.985198        8.138292        0.938713
  O           30.864813       37.902965        6.600082
  H           30.895443       38.700537        6.066542
  H           31.112620       38.195582        7.480769
  O            3.818814        3.318784       41.081521
  H            4.013262        4.116185       40.583458
  H            4.651186        3.092804       41.504290
  O            6.246248       31.004801       35.825134
  H            6.917836       31.124325       35.149554
  H            6.004645       31.898309       36.081872
  O           34.700571       33.999068       15.483411
  H           34.660725       33.240916       16.071070
  H           35.640091       34.162973       15.369046
  O            6.788973        3.138988       34.382638
  H            7.118569        2.390710       34.885800
  H            6.929896        3.894454       34.958879
  O           36.918566       17.905587       35.775740
  H           37.650662       17.365086       35.469767
  H           37.242346       18.309666       36.584770
  O            1.826276       20.644324       12.136991
  H            1.783711       19.688331       12.059597
  H            0.995499       20.887036       12.553575
  O            3.946915       21.033593       38.113110
  H            3.955074       20.762045       39.033936
  H            3.023128       20.977152       37.856060
  O           37.342454       18.735893       16.273350
  H           36.480990       19.098558       16.054081
  H           37.937454       19.128991       15.629852
  O           25.658342       25.822466       20.792635
  H           24.892756       26.391655       20.900465
  H           26.086879       26.147471       19.996789
  O           24.686555       26.844830       23.868487
  H           24.894981       27.759672       23.665149
  H           23.949231       26.898899       24.481734
  O           27.510525       10.648049       38.582078
  H           27.784352       10.273734       39.422691
  H           28.259824       10.499778       37.999661
  O            0.078839       33.163895       22.511764
  H            0.580632       33.019534       23.317424
  H            0.000007       34.119064       22.447888
  O           22.300156       20.795190       30.710304
  H           22.869093       20.583082       29.966633
  H           21.481075       21.093042       30.306533
  O           34.006553       41.552254       27.619713
  H           33.644619       41.099584       26.854326
  H           34.845699       41.113681       27.781361
  O           28.700695        4.567529       13.555914
  H           27.971564        5.007333       13.999383
  H           29.358188        4.442364       14.244883
  O           38.612143       12.873586       21.896728
  H           39.247104       12.481430       22.500685
  H           37.935782       13.244082       22.469363
  O            2.838473       37.118816        5.580302
  H            2.536964       37.368437        4.703657
  H            2.680338       36.172500        5.626351
  O           22.037616       30.618525        2.857495
  H           21.183892       30.269410        2.591040
  H           22.503040       30.767242        2.030509
  O           33.348897        7.493860       23.633043
  H           34.147811        6.972184       23.526671
  H           32.634770        6.858968       23.535180
  O            3.979706       25.533813       27.540215
  H            3.080174       25.717802       27.820775
  H            4.134260       26.147348       26.817491
  O            6.713787       18.536000        7.051175
  H            7.104993       18.330171        7.903418
  H            6.122574       19.271241        7.231536
  O           33.769096       14.460830       21.707991
  H           33.875437       15.250688       21.172696
  H           33.939052       14.756660       22.605901
  O           33.849849       30.446722       10.848696
  H           33.879428       29.528500       11.127476
  H           33.091171       30.493280       10.261430
  O           16.628051       26.468382       31.556763
  H           17.371529       26.860442       31.092810
  H           15.973607       26.313878       30.870852
  O           27.299595       24.942722       12.203783
  H           26.998821       24.124486       12.605964
  H           28.045602       25.214080       12.744596
  O            1.799130       11.437759       19.298847
  H            2.088191       11.067553       20.136174
  H            2.187912       10.861111       18.636300
  O           40.842590       19.199399       30.535946
  H           39.932063       18.911910       30.636026
  H           40.821538       19.802025       29.788255
  O           14.265399       29.729841       11.714094
  H           13.785892       30.549624       11.854643
  H           13.579284       29.061238       11.644393
  O           40.286721        6.997958       38.561164
  H           39.558065        7.447226       38.126487
  H           39.902342        6.645451       39.367783
  O           20.734871       15.664242       18.012406
  H           20.799704       15.431598       17.083214
  H           19.894711       16.124138       18.084993
  O           29.895300        5.429674       31.989727
  H           29.542471        4.539464       32.058734
  H           30.287137        5.598228       32.850364
  O           35.774260       18.059817       13.501911
  H           36.194230       18.897419       13.711134
  H           34.865153       18.169936       13.791807
  O           15.956388       23.120055       13.499906
  H           16.789085       22.657057       13.381691
  H           15.292387       22.499787       13.188440
  O           37.812059       25.195727       15.501593
  H           38.688792       24.897489       15.248378
  H           37.969588       25.824564       16.210388
  O           31.786000       18.663657       10.294530
  H           32.085583       19.571752       10.380194
  H           32.429313       18.254466        9.710276
  O            0.000000       19.105214       34.506716
  H            0.611980       18.400309       34.282409
  H            0.551930       19.781673       34.907237
  O           22.679856        2.787730       32.494823
  H           22.225876        3.619338       32.649921
  H           23.106754        2.904510       31.642320
  O           31.195014        8.683363       23.126107
  H           31.220218        9.601386       22.846244
  H           31.455285        8.708633       24.050371
  O           23.326921       32.049106       39.131762
  H           23.860232       32.699692       38.669116
  H           23.628758       31.204816       38.787218
  O           18.344228       19.063843        3.859771
  H           17.639596       19.613475        4.210661
  H           18.539891       18.445743        4.568509
  O            5.129616       20.179361       36.466444
  H            5.194053       21.122522       36.299050
  H            5.107669       19.782923       35.591803
  O           21.475301        3.255545        1.799678
  H           21.513030        3.085020        0.855632
  H           20.821505        3.953429        1.889965
  O           36.054090       33.193108       31.029024
  H           35.152097       33.480884       31.188145
  H           36.453883       33.168037       31.902053
  O            2.990420        1.425419       32.400910
  H            3.399917        2.182088       31.974895
  H            2.139921        1.336830       31.963365
  O            4.295619       17.772349       26.952588
  H            4.770748       18.302960       26.308826
  H            4.563988       16.869883       26.762394
  O           15.265173        9.067580       31.395060
  H           14.401972        8.811229       31.062055
  H           15.861922        8.398187       31.050901
  O           30.033843       37.505649       31.005084
  H           30.163442       38.425660       30.763199
  H           30.833191       37.269792       31.482635
  O           39.025748       12.127297       12.945933
  H           38.771322       11.204274       13.016801
  H           38.523624       12.456126       12.196010
  O           38.997876        0.956369       29.909614
  H           38.830924        0.622500       29.025089
  H           39.543915        1.734474       29.771643
  O           27.285511       10.168443       22.693382
  H           28.081662        9.690593       22.449398
  H           27.299790       10.180929       23.653738
  O           23.065887       39.480308       30.869974
  H           23.005822       39.869724       29.994490
  H           22.152635       39.387493       31.152813
  O           18.574517        6.078436        2.311378
  H           19.288396        5.831964        1.718628
  H           18.886437        6.879353        2.740190
  O            0.006912       35.121656       25.118504
  H            0.552430       34.640833       24.491651
  H            0.029701       34.585225       25.914974
  O           24.536456        5.032233       22.999828
  H           24.368535        5.853813       22.532352
  H           24.246023        4.348055       22.391395
  O            3.547578        7.799909        1.311325
  H            2.810558        7.213945        1.498870
  H            3.219503        8.674656        1.534542
  O           11.592740       10.217924       21.716069
  H           11.910811        9.312104       21.709345
  H           12.219836       10.694911       21.166636
  O           22.904207       42.000000       35.646219
  H           22.350203       41.355450       35.199720
  H           23.121790       41.586697       36.485552
  O           11.478057       30.876924       16.684205
  H           12.237639       30.414762       16.322036
  H           11.393214       31.661696       16.136869
  O           41.180850       25.653515        6.532226
  H           42.000000       25.166621        6.649065
  H           40.990818       25.578718        5.593644
  O           15.646517       24.460783        8.244637
  H           15.746380       24.600096        7.299997
  H           14.944004       25.063367        8.501561
  O           20.854551       14.004037       29.410538
  H           21.145148       13.125509       29.666401
  H           20.227876       13.850091       28.699046
  O            3.199873       22.633531       40.060331
  H            3.033098       23.503715       40.430049
  H            3.006554       22.027598       40.780133
  O           15.120825        0.961157       16.200184
  H           15.539273        0.101936       16.291644
  H           15.658964        1.546960       16.738592
  O            1.414672       30.914735       20.012417
  H            0.546894       31.321742       20.067481
  H            1.637657       30.704576       20.922776
  O           27.148762       25.125851       36.633663
  H           26.978918       25.462882       35.750890
  H           26.623038       25.687701       37.208624
  O           15.879687       19.686973       35.849287
  H           16.706836       20.162088       35.957987
  H           16.048172       19.077223       35.126473
  O           16.980237        5.766183       31.734916
  H           17.921415        5.798207       31.921690
  H           16.920724        5.321864       30.885398
  O           38.841681       31.369237        2.089483
  H           38.722160       31.606800        1.166985
  H           39.479712       32.007074        2.419215
  O            1.160853       11.087527       10.153316
  H            0.237330       10.859697       10.283409
  H            1.144538       11.776107        9.483814
  O           20.181835       13.628992       22.076990
  H           19.743248       12.883589       22.493813
  H           21.067907       13.309478       21.888766
  O           37.640537        9.891611       21.920309
  H           37.410762        9.137324       21.372606
  H           37.876413        9.507373       22.768463
  O           39.626050       31.140708       31.966502
  H           40.340480       30.645418       31.559069
  H           39.521161       30.739035       32.832700
  O            5.192257       18.175551       41.194138
  H            4.803476       18.685871       41.908384
  H            5.467864       18.835049       40.552465
  O            8.838833       11.374995       11.025392
  H            9.270665       11.762319       10.260392
  H            9.556008       10.986678       11.532848
  O           25.480219       40.221114        6.260613
  H           24.810406       40.837828        6.565144
  H           24.980101       39.477411        5.915026
  O            1.573216       13.818113       14.998077
  H            2.429534       13.992838       15.395462
  H            1.735183       13.089637       14.393319
  O           39.751484       21.615040       35.639033
  H           40.497382       21.144107       35.260110
  H           40.151779       22.276747       36.208725
  O           34.475623       29.698251       24.621831
  H           35.209104       29.158313       24.925470
  H           33.942396       29.100033       24.092260
  O           31.486219       37.652197        1.987781
  H           30.860698       37.836094        2.692501
  H           32.268947       37.329960        2.441810
  O           27.279912       11.055211       31.919912
  H           26.718631       10.894837       32.682125
  H           28.026885       10.464504       32.045362
  O           17.721572        4.137666       37.287113
  H           17.502290        3.490071       37.961102
  H           18.228158        3.643592       36.637572
  O           38.817424       27.428281       30.467362
  H           37.876556       27.523712       30.301873
  H           39.210078       28.208802       30.068300
  O           35.712738        3.786901       26.137678
  H           35.573517        4.025127       25.218117
  H           35.128697        3.037904       26.280996
  O            7.719830       11.100360       16.312405
  H            7.615982       10.432530       16.994273
  H            8.523506       10.847271       15.851218
  O           35.928697       23.486931       28.018998
  H           36.508750       23.135301       27.339571
  H           36.303518       24.345382       28.231631
  O           32.721951       23.367460       24.987832
  H           32.097994       23.522427       25.700846
  H           33.060201       22.484083       25.154784
  O           22.241827       29.653114       28.422953
  H           21.285027       29.637637       28.345377
  H           22.457267       28.835971       28.879577
  O           22.156796       23.426951        2.013873
  H           22.777270       24.156859        2.076899
  H           21.335611       23.781139        2.364368
  O           13.331811       26.636077       38.780759
  H           13.110943       27.561650       38.908265
  H           13.423766       26.541777       37.829290
  O           24.792846        9.547769       28.616043
  H           24.467293        8.645379       28.653888
  H           24.189899        9.993794       28.015911
  O            4.485125       37.385862        8.933265
  H            3.844056       37.166884        8.252969
  H            5.313045       37.487290        8.456921
  O            3.140522       10.469571       25.613054
  H            2.266886       10.528720       26.006737
  H            3.581839        9.779426       26.114633
  O           25.249330       39.627144       28.885118
  H           24.950017       39.036011       28.190353
  H           25.097556       39.136920       29.697083
  O           35.600675       26.550448       31.666454
  H           35.116965       26.335202       32.467339
  H           35.548315       27.507673       31.606274
  O           39.412784       27.809273       27.593662
  H           38.631259       28.359522       27.503274
  H           40.060512       28.381976       28.012114
  O           26.003156       35.442536       23.339895
  H           26.719739       34.864727       23.067186
  H           26.368860       35.947313       24.070718
  O           37.721287        3.891735        3.381928
  H           37.581673        3.008283        3.730850
  H           38.428474        4.252613        3.922572
  O           38.449738       19.954522       32.410657
  H           38.062049       19.076218       32.412737
  H           37.894643       20.461587       33.008483
  O           12.784911       27.600324       28.094260
  H           13.593880       27.370697       28.557473
  H           12.987276       27.442809       27.168583
  O           14.890896       26.035038       12.415541
  H           13.942937       25.934809       12.529794
  H           15.000615       26.941601       12.117635
  O           25.842177       26.288849        2.801487
  H           26.797965       26.293223        2.891907
  H           25.626865       27.176059        2.502922
  O           39.132140       19.776655       17.949359
  H           38.737130       19.698836       18.820930
  H           38.481880       20.262039       17.435349
  O           14.983140       31.480123       20.800272
  H           15.819434       31.878560       20.548112
  H           15.149593       31.106174       21.669235
  O            6.056174       13.558373        6.563506
  H            5.384133       12.937266        6.273140
  H            6.796995       13.401634        5.972524
  O           10.960351       14.236853       24.179853
  H           11.853694       14.466419       23.913466
  H           10.958751       14.352444       25.133414
  O           35.242556       15.944272       42.000000
  H           35.285926       15.299059       41.290391
  H           35.323479       16.792386       41.556382
  O           14.709872       18.594626       18.285318
  H           13.826913       18.908132       18.075979
  H           14.603431       18.116360       19.111499
  O           19.314903       19.838772       32.386052
  H           18.504459       19.667212       31.900797
  H           20.014401       19.663022       31.751658
  O           18.560508       31.958389        9.867812
  H           17.906785       31.445996        9.386330
  H           18.931486       31.337704       10.500082
  O           19.225131       31.291681        4.234959
  H           20.150466       31.147477        4.446347
  H           19.240176       31.948653        3.534385
  O           36.485144       31.815498        9.787341
  H           37.358717       32.099188        9.507848
  H           36.509723       31.876994       10.745598
  O           34.637010       38.421915       12.812040
  H           35.348363       37.983885       12.338931
  H           35.050375       38.748119       13.615384
  O           15.877810       18.231594        8.401576
  H           15.306772       18.933622        8.080954
  H           16.765176       18.527800        8.183666
  O           25.625935       20.382822       41.080413
  H           24.859926       19.824036       40.929702
  H           25.306348       21.274131       40.918938
  O           19.817147       22.043302       14.356090
  H           20.044618       21.117366       14.468448
  H           18.857624       22.049480       14.312269
  O           23.816994       30.819837       19.214220
  H           24.410430       31.562277       19.078788
  H           23.196848       31.128580       19.879606
  O           33.172866       13.813160       37.679805
  H           33.072013       12.947357       37.277389
  H           34.118831       13.978223       37.656431
  O            0.047599       37.324947       26.409531
  H            0.694339       36.639569       26.225925
  H           -0.002167       37.355130       27.368308
  O           24.940952       35.178118       28.081667
  H           24.203104       34.848210       28.599805
  H           25.352690       34.387866       27.723038
  O            1.377871       13.598342       19.494530
  H            1.097602       14.488431       19.720176
  H            1.087192       13.479773       18.586736
  O           16.600316        1.282449        9.452437
  H           17.080884        1.994244        9.023336
  H           17.286467        0.703444        9.793891
  O           34.992204        3.103693        6.362652
  H           35.163294        4.044534        6.447922
  H           34.073747        3.003593        6.625443
  O           15.366006       12.741466       24.570894
  H           15.188991       13.258200       25.360435
  H           16.280747       12.464671       24.667207
  O           29.016961       20.220631       27.555024
  H           29.582604       20.619516       28.220353
  H           28.399081       20.917075       27.318734
  O            0.747086       26.987466       14.771114
  H            1.050230       26.308101       15.377985
  H            0.146877       27.524328       15.294728
  O            3.598662        2.132857        2.892748
  H            4.466723        1.874476        3.211237
  H            3.488140        1.640227        2.075593
  O           15.734444       18.378057       38.453031
  H           15.119712       19.050598       38.150512
  H           16.138490       18.759454       39.236565
  O            1.861849       32.973811       28.699108
  H            2.426461       32.234954       28.460303
  H            2.335348       33.416317       29.408072
  O           19.849538       11.563915       10.410857
  H           20.015246       12.470335       10.141285
  H           19.589255       11.633165       11.332865
  O           30.795777        4.975446       35.230975
  H           31.326227        5.702156       34.895951
  H           31.387895        4.499072       35.818433
  O           27.406283       35.017965       39.284465
  H           26.705581       35.577444       38.941354
  H           28.215213       35.427344       38.967159
  O           10.251440       29.249847       32.806118
  H           11.110201       28.852107       32.644691
  H            9.636254       28.693929       32.321202
  O           19.333468       23.262731       23.376913
  H           19.612504       24.128937       23.682772
  H           19.333358       23.336663       22.419220
  O            5.924406        7.903551       20.642953
  H            6.073219        8.625457       20.027786
  H            5.228402        8.223688       21.222379
  O           22.667874       11.595284       25.876739
  H           23.082535       11.380666       26.715620
  H           21.922987       10.991716       25.817649
  O            1.964001        1.743417       29.353081
  H            2.288989        2.514777       28.882856
  H            1.393927        2.103782       30.037036
  O           26.495310        3.893848       19.946713
  H           27.038173        4.620950       20.260319
  H           26.464244        4.013087       18.994107
  O           27.755125       30.216276       20.903933
  H           28.455924       30.829037       21.138728
  H           26.970433       30.580037       21.321760
  O           38.157595       30.303574       10.518553
  H           37.858913       30.016398       11.384604
  H           38.287500       29.487717       10.028509
  O           21.411583       26.718359       34.230668
  H           21.989815       26.656929       34.994604
  H           21.119338       27.633351       34.225805
  O            3.083241        2.369273       37.038904
  H            2.395653        1.699265       37.032762
  H            3.053458        2.733344       37.927277
  O           23.396814       12.943279       21.287877
  H           23.992936       12.268541       21.621182
  H           23.722921       13.760729       21.672677
  O           41.040443       25.809457       32.280653
  H           41.144073       26.156221       33.169889
  H           40.232365       26.216779       31.958565
  O           41.247070       38.159132        5.477394
  H           40.838181       38.522348        4.688339
  H           40.722706       38.510989        6.201191
  O            9.868310       32.432884       38.102253
  H            9.264197       32.496640       38.845696
  H            9.501418       31.732953       37.556242
  O           38.340754       38.025243       14.768620
  H           38.640975       38.843759       14.366594
  H           38.112524       38.271337       15.668615
  O           10.563189       26.438575        4.151867
  H           10.663868       27.366529        4.376569
  H           10.960145       26.359767        3.280743
  O            4.543276       22.631355        0.448272
  H            4.989153       21.908880        0.000000
  H            3.829044       22.207820        0.931110
  O           23.121001        0.666845       13.513797
  H           23.771645        1.367593       13.428128
  H           22.699733        0.834843       14.360527
  O           27.548831       21.439254       30.066638
  H           28.430944       21.746283       29.844523
  H           27.087362       21.410437       29.224701
  O           31.878010       11.398970       15.442918
  H           32.761923       11.026314       15.403556
  H           31.456216       10.935854       16.171104
  O            4.065446        9.021070       11.079337
  H            4.872118        8.604350       11.391346
  H            3.725628        8.415603       10.415580
  O           16.566964       30.845101        5.311176
  H           16.310134       30.066673        5.810989
  H           16.546965       30.557462        4.394930
  O            2.456927       31.050587       23.668492
  H            2.278262       31.532928       22.857843
  H            3.369971       30.765665       23.580107
  O           37.845147       29.216964       13.692104
  H           37.316807       29.971596       13.962497
  H           38.700599       29.365325       14.102995
  O           28.461386       14.704636       34.839603
  H           29.255289       15.244076       34.818443
  H           27.998389       14.929883       34.028714
  O           35.142998        7.819495       15.633764
  H           35.792295        7.189264       15.312908
  H           35.570638        8.241826       16.383033
  O           20.523468       31.456081       41.947496
  H           21.478661       31.537168       42.000000
  H           20.359782       31.138630       41.055827
  O           10.410951       25.082115       15.765253
  H           10.612419       24.254626       16.208420
  H            9.764509       24.843052       15.096221
  O           29.977149        0.818561        8.716536
  H           29.125919        0.395944        8.852654
  H           30.575105        0.343437        9.299071
  O           17.823482       15.688492        8.728723
  H           18.205593       15.550284        9.598559
  H           17.829555       16.642191        8.614425
  O            0.060422       32.521225       25.655416
  H            0.979429       32.718658       25.460040
  H            0.003184       32.575554       26.612711
  O           16.828488        4.605416       22.915470
  H           17.698237        4.259407       23.128871
  H           16.515739        4.988660       23.738850
  O           16.067663       15.345566        0.305734
  H           15.864667       15.698255        1.175290
  H           16.254535       14.416578        0.462904
  O            7.159019       34.273892       26.964538
  H            7.196142       34.824329       27.750265
  H            8.051424       34.303310       26.610432
  O           36.349429       31.517343        5.347211
  H           35.660888       32.151685        5.134498
  H           36.041464       31.091886        6.151441
  O           12.240110        8.086999       26.881196
  H           13.017124        8.537868       26.542535
  H           11.890783        8.682761       27.548789
  O           19.497981       18.619101       36.575900
  H           19.550489       17.826183       37.114647
  H           20.373945       19.008239       36.638360
  O            0.258800       38.634704       31.760008
  H            0.720793       38.278944       32.522716
  H            0.759733       38.312789       31.006298
  O           11.753941       34.246759       32.807900
  H           10.846197       34.559072       32.821599
  H           11.752012       33.482672       33.389973
  O           24.335335       41.475483       28.112423
  H           24.211655       42.000000       27.317873
  H           23.578106       40.884729       28.128410
  O           37.762695       15.711826       28.563510
  H           38.095372       16.095814       27.748891
  H           37.878694       16.404759       29.218513
  O           23.009713       10.605039       41.295229
  H           23.402933       11.478107       41.225541
  H           22.077002       10.748638       41.116143
  O           21.747757        7.926693       14.947926
  H           21.622372        7.134168       15.475095
  H           20.856625        8.212941       14.732085
  O           36.990250       19.212548        0.051052
  H           36.077541       19.505941        0.000000
  H           36.975040       18.496368        0.690972
  O           12.372607       20.771947       38.434875
  H           12.686435       20.043395       38.975660
  H           12.885599       21.527704       38.732050
  O           41.662599       15.490702       36.378522
  H           41.414036       14.816482       35.741837
  H           42.000000       14.996367       37.129811
  O           16.042619        8.815303        9.741911
  H           16.007986        7.887468        9.986142
  H           15.398007        8.899957        9.034839
  O           22.500965       15.946169       25.345097
  H           21.831760       15.886050       24.659331
  H           23.038599       16.699559       25.088200
  O           11.902166       13.907350       21.594839
  H           12.626673       13.490559       22.067173
  H           12.037177       14.848217       21.733341
  O           22.916397       13.790279       11.481986
  H           22.275074       13.709375       10.772137
  H           23.489384       14.509651       11.204799
  O           33.636551       26.809390        1.071566
  H           33.476806       26.159529        0.383172
  H           32.758934       27.062255        1.369037
  O           41.332765       35.186218       41.118929
  H           41.761196       36.043166       41.180667
  H           40.504506       35.299096       41.592096
  O           39.595051       15.328966       21.401890
  H           38.885214       15.965817       21.512700
  H           39.912618       15.168255       22.294059
  O            7.032738       12.905637       26.540143
  H            7.504294       12.746900       25.719069
  H            7.399208       13.729961       26.870039
  O           26.293597       19.620304       10.851946
  H           27.089618       20.107772       11.076559
  H           26.449274       18.737503       11.197011
  O           14.896240       19.763119       28.597645
  H           14.271174       20.409144       28.260495
  H           15.663345       19.852971       28.026577
  O            3.437422       31.864437       36.207658
  H            3.940943       31.139979       36.586277
  H            3.663710       31.849872       35.274264
  O           30.040623       19.674240       32.254824
  H           30.828135       19.818445       31.724962
  H           30.215996       20.142534       33.074939
  O           16.020560       24.004248       10.930125
  H           16.610035       24.339555       10.250557
  H           15.645015       23.207070       10.547875
  O           26.810985        7.952478       38.501973
  H           26.950467        7.002917       38.477375
  H           26.500585        8.170808       37.619575
  O            9.320838        3.975100        8.142197
  H           10.102735        4.463548        7.874278
  H            8.642504        4.251481        7.520813
  O           18.267717       22.095681       38.191487
  H           18.535744       21.487028       37.499080
  H           19.074253       22.562855       38.423628
  O           14.486288        3.927983       24.252446
  H           13.770784        3.371420       24.568701
  H           14.859660        4.312276       25.049663
  O           15.412993       30.665987       37.338256
  H           15.749606       30.382495       38.191513
  H           16.194043       30.728642       36.782669
  O           32.855346        1.971240        8.483924
  H           33.250784        1.113628        8.311134
  H           31.916097        1.834860        8.336091
  O           15.584127        5.506894       15.529817
  H           16.261944        4.924855       15.178363
  H           16.071270        6.161403       16.036721
  O           11.722842        8.356836       18.807438
  H           12.095536        7.524983       18.506035
  H           11.188769        8.116840       19.568891
  O            0.447853       18.295076       29.173251
  H            0.000000       17.445905       29.165314
  H            1.280228       18.121472       29.620079
  O           33.293115       21.933032        0.170348
  H           32.900530       21.162634        0.587588
  H           33.688476       22.421963        0.896487
  O           13.264240       30.970533        8.155615
  H           12.653859       31.589364        7.747929
  H           13.118069       31.077877        9.098883
  O           16.604503       34.235627       18.722575
  H           16.626690       33.826697       19.590911
  H           16.825617       33.522977       18.117695
  O            3.819684       12.080403       40.471137
  H            3.571287       12.668926       39.754433
  H            3.115137       11.428119       40.499088
  O            0.000000       41.127792       39.395647
  H            0.104450       41.296491       40.334985
  H            0.015535       42.000000       38.993585
  O            6.079020       36.319238       37.957518
  H            6.918696       36.169681       38.398315
  H            5.544395       35.558488       38.198508
  O            7.951407       38.171481       19.799596
  H            8.705243       38.476473       19.289266
  H            7.938283       38.743880       20.570848
  O            8.363497        6.354704       38.546169
  H            9.236598        6.677549       38.311244
  H            8.317232        5.481510       38.148634
  O            8.272107       19.207676       28.905813
  H            7.979132       20.080127       29.179163
  H            9.030362       19.376904       28.340964
  O           32.987230       11.455251       21.799731
  H           32.755629       11.246310       22.707713
  H           32.716643       10.680626       21.300351
  O           20.359281       30.841873       36.578823
  H           19.405851       30.781210       36.483864
  H           20.625213       29.968473       36.877309
  O           13.685274       35.840006       15.947099
  H           13.194188       36.655859       16.069342
  H           14.606615       36.110735       15.968963
  O           13.963366       33.986270       22.646943
  H           14.112488       33.875845       23.588906
  H           13.026576       34.186240       22.575676
  O           18.520628       27.799665       15.538299
  H           19.031966       27.116004       15.977465
  H           18.135178       27.357565       14.777630
  O           33.306701       25.424383        6.713193
  H           33.710047       24.580587        6.930091
  H           34.015651       25.930496        6.308371
  O           24.467279       14.909739       34.977102
  H           25.360662       15.070192       34.664298
  H           24.182370       15.756626       35.329595
  O           12.625706       41.481539       32.275690
  H           12.106260       41.999726       32.894870
  H           13.423009       42.000000       32.140975
  O           31.848928        8.084155       26.404569
  H           32.242618        8.867746       26.795360
  H           32.495183        7.789941       25.757703
  O           15.291218       12.635748       41.122845
  H           14.772490       13.443329       41.101395
  H           14.802525       12.054008       41.710552
  O            9.553682       14.956519       34.656621
  H            9.712105       15.197310       33.740844
  H            9.741929       14.015255       34.691655
  O           32.301419       22.483684       11.231769
  H           31.401897       22.148793       11.210958
  H           32.499046       22.693330       10.315454
  O            2.533964       10.335476        4.444682
  H            2.884837       10.373490        5.337525
  H            2.638818       11.229339        4.109037
  O           33.360775        5.405136        7.883641
  H           33.842049        4.607160        8.114584
  H           33.595027        6.032555        8.572200
  O           17.309243       20.274570        6.787180
  H           18.150913       20.063335        6.376452
  H           16.653339       20.002568        6.140305
  O           30.712879        9.063926       12.052305
  H           30.256894        9.848610       11.739138
  H           31.256032        8.791009       11.308569
  O            4.786690       11.243226       17.371750
  H            5.334512       10.622916       17.858403
  H            5.115222       11.195264       16.470413
  O           13.369811        9.116062       34.174632
  H           14.320823        9.210196       34.266503
  H           13.077511        9.966595       33.837293
  O           14.970650       39.856043       38.635219
  H           15.852524       39.484726       38.713623
  H           14.932079       40.526025       39.322445
  O           40.518304       41.407483       29.960032
  H           41.359668       41.002603       30.183424
  H           40.235216       40.946613       29.166243
  O           22.201625       22.305316       38.400954
  H           22.003548       21.548026       37.845073
  H           22.690470       21.936511       39.140992
  O            5.887394       28.176924       34.360919
  H            5.860955       28.893284       34.999554
  H            6.470972       28.496524       33.668147
  O           17.008628        7.870147       14.458072
  H           17.311899        7.878766       13.547206
  H           16.080679        7.629396       14.398144
  O            9.325548       41.999903       23.430221
  H            9.377008       41.312838       22.761626
  H            9.818557       41.645642       24.174588
  O           38.205586       23.582959       16.945247
  H           37.683944       24.081985       17.578167
  H           37.737123       22.749292       16.854780
  O           11.595201       26.954464       35.713903
  H           11.708705       27.250223       36.620197
  H           11.814802       27.724025       35.182685
  O           13.425365       30.470966       18.557950
  H           13.517005       30.460669       19.513576
  H           12.820165       31.196368       18.384263
  O           25.494283        5.978540        2.776054
  H           25.335194        6.505701        3.562512
  H           24.789987        6.230665        2.173524
  O            6.721025        0.908110       14.016106
  H            5.808533        1.199119       13.949790
  H            6.765174        0.452364       14.860493
  O            0.462210       30.145233       23.353175
  H            0.099331       30.912497       22.904454
  H            0.017980       30.134823       24.204758
  O           15.161096       39.181574       26.100187
  H           15.012759       40.010942       25.639894
  H           14.644114       39.260271       26.905903
  O           16.348797       30.407504       11.899411
  H           15.911818       31.238371       12.100494
  H           16.969355       30.627625       11.200056
  O           11.724214       31.764170       30.015534
  H           12.133760       32.468327       30.523628
  H           12.360460       31.045316       30.048413
  O           37.147136       30.813884       19.122938
  H           37.673777       31.554224       18.812660
  H           36.495767       31.212287       19.705721
  O           27.967466        7.221745        0.093372
  H           28.144396        6.282754        0.000000
  H           28.833251        7.634116        0.038531
  O           26.053828       19.600822       14.868530
  H           25.715535       20.329287       14.342581
  H           26.560533       20.025145       15.565554
  O           38.397163        8.436542        8.368866
  H           37.895365        9.230144        8.168569
  H           39.306923        8.738680        8.429629
  O           11.013428       39.103985       17.231932
  H           10.358448       39.727182       17.554968
  H           11.334539       39.496907       16.416370
  O           33.824942        8.968387       40.827853
  H           34.395875        9.089319       41.590175
  H           34.264839        8.293101       40.305243
  O            8.948719       26.190690       33.304067
  H            9.456954       25.378870       33.237946
  H            9.570696       26.833533       33.654124
  O            4.412431       21.881964       24.046679
  H            5.231684       22.373870       24.139296
  H            3.739108       22.472702       24.393532
  O           38.772895       10.359860        6.492417
  H           39.613022       10.664588        6.843204
  H           39.012091        9.827120        5.729780
  O           33.756922       16.809416        5.953127
  H           34.267037       16.533724        5.187946
  H           34.133171       17.658873        6.197057
  O            7.136168        8.811883        5.630427
  H            8.015472        8.623657        5.294092
  H            6.697514        7.957434        5.642403
  O            0.553067       21.279421       39.485412
  H            1.447098       21.559841       39.276132
  H            0.000000       22.008443       39.193374
  O           13.258483       30.800888        5.000262
  H           13.688928       30.526681        5.813437
  H           13.292037       30.022460        4.438510
  O           15.502212       11.458425       11.352896
  H           16.424227       11.591592       11.585016
  H           15.455523       10.538698       11.079832
  O            5.379836       12.577944       34.352213
  H            4.573961       12.099790       34.561163
  H            5.667480       12.205886       33.514671
  O           12.808138        5.593475       10.366553
  H           12.438889        6.050179       11.126028
  H           13.750893        5.770387       10.417121
  O            5.642565       24.220378       35.273799
  H            6.288227       23.595493       34.935620
  H            6.170841       24.927336       35.652977
  O            7.798430        7.476943       10.272919
  H            6.915653        7.291854       10.601814
  H            7.661623        8.117105        9.569983
  O            0.609738       19.921578       18.388524
  H            0.980262       19.037834       18.447117
  H            1.373342       20.503158       18.424792
  O           35.578017       11.884256       31.552511
  H           35.596908       11.048679       32.024930
  H           36.146681       12.462229       32.067497
  O            7.392350       13.545168       37.061409
  H            8.104740       14.116663       37.357412
  H            6.796131       14.132187       36.589631
  O           36.063354        8.432757       29.883113
  H           36.760811        7.779377       29.791601
  H           36.526793        9.273557       29.913455
  O           18.931205       13.682023       40.356081
  H           19.560731       13.329989       39.722446
  H           19.461195       14.232550       40.938037
  O           37.976167       17.673300       10.081995
  H           37.171221       17.165245       10.207165
  H           37.709374       18.409501        9.525694
  O           19.676963       11.126641       16.529494
  H           20.307578       11.795411       16.806615
  H           20.017966       10.308987       16.900710
  O            4.836915        7.341199       28.825920
  H            5.641271        7.680137       28.426099
  H            4.457979        8.098975       29.278496
  O            7.377830       33.880928       34.962747
  H            6.846073       33.674434       34.190530
  H            8.051755       33.196653       34.978085
  O           35.294271       14.468520       10.055503
  H           34.903075       15.253566        9.665127
  H           35.816063       14.084348        9.346428
  O           39.081555       39.423017       40.702402
  H           39.619706       39.913474       40.076646
  H           38.780280       38.656403       40.208257
  O            4.740492       19.775126       31.682392
  H            4.222586       19.492202       30.925126
  H            5.039392       20.658008       31.450397
  O           11.983755       16.780535       18.869741
  H           11.253064       17.401303       18.820119
  H           12.338469       16.900023       19.754356
  O           40.174381       40.871276        6.447789
  H           40.158122       41.258852        5.569583
  H           41.096460       40.643310        6.590766
  O           31.702686       11.397139        5.156826
  H           31.814644       12.173983        5.709731
  H           30.751040       11.279072        5.101399
  O           28.672244       15.281539       10.621495
  H           29.466588       15.102804       11.130216
  H           28.094825       15.742678       11.235156
  O            9.070153       12.561942       33.023355
  H            8.142763       12.322674       32.956850
  H            9.127663       13.416565       32.588666
  O           37.535007       10.636299       15.833269
  H           37.231869        9.733635       15.955865
  H           38.138080       10.786824       16.565584
  O           19.932728       15.984991        7.199758
  H           19.188737       15.406148        7.017707
  H           19.912763       16.106505        8.152375
  O            1.057061       21.737752       28.071387
  H            1.288704       22.669438       28.076767
  H            1.655812       21.346896       27.430005
  O            3.696877       36.933871       34.234787
  H            3.688641       37.868822       34.016785
  H            3.199242       36.875740       35.054313
  O           10.032508       11.703349        7.844058
  H            9.738718       10.881663        8.244365
  H            9.389308       11.874505        7.151496
  O           14.681987       38.485348       36.938791
  H           14.111730       38.095075       37.605288
  H           14.381731       38.099007       36.112215
  O            1.640796       17.980717        9.628678
  H            2.596986       18.047189        9.573844
  H            1.445443       18.115011       10.559508
  O            2.576986       36.024420       25.367189
  H            2.083924       35.242251       25.625698
  H            3.174648       36.183244       26.102184
  O           10.827265        1.797069       18.792945
  H           10.440479        2.499557       19.320802
  H           10.763908        2.115588       17.888968
  O           28.229416       35.920799       14.789718
  H           28.868737       36.455901       15.265805
  H           28.420392       36.088921       13.863487
  O           15.967605       14.428184        9.581644
  H           15.740657       15.335932        9.366672
  H           15.272837       14.144270       10.181088
  O           40.813334        1.326889       23.148842
  H           41.211419        1.318849       22.275235
  H           41.560126        1.379087       23.750687
  O           36.984115       24.347757       30.412843
  H           37.419740       25.202747       30.382057
  H           36.401220       24.404429       31.174199
  O            1.314205       26.320519        8.183481
  H            1.494434       27.235498        8.411635
  H            1.918078       26.131598        7.460786
  O           29.152704       22.758262       36.707314
  H           28.962018       23.634178       37.051021
  H           29.771464       22.913419       35.989188
  O            9.113636       19.591255       38.614351
  H            8.274323       19.173241       38.820611
  H            8.985164       20.513388       38.850589
  O            6.477942        5.405922       27.423529
  H            7.025870        6.175743       27.593455
  H            5.752900        5.486701       28.048373
  O           33.331879        5.355491        4.694188
  H           34.135022        5.749096        5.043131
  H           32.741693        5.307673        5.450519
  O           33.591034       28.669101       40.699815
  H           33.344147       27.758509       40.877566
  H           33.466105       29.118290       41.539615
  O           35.009897       28.562730       29.359980
  H           35.931866       28.708499       29.135370
  H           34.939227       27.611314       29.471582
  O           10.337840       36.490321       18.645336
  H            9.436284       36.298500       18.376771
  H           10.685097       37.040706       17.938844
  O           34.346763        1.592538       38.162424
  H           33.438720        1.288949       38.233262
  H           34.553994        1.930830       39.037213
  O           16.890012       14.676008        6.263519
  H           16.081919       14.230707        6.528883
  H           16.877440       15.503470        6.751156
  O           14.470775       40.210836        1.150899
  H           14.896896       39.854708        1.934046
  H           14.300013       39.441522        0.601683
  O           19.332174       13.407418       31.149882
  H           19.388770       12.501022       30.838483
  H           20.049394       13.486947       31.783847
  O           29.908930        1.397601       37.419080
  H           29.749489        2.220950       37.886412
  H           29.169204        0.836539       37.665369
  O           30.998323       17.783648       24.020105
  H           30.423596       17.895874       23.259304
  H           31.830808       18.179813       23.750544
  O           38.906899        4.902907       22.513384
  H           39.110889        4.505614       23.363250
  H           38.880151        5.846407       22.691522
  O            4.979817        3.874171       29.744783
  H            5.923096        3.902820       29.568348
  H            4.689641        3.045054       29.356188
  O           20.201608       27.508961       21.853595
  H           20.946476       26.954434       21.609881
  H           19.506958       26.887109       22.084686
  O           34.509727       24.556111       11.163176
  H           35.160614       23.855076       11.081812
  H           33.737499       24.122494       11.535041
  O           14.754372       28.670682       19.255523
  H           14.732487       27.779717       19.612494
  H           15.488087       29.091839       19.710418
  O           18.870087       11.022929        0.702021
  H           19.487772       10.666747        0.059118
  H           19.318775       11.791548        1.063334
  O           28.829594        9.063116        4.060942
  H           28.055875        8.755012        4.538598
  H           28.496708        9.290320        3.189043
  O           18.051519       14.238824       35.956989
  H           17.940611       14.276192       36.909894
  H           18.970393       14.479539       35.814274
  O           12.602781       23.465027       11.155455
  H           13.550243       23.320260       11.210997
  H           12.221408       22.745937       11.665460
  O           11.263897       23.416264       36.852876
  H           10.562557       24.067104       36.931968
  H           10.931179       22.648664       37.324820
  O           17.260817       39.328335       12.158164
  H           18.064811       39.113634       11.679392
  H           17.367959       38.896930       13.009664
  O           18.995577       35.702123       15.777577
  H           18.647328       36.587002       15.909629
  H           19.621048       35.797446       15.054845
  O            7.573391       17.086881        9.658138
  H            8.509904       17.226409        9.499392
  H            7.396458       17.562044       10.473954
  O           18.539002       25.647364       11.395216
  H           17.608796       25.863527       11.493786
  H           18.883416       26.333653       10.818130
  O           27.900217       13.431075       16.761210
  H           27.045029       13.408791       17.196965
  H           27.840671       14.175488       16.157102
  O           32.057741        4.610467       16.427869
  H           32.717083        4.239213       15.836969
  H           32.192501        4.145719       17.257623
  O           37.467605       14.281128       34.830186
  H           38.248529       14.814714       34.995014
  H           37.774833       13.582748       34.246646
  O           14.132451       40.286516       33.345273
  H           14.591385       40.119035       32.518801
  H           14.478380       39.623966       33.948599
  O            2.417514       27.918065       29.107616
  H            2.581306       28.660432       28.521282
  H            1.828360       27.346081       28.609244
  O           19.571656       39.974940       22.546665
  H           20.397154       39.813036       22.083993
  H           18.892934       39.818195       21.885295
  O           21.882263        8.568049        4.542635
  H           22.810689        8.740335        4.369231
  H           21.713154        7.723252        4.117945
  O           28.769882       23.193677       39.703854
  H           28.094256       23.423503       39.061644
  H           29.343627       22.580653       39.237313
  O           40.965082        7.861499        5.947230
  H           40.186788        7.929246        6.505258
  H           40.753035        8.394232        5.176598
  O           23.264796       26.574030       31.618543
  H           23.360639       25.678866       31.952039
  H           22.588067       26.965261       32.176771
  O            5.018541       23.332128       26.108132
  H            4.158196       23.746308       26.208065
  H            5.005297       22.601514       26.731565
  O            2.284789       14.582142       12.866871
  H            3.204157       14.306668       12.842369
  H            1.828786       13.940165       12.316809
  O           35.148352       27.373608       16.124381
  H           36.035320       27.687351       16.315634
  H           35.267700       26.741351       15.411184
  O           32.485605        8.929820       39.082949
  H           31.684627        9.459092       39.077473
  H           33.163416        9.519576       38.743239
  O            5.679427        6.510627        1.769723
  H            5.815692        7.411728        1.467770
  H            5.018828        6.588688        2.462656
  O           33.713060        8.430117       21.267330
  H           33.201568        7.636375       21.440752
  H           33.378085        8.750561       20.426051
  O           35.730380       41.093557        1.714088
  H           36.201518       40.471226        1.155108
  H           36.417540       41.664056        2.067619
  O           22.691306       28.079993       20.854009
  H           23.425491       28.017282       21.469448
  H           22.763208       27.287809       20.315570
  O           30.820358       34.222204       14.370433
  H           31.398635       34.408468       13.627044
  H           29.956736       34.529639       14.083585
  O           25.912292       16.076009       37.058531
  H           26.538289       15.468459       36.657612
  H           26.241155       16.947176       36.822819
  O           30.774506        4.773509       12.594185
  H           31.436895        4.114520       12.814866
  H           30.306729        4.399244       11.843350
  O            3.241400        0.848512        9.086294
  H            3.899233        0.257625        9.460236
  H            3.090254        1.502478        9.773407
  O           17.736103        3.921608       13.887576
  H           18.462825        4.548929       13.895850
  H           17.333578        4.034421       13.022770
  O           24.345933       21.334355       24.612077
  H           23.970630       22.192630       24.401751
  H           23.761960       20.977449       25.286047
  O            1.208880       28.542973       20.880975
  H            0.305300       28.306178       20.659173
  H            1.180275       28.738305       21.821012
  O           41.059705       24.552999       22.368841
  H           42.000000       24.578704       22.560961
  H           40.639826       24.782794       23.201631
  O           20.065469       38.641879       39.195072
  H           20.093032       37.733872       38.884446
  H           19.366645       39.049822       38.677511
  O            5.827345       24.345664        9.587855
  H            6.668398       24.808282        9.606268
  H            5.251189       24.876187       10.143941
  O           29.688663       31.361610        1.955873
  H           30.599194       31.068386        1.874144
  H           29.167516       30.583577        1.742068
  O           37.202557       32.709966       14.709156
  H           38.062302       32.307355       14.566094
  H           36.586683       31.973388       14.680981
  O            4.371881       35.820872       29.369439
  H            4.245059       35.638699       30.303492
  H            4.845418       36.656388       29.351618
  O           32.453872        9.023439       16.899919
  H           33.276851        8.563704       16.718058
  H           32.698495        9.713134       17.522110
  O           23.738226       10.704057       31.337434
  H           23.656385       11.411235       31.981581
  H           22.988195       10.828312       30.750359
  O           24.671041       23.156723        4.670661
  H           24.683434       22.538789        3.935999
  H           25.528532       23.588005        4.633952
  O           26.991068       40.541763        3.055841
  H           27.483438       41.324620        2.798098
  H           26.479203       40.822433        3.818640
  O           29.402339       12.617244       33.078871
  H           30.266695       12.490220       33.476966
  H           29.581282       13.105027       32.270978
  O           37.474307       35.395403        2.242368
  H           36.877888       35.965570        1.751533
  H           38.325079       35.513781        1.812465
  O           24.839016       37.929544       33.952949
  H           24.059197       38.162180       34.462349
  H           24.490188       37.531999       33.151127
  O           29.701137       39.791294        8.446237
  H           30.359362       40.378032        8.066497
  H           28.984056       39.791981        7.807147
  O            9.741172       21.407932       19.597361
  H            8.893247       20.958583       19.568469
  H           10.090011       21.203079       20.468560
  O            6.831143       28.825565       22.474071
  H            7.724793       29.175218       22.503350
  H            6.871152       28.024394       23.002434
  O           25.551697        3.208287       25.121918
  H           26.172515        3.788911       24.675616
  H           26.089688        2.724348       25.753591
  O           30.591021       33.316545       34.252759
  H           30.411396       33.137402       33.326818
  H           29.891139       32.857966       34.724470
  O           13.949615        6.822720        6.111292
  H           14.551608        6.112560        6.345815
  H           13.117727        6.379130        5.927355
  O           19.001239       30.674364       25.575925
  H           19.822011       30.769659       25.087072
  H           18.989795       31.427645       26.171809
  O           33.522818       19.270302       33.119297
  H           32.682665       19.279940       33.583814
  H           33.470698       20.016540       32.516757
  O            7.730434       29.781221       12.279238
  H            7.837440       28.987474       12.808616
  H            8.573060       30.235593       12.357784
  O            8.873148       15.338662       10.608281
  H            8.837258       14.411239       10.362671
  H            9.572685       15.384513       11.264930
  O           13.760485        3.914872       13.723368
  H           13.933826        3.363666       14.490082
  H           13.008241        3.498246       13.295357
  O           32.672237       16.116312       40.327511
  H           33.242766       16.118154       41.099663
  H           33.278885       16.107338       39.582837
  O            1.290557       21.760599       25.045069
  H            0.507555       21.569383       25.566672
  H            1.772033       20.929699       25.024376
  O           30.486058       35.672286       29.304798
  H           29.609631       35.731466       29.692225
  H           31.076275       35.604110       30.059542
  O           23.394967       15.229323        4.093534
  H           22.487819       15.335948        4.389232
  H           23.348725       14.540139        3.426054
  O           36.529011        3.553234       40.563423
  H           36.714955        3.705399       39.633909
  H           35.758781        2.979314       40.561657
  O            7.698736       26.777070       26.353148
  H            7.576936       26.888866       25.407425
  H            8.200734       27.550612       26.621984
  O           12.430360       17.002424       21.950480
  H           13.160715       17.621559       21.879927
  H           11.919842       17.320277       22.699468
  O           13.961094       38.867868       20.696553
  H           14.861852       38.954385       20.375811
  H           13.610182       39.761488       20.665801
  O           28.518532       32.834951       24.485026
  H           29.403042       32.495365       24.640103
  H           28.183872       32.304972       23.757176
  O           12.108556       23.384230        4.534108
  H           13.050757       23.536085        4.638614
  H           11.698656       23.994889        5.151943
  O           25.747409       25.503365       26.540822
  H           25.953791       24.566443       26.576996
  H           26.526397       25.904065       26.146793
  O           11.989436       35.682659        4.752525
  H           11.854031       36.356188        4.081891
  H           11.104822       35.370309        4.958768
  O           18.758405       21.816040        4.627222
  H           19.239266       22.382804        5.234903
  H           19.346883       21.720350        3.874109
  O           23.200394       37.893139        0.326728
  H           23.936387       37.358130        0.633004
  H           23.543197       38.790421        0.322955
  O            4.368390       31.655627       16.449275
  H            3.885292       30.904013       16.800583
  H            5.084431       31.792310       17.074771
  O           33.828158       20.746144       13.648141
  H           34.763815       20.560145       13.540085
  H           33.773476       21.705111       13.642393
  O           22.301926        8.504491       36.130750
  H           21.356217        8.625908       36.018423
  H           22.385977        8.055612       36.975785
  O            5.522179       35.410854       26.724734
  H            4.664426       35.356430       27.152547
  H            5.325303       35.707795       25.832710
  O            3.453338       37.202997       12.657767
  H            3.115476       37.614375       11.858804
  H            4.407992       37.232436       12.555734
  O           38.356108        5.568879       28.477475
  H           37.540565        5.373854       28.945000
  H           38.082652        6.122753       27.741889
  O           21.464414       21.439227       12.525510
  H           22.299803       21.171264       12.135579
  H           20.906492       20.660770       12.452229
  O           16.741085        1.281431       40.668559
  H           16.441881        0.369686       40.698919
  H           17.499312        1.264046       40.079126
  O           23.212725       27.211782        0.742761
  H           23.818787       27.159630        0.000000
  H           23.707292       26.845439        1.480216
  O           17.436088       11.419118       26.360666
  H           18.155117       12.050999       26.434473
  H           17.869515       10.588288       26.149706
  O           19.718856       11.145733       38.838826
  H           18.818543       11.444434       38.690705
  H           19.655467       10.567283       39.603038
  O           20.885413       31.315917       38.898175
  H           19.960367       31.420577       38.663522
  H           21.134413       32.165418       39.270987
  O           25.459532        0.102840       40.549396
  H           25.188068        0.005579       41.465132
  H           24.645395        0.009922       40.048209
  O           41.276767       28.948622        9.690529
  H           40.353029       28.871871        9.440446
  H           41.385616       28.310061       10.399778
  O           38.341586        3.380731       33.577216
  H           37.982097        4.040697       32.979773
  H           37.792197        3.445484       34.362468
  O           18.080936       27.405167       35.098175
  H           19.002567       27.136303       35.092420
  H           18.090441       28.280687       35.493163
  O           35.796559       11.120525       28.069372
  H           35.615550       10.180249       27.999793
  H           36.274793       11.210629       28.897512
  O           22.270208       29.021915       39.018164
  H           23.216879       28.925278       39.145446
  H           22.145052       28.917783       38.071521
  O           37.033907        0.501832       39.162018
  H           37.851787        0.753133       39.597500
  H           37.317363        0.000000       38.393604
  O           26.374034       31.129617       17.257699
  H           26.527480       30.521039       17.984205
  H           26.073699       31.937095       17.682458
  O           17.908757       20.129000        9.219393
  H           18.549069       19.797667        8.585403
  H           18.328351       19.996876       10.073282
  O            4.166046       22.235170       13.396036
  H            4.674315       21.722883       14.029241
  H            3.352314       21.737081       13.284730
  O           14.685512       31.559008       14.905709
  H           14.970637       30.649304       14.792272
  H           13.764053       31.489151       15.167767
  O           34.564516        4.878305       39.451212
  H           34.873578        5.580538       38.874087
  H           33.623592        5.045670       39.547612
  O           34.183507       16.080976       13.469236
  H           33.373336       15.676785       13.788573
  H           34.845810       15.833460       14.119415
  O           28.305942       27.865627       39.784284
  H           28.505438       26.957685       39.544352
  H           28.597012       28.381521       39.028127
  O            5.113311       24.046779        2.823082
  H            4.360317       23.887157        2.249282
  H            5.814475       23.504740        2.452670
  O           40.373630       23.602769       28.891353
  H           40.532899       24.039460       29.731388
  H           39.540458       23.970300       28.585760
  O           40.891638       28.602310       32.160698
  H           40.650319       28.297028       33.038361
  H           41.553679       27.973205       31.863089
  O            5.075036       23.384296       11.751121
  H            4.163320       23.652058       11.614001
  H            5.257742       22.780544       11.026729
  O           12.777540       38.739710       13.363600
  H           12.308158       38.556539       12.546377
  H           12.108505       39.109831       13.945016
  O           30.031862       11.578360       22.537356
  H           30.190101       12.459345       22.884561
  H           30.679539       11.478994       21.835014
  O           11.181594       12.144796       16.966339
  H           12.110315       12.126137       16.723739
  H           11.109321       12.883174       17.576435
  O            1.658307       22.368856       10.242004
  H            2.373388       22.366887       10.882614
  H            1.617189       21.462094        9.927786
  O           42.000000       12.406113       25.166160
  H           41.282822       12.378776       25.803838
  H           41.980854       11.541300       24.748580
  O           11.068013       18.201393       33.341348
  H           11.537142       18.295501       32.509010
  H           11.191011       17.279515       33.581461
  O           18.923541       17.554082       19.464372
  H           18.109209       17.281076       19.035353
  H           18.972970       17.006927       20.252294
  O           34.004515       24.464960       40.230838
  H           33.293804       25.059629       40.481804
  H           34.452434       24.918576       39.512338
  O           22.474412       31.366931        9.617490
  H           22.777460       32.230744        9.906825
  H           23.211329       31.012114        9.113804
  O           16.616370       19.682953       18.436236
  H           16.809274       19.681489       19.376721
  H           16.580562       20.613717       18.201635
  O            4.050639       25.414527        6.365996
  H            3.683308       24.581448        6.670580
  H            3.354539       25.799347        5.827480
  O           33.839397        0.011894        4.265762
  H           34.057388        0.836719        4.706069
  H           34.077479        0.161722        3.347334
  O           19.864625       27.100326        5.431577
  H           19.658462       26.576105        4.654137
  H           20.133478       26.454734        6.090038
  O           35.661628       23.218623       25.061275
  H           36.417783       23.802950       25.153553
  H           35.000670       23.588948       25.651728
  O           34.851433        7.295373       36.062634
  H           34.819210        7.138918       35.115951
  H           34.746391        8.246067       36.150892
  O           10.390408       32.579984       23.976770
  H           11.161983       32.876349       24.465201
  H           10.209931       33.293908       23.360020
  O           41.377554       18.972456        2.043985
  H           40.571258       18.510226        2.284723
  H           41.397666       19.735970        2.626466
  O            4.142952        6.567555        9.277072
  H            3.325997        6.323331        9.718280
  H            3.858952        6.939195        8.438102
  O           26.908323       35.131035       33.534707
  H           26.641217       34.243342       33.284945
  H           27.480783       35.002660       34.295267
  O           23.996833       24.762698       36.148891
  H           24.206415       24.152526       36.859869
  H           24.375406       24.355320       35.365713
  O           32.434183       32.461293       41.128410
  H           32.816844       32.336289       42.000000
  H           32.775651       33.310715       40.837683
  O            8.922611       28.413093       24.203823
  H            9.479761       28.217332       24.960782
  H            9.489699       28.258667       23.444082
  O           29.197727       24.326055       34.389049
  H           29.040142       24.828880       35.191582
  H           30.082290       24.582879       34.116595
  O           40.172491       38.741757       24.561313
  H           39.881329       39.587432       24.212338
  H           39.770303       38.691974       25.432180
  O           32.119517        7.890307        8.286345
  H           33.019424        8.155458        8.490274
  H           32.197197        7.392166        7.468749
  O            7.742013       35.594801       23.997722
  H            6.853953       35.952765       23.927468
  H            7.637287       34.799088       24.525468
  O           18.113018       41.284625        7.453692
  H           17.541963       41.553035        6.730106
  H           18.973066       41.646409        7.225498
  O            7.258697        2.215416       37.513597
  H            8.103430        2.671330       37.530702
  H            6.961662        2.229416       38.426952
  O           21.090502       14.066400        3.177556
  H           20.439867       13.535806        2.711864
  H           21.440416       13.477646        3.851032
  O           35.577232       30.888971       31.072970
  H           36.405091       30.997596       31.546864
  H           35.365377       29.957496       31.173540
  O           41.526977       22.872132        1.447251
  H           41.170426       23.179061        0.610357
  H           41.801470       21.968407        1.272390
  O           17.501464       24.107678       39.337929
  H           17.561397       23.393348       39.976572
  H           16.573987       24.127645       39.088871
  O            1.375531       29.096873       33.604766
  H            1.643435       30.011593       33.489704
  H            0.512864       29.151964       34.023588
  O           38.012877       21.321547       29.838372
  H           37.186330       21.105595       30.276447
  H           37.744809       21.721730       29.007327
  O           38.957315       15.924256       24.418190
  H           38.789327       15.009750       24.179060
  H           39.462092       15.868646       25.233512
  O           25.086236       29.303057        7.125798
  H           25.499031       29.006276        6.311399
  H           24.600331       28.536359        7.439983
  O           35.091308       18.718597       19.255346
  H           35.044129       18.616033       20.208751
  H           35.086048       17.819171       18.918232
  O            2.909455       25.415131       18.332633
  H            2.884109       24.468096       18.488221
  H            2.480894       25.528311       17.480479
  O           25.653702       30.234030       34.298270
  H           25.687764       29.373618       34.722835
  H           24.950344       30.151988       33.649273
  O           13.004614       21.849113       36.231797
  H           13.778937       21.548620       35.750286
  H           13.310046       22.619350       36.717686
  O           13.454014       19.377149       32.342388
  H           14.053372       18.659938       32.561712
  H           13.493699       19.962139       33.103213
  O            1.816829       41.840511        3.192602
  H            0.999294       41.337195        3.186652
  H            2.005394       41.999999        2.264352
  O           35.690682        0.678081       35.777590
  H           35.819624        0.830722       36.716632
  H           35.011498        0.000049       35.737295
  O            9.481350        6.607443       29.635052
  H            8.650895        6.447459       29.180656
  H            9.698565        5.763464       30.038983
  O            8.967560       30.503128       25.177498
  H            8.793686       31.424989       25.381619
  H            9.729154       30.527952       24.592690
  O            2.233669       12.891042       37.560595
  H            1.610202       13.352009       36.994447
  H            2.745466       12.346027       36.957550
  O            8.001351        7.358816       15.192920
  H            7.848963        7.062677       14.292473
  H            7.882774        6.569220       15.726886
  O           27.914697        2.044408       17.690232
  H           28.440766        2.124675       16.891149
  H           27.916271        1.103453       17.883215
  O           15.998294       22.209431       37.506468
  H           15.235517       22.726047       37.776662
  H           15.768643       21.306015       37.738294
  O           32.097226       35.722197       11.435066
  H           31.179169       35.483641       11.583347
  H           32.463863       35.819333       12.317553
  O           35.560689       20.958590       34.214711
  H           36.416767       21.320934       34.454633
  H           35.715375       20.516743       33.375971
  O           19.422205        2.638101       24.768093
  H           20.333035        2.341398       24.831979
  H           19.360435        3.031805       23.894123
  O           25.526146        3.117446       37.008157
  H           24.957227        2.345593       37.056101
  H           26.190627        2.966288       37.685104
  O            7.016616       13.453179       39.472084
  H            7.515658       12.723120       39.098326
  H            6.407973       13.035894       40.086957
  O           29.550171       39.272508        1.559018
  H           29.561439       40.188485        1.846391
  H           30.251006       39.219386        0.904304
  O           27.519764       33.023808       35.899140
  H           26.849467       32.712739       36.512054
  H           27.101331       32.962091       35.036732
  O           24.774450       37.156702       38.397491
  H           24.587698       36.267718       38.708225
  H           24.800533       37.074333       37.440842
  O            2.103225        1.522657       39.738327
  H            1.459007        1.719647       39.054292
  H            1.702660        0.812117       40.245597
  O           11.473999       25.792668       17.981897
  H           10.538290       25.578483       17.964638
  H           11.804766       25.352950       18.769224
  O            4.937387        8.987357        4.384924
  H            4.135754        8.571790        4.711136
  H            4.624486        9.694328        3.814902
  O           13.598061       14.798938       19.873965
  H           13.904302       15.513314       20.437533
  H           13.971683       14.998459       19.011852
  O           31.385925        8.515993       14.386053
  H           32.149183        9.044068       14.631609
  H           31.703281        7.954983       13.673877
  O           23.504802        8.469254       31.628059
  H           23.319108        8.451769       30.686286
  H           22.694189        8.798053       32.024848
  O            4.369293       14.097811       28.492505
  H            5.000580       14.797705       28.309887
  H            3.692066       14.520888       29.026369
  O           23.691930       11.991644       12.982022
  H           23.212238       11.451513       12.349662
  H           24.428897       11.439962       13.256189
  O           29.503532       31.028241        8.444095
  H           30.259883       31.619002        8.418429
  H           29.502630       30.680819        9.339605
  O           28.421585       27.260303       27.222490
  H           28.553403       26.383144       26.855147
  H           27.906630       27.110183       28.019313
  O           16.529326       22.553480       28.381114
  H           16.576463       22.123752       27.523887
  H           17.305100       22.235813       28.850053
  O            4.267317        6.562863       23.267273
  H            5.039737        7.120843       23.150012
  H            4.532643        5.925713       23.935319
  O           23.245089       28.118741       33.931434
  H           24.145767       28.104997       33.599297
  H           23.164068       28.971707       34.365630
  O           39.876502        2.600528       17.355962
  H           40.723297        3.052418       17.334564
  H           39.789652        2.215256       16.480368
  O            3.929539       16.616334       24.390734
  H            3.292889       15.954752       24.671291
  H            3.553905       17.449348       24.686755
  O            3.483497       33.460313       31.657179
  H            3.684847       34.360516       31.923293
  H            4.100057       33.279166       30.943258
  O           32.511357        2.547856       10.868155
  H           31.556619        2.447602       10.855953
  H           32.676620        3.323308       10.325934
  O            7.533841       22.788024       19.497691
  H            8.325523       23.006806       19.000601
  H            7.742777       23.038453       20.401169
  O           11.673152        7.204652       24.211561
  H           10.757854        7.467679       24.333097
  H           12.058285        7.914723       23.691837
  O           24.624557       38.658184       20.478342
  H           24.850650       39.028057       19.621720
  H           23.850923       38.115267       20.306954
  O           34.008313       41.704986       21.889379
  H           33.330029       41.028055       21.830901
  H           34.504428       41.477748       22.679869
  O           12.689571        7.470473       31.393804
  H           11.905278        7.944078       31.106910
  H           12.381964        6.913761       32.113590
  O           28.396075        3.117489       10.048523
  H           28.604531        3.205812       10.981512
  H           29.249910        3.005504        9.623003
  O            2.685933       33.617335       23.431654
  H            2.522227       34.523695       23.702646
  H            2.814196       33.141442       24.256103
  O           31.892233       23.977283        1.685400
  H           31.963100       24.856418        1.306158
  H           31.441019       24.114268        2.522229
  O           19.759264       22.932232       35.490149
  H           19.610473       22.041526       35.164221
  H           19.954901       22.815111       36.423236
  O           13.343102        2.127488       10.826411
  H           13.534670        2.980574       11.222985
  H           13.884624        2.106223       10.033351
  O           17.116059       14.381200       26.678293
  H           16.528626       15.129231       26.547539
  H           16.821026       13.987716       27.503380
  O           21.274731       19.353191       25.699676
  H           22.212739       19.431670       25.510712
  H           21.019423       20.226847       26.006570
  O           24.571977       41.263529       20.712456
  H           23.649778       41.525369       20.660352
  H           25.004470       42.000000       21.152003
  O            0.699710        3.840919       40.767359
  H            1.522874        3.378712       40.941974
  H            0.024571        3.282546       41.161121
  O           10.274468       38.050635       13.216867
  H            9.422589       38.455294       13.037205
  H           10.150650       37.595892       14.053838
  O           18.787492       22.703454       12.047650
  H           18.203455       23.441723       11.859009
  H           19.617656       23.114872       12.301039
  O            5.119402       15.340142       10.022557
  H            4.860853       14.439462       10.231489
  H            5.819503       15.242459        9.372204
  O           13.892421       22.436452       27.248071
  H           14.534775       21.957091       26.719564
  H           14.423458       22.936786       27.872816
  O           24.384785       30.422897       24.274967
  H           23.740666       29.900162       23.791663
  H           25.115435       29.818557       24.428480
  O           37.441734        2.991726       12.528604
  H           37.142115        3.790181       12.969538
  H           37.633936        3.273105       11.630535
  O           36.830912       37.005296       41.305501
  H           36.734090       36.052120       41.243817
  H           36.319711       37.345186       40.566725
  O           30.689562       22.108033       18.704886
  H           30.112001       22.754638       19.117258
  H           31.138690       22.597605       18.011168
  O           28.978484        2.916777       35.627400
  H           29.110890        3.710707       36.150725
  H           29.621357        2.989243       34.917397
  O            9.554428       34.212409        1.855155
  H            9.535515       33.933232        2.773538
  H            8.760462       33.829785        1.473239
  O           32.103193        5.637893       31.381619
  H           32.952118        5.257782       31.143779
  H           32.302142        6.225654       32.114830
  O            1.525310        7.794625        9.934514
  H            0.645434        7.932085       10.293190
  H            1.639060        8.508349        9.301821
  O            9.462614       13.000362       12.723367
  H            9.472789       13.860397       13.149936
  H            9.878258       13.152141       11.870814
  O           37.999004        8.963999       39.715291
  H           38.716651        9.371438       39.224677
  H           38.357702        8.122211       40.007475
  O           17.269556       29.331267       17.575653
  H           18.149316       29.715629       17.579216
  H           16.745502       29.930225       18.113480
  O           30.155979        6.497679       15.798947
  H           30.589614        7.316705       16.049712
  H           30.694494        6.152467       15.082378
  O           18.304575       18.366744       27.487943
  H           17.561310       17.762528       27.552800
  H           18.963357       17.999023       28.082443
  O           36.983282       30.702224       16.846439
  H           37.658287       30.034806       16.990131
  H           36.355150       30.282247       16.253387
  O           16.834293       28.539692       29.118610
  H           16.548735       27.626868       29.201881
  H           17.217693       28.748572       29.974189
  O           18.185410        6.650778        8.418402
  H           17.242515        6.793259        8.529635
  H           18.291839        6.482026        7.478807
  O            9.142875        5.901546       25.751740
  H            9.353723        5.972955       26.685640
  H            8.449324        5.238070       25.713945
  O           11.099962       34.775159       25.574769
  H           10.498565       35.047027       26.272002
  H           11.929997       34.606981       26.027979
  O           16.171332        3.881213       11.160635
  H           15.718433        3.091528       11.465600
  H           15.463433        4.482567       10.915900
  O           31.954888        8.948070       31.975303
  H           32.334891        8.566208       32.769976
  H           31.542699        8.205068       31.527319
  O           15.140203       20.974544       21.264918
  H           15.448603       20.065392       21.257405
  H           14.183062       20.901366       21.299071
  O           31.408403       21.953155       15.847919
  H           30.558472       22.148906       15.446642
  H           31.911703       22.765217       15.748488
  O           36.281780       18.713615        3.155166
  H           36.048363       19.616728        3.382384
  H           35.664865       18.476027        2.458309
  O           24.719382       19.605273       32.087013
  H           24.641150       18.698752       32.393319
  H           24.777546       19.529809       31.131208
  O           21.792966       21.230885       21.893300
  H           22.435716       21.896207       21.636504
  H           21.342604       21.614075       22.650256
  O           18.877272       20.823008       27.187660
  H           18.103787       20.548612       27.685810
  H           18.856056       21.782636       27.223790
  O            8.228498       24.107124       35.900102
  H            8.380298       23.761664       36.782904
  H            8.526388       25.019129       35.946469
  O           33.722508       39.007676       40.277221
  H           34.677979       39.077895       40.339419
  H           33.400948       39.401254       41.092290
  O           25.087074        7.140641       15.166360
  H           25.329443        6.986934       16.082524
  H           25.614130        7.899751       14.904430
  O           26.943811       36.379605       36.830185
  H           27.774778       35.899590       36.858535
  H           26.429889       35.927037       36.156606
  O           25.223924       26.756795       29.867995
  H           24.951988       25.968133       30.343165
  H           26.005980       26.484233       29.381434
  O           14.043757       36.473304       25.243457
  H           14.801999       37.059765       25.190001
  H           14.357891       35.643330       24.875891
  O           22.242178       34.929146        1.018663
  H           22.901395       35.096212        1.696340
  H           22.325104       33.990656        0.831573
  O            8.760619       26.488116       15.936998
  H            9.550223       26.837054       16.357108
  H            8.144728       26.353307       16.661668
  O           15.015328       32.484518       17.428499
  H           15.023450       31.925830       18.209221
  H           14.106356       32.449840       17.119938
  O           10.799001        5.785850        9.491080
  H           10.038810        6.314265        9.745267
  H           11.209206        6.284774        8.780131
  O            6.384346       29.623388       25.143496
  H            7.093252       29.125243       25.557053
  H            5.704737       28.968252       24.965812
  O           20.570116       23.888593       32.916810
  H           20.775925       24.173648       32.023440
  H           21.261657       24.279242       33.457001
  O           36.103957        0.851633       21.341903
  H           35.771093        1.732637       21.528336
  H           36.781831        0.988970       20.675368
  O            1.171653       39.275041       39.210174
  H            1.686868       38.500643       38.972297
  H            0.285320       38.935575       39.357888
  O            0.148907       35.687307       19.539228
  H            0.011185       35.313402       20.412700
  H            0.005341       34.950996       18.939332
  O           21.000823       21.155103       33.059244
  H           21.873279       21.501135       33.261253
  H           20.680960       21.715457       32.347674
  O           31.259487       36.265759       38.012993
  H           31.808248       36.319588       38.798925
  H           30.367304       36.157733       38.352083
  O            9.586603       21.275859       26.300378
  H           10.136274       20.491906       26.229643
  H            8.857920       21.005987       26.865030
  O           31.072995       24.532064       10.078921
  H           30.963868       24.338804       11.012980
  H           30.193709       24.780307        9.782487
  O            8.905024       27.913755        0.497449
  H            8.095650       27.411283        0.378455
  H            9.364258       27.461010        1.209326
  O           24.080968       17.979901       14.830788
  H           23.900318       17.063326       14.609472
  H           24.766711       17.932488       15.501720
  O            1.104595       17.610743        7.447537
  H            0.260424       17.524108        7.896530
  H            0.964347       18.315371        6.809985
  O           35.472977       16.817442       30.708763
  H           35.325356       16.510005       29.811314
  H           34.653724       17.258419       30.947523
  O           13.068675        4.245588       31.205755
  H           13.148765        3.573134       31.886281
  H           12.609023        3.804026       30.487156
  O           11.172866       25.417511       28.634084
  H           11.534457       26.066098       29.242618
  H           11.705465       25.512350       27.840368
  O            0.491357       16.070996       30.810966
  H            0.015420       15.436618       31.352051
  H            0.688520       16.795190       31.410393
  O           34.928667       12.424573       10.896988
  H           34.178932       12.867801       11.300931
  H           34.830134       11.504995       11.156430
  O           34.524856       17.662876       24.368427
  H           34.867733       18.337723       24.958971
  H           34.833008       17.928533       23.498306
  O           21.713853        9.444433       12.046878
  H           21.120905        9.494543       11.293467
  H           21.293243        8.816780       12.639989
  O           14.933549        9.449661       13.937997
  H           14.902447        9.970075       13.131816
  H           15.402594       10.007315       14.563826
  O           16.733661        2.796175       20.790207
  H           17.620607        3.076706       21.027598
  H           16.260200        2.770231       21.625553
  O            6.816827       23.828970        6.294653
  H            5.930782       24.133314        6.504472
  H            7.098767       24.395722        5.572196
  O           33.407516       38.146707       30.806323
  H           33.753886       37.509752       31.435641
  H           32.722599       37.666820       30.333841
  O           38.322201       41.105078        3.015139
  H           38.638229       40.553361        2.295792
  H           39.105506       41.568760        3.321853
  O           10.612556       37.066772       40.118231
  H           10.147115       36.315413       39.743333
  H           11.470989       36.715253       40.367568
  O           27.169184       11.518386        5.702431
  H           27.478182       10.867889        5.067531
  H           26.211481       11.463338        5.653273
  O            1.874447       24.724015        4.126198
  H            1.081236       24.845293        4.653297
  H            2.438996       24.168229        4.669365
  O           36.102745       17.671434       38.916576
  H           35.816208       18.532132       38.602219
  H           35.357821       17.343871       39.426902
  O           10.347617       34.936570       20.705989
  H           10.754549       34.442937       21.421850
  H           10.871846       35.738855       20.641450
  O           29.716613       19.311339        7.720318
  H           30.285225       18.603080        7.409231
  H           30.228630       20.110496        7.572571
  O           21.987533       11.274978        9.201823
  H           21.635627       12.016820        8.704271
  H           22.109016       11.619787       10.090075
  O           24.010267        9.726444       23.464493
  H           24.928861        9.857181       23.711107
  H           24.044208        9.086129       22.749310
  O           31.501109       30.607941       15.751386
  H           31.305694       30.829982       16.664751
  H           32.459123       30.649652       15.695593
  O           27.452224       37.181314        8.837778
  H           26.696218       37.772364        8.808782
  H           27.066647       36.301761        8.856691
  O           31.037216       15.002135       31.007397
  H           30.363733       15.091156       31.685793
  H           30.863903       14.144809       30.610412
  O           24.146308       33.537566       18.048707
  H           24.090071       33.388662       17.101928
  H           23.269324       33.842657       18.294593
  O           36.276278        6.393652       23.736548
  H           36.372678        6.560653       22.796046
  H           37.099653        5.968120       23.988773
  O            6.141783       10.858807        6.117199
  H            5.286835       10.428757        6.040742
  H            6.314052       11.204943        5.237906
  O           11.076777       10.235631       32.962449
  H           10.697227       11.089505       33.182827
  H           10.632077        9.979432       32.150510
  O           41.837952        1.197474        1.657118
  H           41.101772        0.977556        2.232791
  H           41.810783        0.527904        0.968947
  O           33.483013        1.424647       25.984884
  H           32.678093        0.989064       26.274879
  H           33.182668        2.258195       25.613897
  O           31.244782       33.811497       27.302494
  H           31.504902       34.697157       27.566444
  H           31.825072       33.602018       26.566271
  O           18.031834       25.213582       18.014853
  H           18.310104       24.961952       17.131126
  H           18.704471       25.832831       18.309357
  O            1.868628       21.321616        5.453619
  H            0.974936       21.020680        5.633832
  H            1.752209       22.089726        4.888734
  O            9.137308       12.924339       15.929169
  H            9.278134       13.873765       15.907177
  H            8.338743       12.789722       15.412629
  O            7.549292       20.668126       15.640637
  H            7.080362       21.485205       15.825599
  H            8.076693       20.866733       14.862791
  O           31.513501       28.815080       30.458402
  H           32.384340       29.216557       30.411698
  H           31.599244       28.137499       31.133809
  O            6.863996       12.257845       11.627956
  H            7.168662       12.110172       12.526341
  H            6.066783       11.726856       11.556229
  O            8.850259       38.741292       31.520599
  H            8.639123       39.671420       31.411016
  H            8.041511       38.351892       31.862558
  O           39.388116       26.432025        2.919465
  H           38.760344       27.147706        3.043672
  H           38.993080       25.686098        3.377921
  O           38.357516        1.888022       23.093164
  H           38.579155        1.617829       23.987366
  H           37.429957        2.132934       23.141082
  O           21.205292       17.505407       23.139793
  H           22.140924       17.335289       23.007973
  H           20.765031       16.787127       22.678397
  O            8.651363       27.929446       40.251374
  H            8.505630       28.004720       39.305425
  H            9.485157       28.382280       40.400943
  O            7.348909        9.115689       33.764389
  H            7.421176        8.367830       33.166718
  H            6.403205        9.254490       33.859363
  O            0.543960       37.573504       16.941721
  H            0.000021       38.348043       17.102793
  H            1.222514       37.880627       16.335188
  O           29.423969       12.617569       40.333297
  H           29.518328       12.721586       41.283035
  H           28.682538       13.183539       40.103951
  O           19.839663       37.998460        3.739462
  H           19.181135       38.485121        3.238238
  H           20.658617       38.475537        3.583403
  O           16.732382       34.979566        7.587858
  H           17.660343       35.166132        7.427211
  H           16.668563       34.022722        7.532906
  O            9.328203       37.398858       21.820152
  H            9.782968       37.616329       21.003071
  H            9.064644       36.481828       21.709544
  O            3.308718       15.786358        8.763012
  H            2.662435       16.285291        8.257929
  H            2.813854       15.444876        9.512106
  O           16.912565       13.027226       39.613021
  H           16.501715       13.880988       39.768003
  H           17.443020       13.157794       38.822951
  O           39.125650        6.471382       14.907538
  H           39.601854        5.698630       15.220282
  H           38.329473        6.114416       14.505892
  O           36.079942       18.688365       27.520936
  H           35.144599       18.845533       27.372082
  H           36.117086       18.272050       28.385774
  O           37.810702       31.843314       34.611739
  H           37.118784       32.505477       34.544547
  H           37.518362       31.264004       35.319962
  O           13.490256        5.175203       37.038356
  H           12.718484        5.724773       37.193486
  H           13.256198        4.323466       37.415718
  O           34.789828        9.446979        8.275664
  H           34.677501       10.361871        8.007185
  H           35.603652        9.170797        7.846648
  O           25.864467       31.806323       38.827012
  H           25.663891       31.593118       39.741363
  H           25.790230       30.967579       38.364801
  O           18.956977       24.221112        8.737379
  H           18.166379       24.765324        8.714746
  H           18.761029       23.542918        9.388762
  O           29.296152       28.995828       41.391184
  H           30.027990       29.272678       41.947505
  H           28.674441       28.589060       42.000000
  O           40.315942        2.130631       13.763366
  H           40.001597        2.985990       13.461252
  H           39.590792        1.781774       14.287864
  O           40.518025        4.165089        1.555373
  H           39.692365        4.654996        1.556925
  H           40.320952        3.364146        2.047607
  O           39.790148       39.008878       32.002106
  H           39.405545       38.908498       32.876022
  H           40.386837       39.756617       32.088656
  O           15.906887       23.613773       32.320568
  H           15.830597       24.570718       32.333252
  H           16.693773       23.430412       32.840022
  O           20.946088       25.844201       27.299682
  H           20.743854       25.817501       26.361539
  H           21.466048       25.051471       27.454159
  O           25.102745        4.253205       14.772911
  H           24.657739        4.522696       15.579800
  H           25.602823        5.028662       14.506022
  O           30.411869       10.061787       37.369473
  H           30.407689       10.853259       36.826076
  H           29.902230        9.423145       36.864451
  O           21.873539       25.475376        0.565349
  H           22.340671       24.855785        0.000000
  H           21.191332       25.846343        0.000000
  O            8.532067       11.129913       40.697732
  H            8.303117       10.221765       40.908860
  H            7.854077       11.653831       41.131877
  O           35.100765        5.172366       27.853701
  H           34.593845        5.713324       27.243683
  H           34.615007        5.226475       28.680595
  O           18.263567       18.478277       40.094231
  H           18.823916       19.169070       39.732929
  H           17.725321       18.927085       40.751121
  O            2.838816        4.260355       30.071694
  H            2.970930        4.714317       29.236117
  H            1.884527        4.223443       30.174710
  O           33.816527       22.343993       35.851033
  H           33.408198       22.415531       36.716986
  H           34.111861       21.431332       35.801347
  O           35.019077       26.859820       19.588140
  H           35.459819       26.185130       20.109930
  H           34.991065       26.494201       18.700345
  O           34.785562       26.384412       25.419925
  H           34.024818       26.860391       25.078696
  H           35.538726       26.802841       24.995303
  O           22.713177       38.479212       14.648220
  H           22.156240       39.203309       14.352873
  H           22.343961       37.703705       14.218206
  O           36.925938        3.588613       16.396684
  H           36.820399        3.398156       17.331731
  H           37.229452        4.499599       16.371688
  O           27.687673        0.754768       41.051711
  H           27.404204        0.000000       41.572955
  H           27.427217        1.517120       41.574802
  O            6.724899       12.741503       31.097366
  H            7.219647       13.521373       31.359571
  H            7.176365       12.426178       30.310352
  O            8.872778       15.843580       31.812618
  H            8.647432       16.720936       32.130724
  H            8.083399       15.546598       31.352917
  O            6.077804       11.172827       20.680126
  H            6.374290       11.996997       20.286979
  H            5.352035       11.430081       21.254339
  O           13.798179       39.610125        7.765603
  H           14.124932       40.136881        7.032469
  H           14.274378       39.944086        8.530028
  O           32.896136       25.049396       27.128131
  H           33.842212       24.923305       27.024373
  H           32.656682       25.651591       26.419143
  O           21.425182       10.955786       19.289127
  H           21.845353       10.827711       18.435442
  H           20.625394       10.425818       19.243136
  O           37.819423        7.275633       16.675920
  H           37.940139        8.019208       17.271108
  H           37.081199        6.788128       17.050093
  O           35.964590        1.683245        1.320714
  H           35.799168        2.407415        1.928939
  H           35.548938        1.961062        0.500535
  O           33.956156        9.598337       30.335405
  H           33.641119       10.085165       31.100568
  H           33.426393        9.930988       29.606477
  O           21.420763       25.984017       29.842708
  H           21.764413       25.112442       29.632975
  H           21.226656       25.943954       30.782580
  O            7.175796        5.783656       22.627299
  H            6.584725        5.054139       22.426886
  H            6.870934        6.499266       22.063736
  O           40.575505       39.634798        2.814970
  H           41.120198       39.331103        2.085036
  H           40.990371       40.453798        3.097402
  O            3.860009       39.284883       38.358500
  H            4.086298       38.937725       37.492474
  H            4.330307       40.120793       38.410623
  O           11.444344       40.062021        9.014484
  H           11.007511       39.811718        9.831950
  H           11.784269       40.943856        9.186121
  O           36.808595       39.515666       40.670980
  H           36.998716       39.190256       41.553979
  H           36.742151       40.468023       40.777017
  O           21.628990        6.854384       11.554428
  H           21.612771        7.413789       10.774346
  H           22.522551        6.502706       11.577100
  O            7.728461        9.966983       31.608127
  H            7.021707       10.603168       31.740384
  H            8.450021       10.296108       32.150041
  O           17.759126       41.595017       30.847830
  H           18.608268       41.697617       31.283900
  H           17.628767       40.644546       30.800367
  O           36.113101       30.148135       27.055364
  H           36.031945       29.195740       26.965459
  H           37.060257       30.304807       27.086833
  O            9.277022       35.253960       37.655049
  H            8.515007       35.281225       37.071685
  H            8.918936       34.977073       38.502250
  O            0.706536       17.789056       25.212753
  H            1.499796       18.213631       24.877790
  H            0.751693       16.893619       24.868087
  O           18.463106        6.299763       22.300460
  H           17.756877        6.926625       22.473694
  H           19.161095        6.552503       22.910029
  O           19.614307        2.494172        3.443575
  H           19.525149        1.807083        4.108168
  H           20.205775        3.136991        3.843065
  O            2.679565       24.695443       34.254416
  H            2.739261       23.737966       34.291823
  H            2.099425       24.869219       33.508841
  O            5.609565        9.257825       41.966987
  H            6.543399        9.478257       42.000000
  H            5.539017        8.626089       41.246866
  O           28.395568       22.516758       22.919391
  H           27.642318       21.966086       22.693340
  H           28.948963       21.951714       23.464480
  O           38.068940        1.756299        1.988506
  H           38.955525        1.456528        2.202581
  H           38.195021        2.640644        1.635407
  O            9.626411       11.624495       27.688911
  H           10.476378       11.210226       27.855234
  H            9.761816       12.547212       27.918911
  O           28.447429       28.827429       36.468099
  H           28.987156       29.369285       35.887744
  H           27.661578       28.633726       35.950838
  O           10.738266       27.646128       10.803387
  H           10.300686       26.855258       10.479700
  H           11.158936       27.368198       11.620964
  O           33.965037       29.024329        1.893090
  H           33.923042       29.916563        1.541122
  H           33.174083       28.943139        2.432016
  O           40.944160       18.769923       10.475994
  H           41.029888       19.371392        9.732616
  H           39.996150       18.665815       10.590364
  O           17.121065       10.049248       39.074919
  H           16.664113        9.240095       38.833692
  H           17.603481        9.821573       39.873719
  O           16.281303       40.346227       27.920115
  H           16.460325       39.437965       28.174547
  H           16.537235       40.863749       28.687782
  O           12.181370       14.239146        1.085656
  H           12.593442       13.664129        0.436597
  H           11.986367       13.660522        1.827148
  O           19.128498       33.272738       15.415163
  H           18.443611       32.650584       15.159079
  H           19.481530       32.915096       16.233761
  O           35.477647       16.646841       26.964475
  H           35.751806       16.049952       27.664679
  H           34.524272       16.708943       27.063783
  O           12.025541       29.850066       14.207421
  H           11.907572       30.802394       14.177773
  H           12.729273       29.677243       13.576916
  O           23.898005       33.604576        7.186404
  H           24.215636       34.426122        6.804440
  H           23.884576       32.988544        6.449542
  O            6.867893       17.916957       14.007706
  H            7.665474       17.484777       14.322045
  H            6.935010       18.814499       14.343200
  O           17.295178       16.532430       11.343991
  H           16.523932       16.826243       11.834480
  H           17.882544       17.292456       11.345600
  O           24.437441        1.272808       23.335582
  H           25.274220        1.709388       23.511430
  H           24.384382        0.582148       24.001027
  O           11.592361       33.986258       38.226465
  H           10.960207       34.257398       38.896233
  H           11.556838       34.684974       37.568304
  O           16.767149       10.384510       36.700041
  H           17.688146       10.203368       36.901726
  H           16.625441        9.973858       35.843346
  O            9.487679       21.106104        2.199593
  H            8.549692       21.181022        2.009086
  H            9.533186       21.057002        3.157800
  O           30.596530       39.452263       14.760352
  H           30.456193       40.362669       14.489813
  H           29.767023       39.012600       14.557232
  O            9.552736        3.608628       40.349438
  H           10.463016        3.339237       40.206111
  H            9.033086        2.849639       40.072775
  O           22.574687       28.375068        9.410329
  H           22.176563       27.729504        9.998945
  H           21.838165       28.714589        8.895641
  O           33.736920       38.648565       21.440986
  H           34.199971       37.823830       21.605675
  H           32.978011       38.394005       20.910046
  O           31.135685        3.042260       23.766571
  H           31.300174        2.158635       24.104025
  H           31.688321        3.611130       24.308439
  O           40.295330       12.141466       17.382471
  H           40.102423       11.572019       18.130964
  H           39.469755       12.603016       17.215016
  O           16.399296       34.331943        1.375945
  H           17.137188       33.941537        0.901790
  H           16.743554       34.498892        2.256999
  O           22.479847       12.132324        5.775261
  H           22.660410       12.434269        6.668542
  H           23.233424       12.437246        5.263612
  O            5.393205        3.640084       23.781294
  H            5.454204        3.824759       24.721453
  H            5.062650        2.739339       23.736195
  O           20.317683       16.068438       39.205465
  H           20.109316       15.697372       38.344873
  H           20.866227       15.401552       39.626185
  O           23.505344       25.398984       10.791581
  H           23.326928       24.650783       11.366113
  H           23.765289       26.103163       11.390916
  O           22.555378       14.822141       20.124436
  H           22.330184       15.581505       19.581870
  H           22.372336       14.064919       19.562517
  O           21.054310       20.584322       10.240828
  H           21.838210       20.496649        9.693526
  H           20.380679       20.915046        9.641257
  O           19.702503       23.393187        0.849876
  H           19.356835       22.554218        1.163517
  H           20.111807       23.182251        0.006894
  O            3.450680       28.257974       24.156922
  H            4.016555       27.610330       24.583615
  H            2.824378       27.732190       23.652998
  O           14.434886        5.007622        2.749420
  H           15.330994        5.343285        2.827177
  H           14.543996        4.059461        2.641124
  O           38.089470       28.067852        0.729600
  H           38.300589       28.972779        0.970976
  H           37.214018       27.921230        1.096652
  O            3.458216       15.113305        6.003161
  H            3.880701       14.404395        5.512570
  H            3.170677       14.699075        6.820704
  O           15.624217       11.425181        6.585771
  H           15.088134       11.474655        5.790855
  H           15.133733       10.839517        7.168064
  O            4.928557       21.492404       21.885659
  H            4.069741       21.068534       21.818621
  H            5.460020       20.875124       22.394730
  O            6.700558       20.814828        4.536085
  H            6.296979       20.358102        5.277874
  H            6.017097       21.413350        4.224165
  O           13.618634       31.533112       24.139582
  H           13.248081       32.200256       24.722106
  H           14.193776       31.013822       24.707201
  O            5.428373       16.972873       36.670627
  H            5.839337       16.111513       36.774995
  H            4.927031       16.900543       35.854498
  O           19.131903       29.553109        6.680292
  H           18.227236       29.266380        6.535068
  H           19.427630       29.036559        7.434190
  O           11.076726        3.341313       12.253871
  H           10.284921        3.510024       12.769919
  H           11.114023        4.070089       11.629261
  O           26.184960       18.537722       29.561295
  H           26.009040       17.860098       28.904331
  H           26.728653       19.181458       29.100162
  O            1.313794       15.121495       34.139150
  H            0.791385       14.316925       34.100684
  H            0.669762       15.828468       34.049407
  O           32.912379       26.189035       11.266058
  H           32.853237       25.784876       10.397219
  H           32.167060       26.794071       11.298813
  O           40.434479       27.619139       38.406751
  H           39.603010       27.277247       38.069864
  H           40.665444       27.021678       39.122529
  O           18.007979       34.356629       26.444217
  H           18.000502       34.623479       27.366421
  H           18.638887       33.633125       26.410467
  O           19.572972       26.458887        8.719361
  H           20.304925       27.076701        8.653961
  H           18.805651       26.968659        8.447346
  O           25.875616       20.805067       38.156555
  H           26.722544       21.256951       38.172007
  H           25.966812       20.151445       37.458627
  O           34.929854       23.057391       32.479187
  H           34.316119       22.324346       32.391446
  H           34.634253       23.523024       33.265602
  O           28.026179       30.156743       28.494651
  H           28.096352       30.423277       29.414303
  H           28.276799       30.940690       27.999416
  O            2.130853       34.302247       36.665440
  H            1.956840       33.392676       36.918669
  H            1.260279       34.677196       36.510020
  O            7.410833        9.896129       14.475613
  H            7.234874        9.423501       15.292549
  H            6.879755       10.693707       14.542448
  O           21.978828       28.292770       23.103850
  H           22.261958       28.280520       24.021135
  H           21.353218       29.020142       23.057115
  O           39.766079       29.185594       25.808942
  H           39.997892       30.081820       26.063434
  H           40.370826       28.977244       25.092343
  O            2.665108        8.318358        6.954846
  H            2.284608        7.706380        6.320474
  H            2.067810        9.070577        6.948287
  O           18.486338       28.478159       11.956979
  H           17.589243       28.627319       12.264707
  H           18.815580       29.355859       11.747493
  O            6.799125       39.629622        9.097117
  H            7.406736       40.193735        8.613061
  H            6.017865       39.587210        8.539914
  O           39.096021        4.980725       17.877082
  H           38.814881        5.881116       18.055914
  H           39.868260        5.079367       17.314446
  O           14.288596       18.040319        1.647802
  H           14.029169       17.391883        0.989050
  H           14.743421       17.527650        2.320814
  O           21.003839        7.964948       20.747241
  H           20.421300        8.360757       20.094776
  H           20.413050        7.491242       21.338183
  O           21.075852       31.808884       18.141577
  H           20.875409       32.316649       18.931338
  H           21.822750       32.266320       17.747194
  O            1.518238       10.874310       12.489839
  H            2.163076       11.453816       12.077429
  H            1.049874       11.440636       13.108347
  O            1.864649       20.527954       31.329782
  H            2.029660       19.628791       31.036521
  H            0.969531       20.714290       31.035359
  O            4.309658        5.764143       30.715294
  H            3.817001        6.473321       31.134913
  H            5.197940        6.116321       30.617474
  O           30.058714       39.257468       36.111681
  H           30.143184       39.106933       37.056101
  H           30.512753       38.512424       35.709935
  O           25.271514       22.875893        1.063017
  H           24.827510       22.994177        0.220049
  H           24.566682       22.929729        1.713367
  O           30.538644       40.999672       30.924667
  H           29.754997       41.486373       31.190648
  H           30.566145       41.095711       29.969334
  O           11.562617       39.219141       20.045948
  H           11.895116       38.821707       19.237730
  H           11.747451       38.566566       20.726112
  O           39.427331       32.944480       33.258359
  H           38.599264       33.334460       32.968625
  H           39.835395       33.625586       33.798931
  O           28.802401        7.934038        9.547140
  H           29.541618        8.479840        9.825319
  H           29.140150        7.440199        8.795681
  O           25.490950        4.134618        6.755829
  H           25.311694        3.228985        6.492348
  H           26.099250        4.052038        7.494608
  O           36.509234       34.816227       20.740453
  H           36.678505       33.871822       20.706239
  H           35.676303       34.892209       21.212782
  O           19.556292       30.373103       21.971215
  H           20.178475       30.976788       22.383740
  H           20.078985       29.902001       21.317382
  O           10.276828       29.197780       37.710402
  H           11.176652       28.943771       37.928398
  H            9.927755       28.445914       37.225132
  O           16.479274       37.008269       34.917905
  H           16.008820       37.804761       34.661008
  H           15.940476       36.627854       35.616206
  O           13.349030       34.274062       34.679639
  H           13.706694       33.775420       35.417986
  H           14.108903       34.446420       34.117920
  O           13.524484       33.584188        9.371785
  H           14.030691       34.399260        9.338049
  H           12.992719       33.600497        8.572034
  O           12.619858       33.905824       41.285065
  H           12.496228       33.270081       40.576353
  H           13.568445       34.055037       41.308733
  O           11.326820        1.775509       36.513220
  H           11.881027        2.271485       35.906106
  H           11.946041        1.250539       37.026653
  O           27.425043       13.632924        6.267803
  H           26.479557       13.785303        6.335345
  H           27.623874       13.776082        5.339033
  O            3.527579       17.145667       28.973362
  H            2.835414       16.590550       29.340076
  H            4.296565       16.958847       29.517789
  O           18.293757       25.153853        6.049289
  H           18.951614       24.685747        5.529842
  H           17.775562       24.457725        6.461020
  O           28.160802       16.957978        9.289470
  H           28.611822       17.474349        8.617409
  H           27.530862       17.570344        9.677831
  O           34.492124       12.627994       23.082057
  H           35.334429       12.513173       22.635892
  H           34.715572       13.076522       23.901530
  O            3.268788        8.554450       38.297147
  H            3.404535        9.464008       38.572834
  H            2.370645        8.539952       37.956897
  O           13.174866       41.384337        2.770979
  H           13.901599       41.999999        2.891577
  H           12.485394       41.907898        2.354860
  O           25.106467       15.608069       39.507364
  H           25.836109       16.210224       39.343788
  H           25.325812       14.823775       38.998039
  O           36.917122       20.820659        1.551329
  H           37.355917       21.673856        1.516110
  H           37.576233       20.228710        1.922559
  O           28.916680       38.040504       39.043777
  H           28.056542       37.701256       38.785321
  H           28.836996       38.992616       38.944905
  O            9.751242       37.843214       24.452065
  H            9.103757       37.293871       24.004057
  H            9.475690       37.834296       25.372192
  O           30.818326       31.688143       20.127685
  H           31.154762       31.378731       19.283410
  H           31.417463       31.309855       20.776202
  O           29.182937       28.731550        6.784985
  H           30.083659       28.929907        7.051593
  H           28.639393       29.287132        7.349370
  O           36.374883        7.881779       18.941750
  H           35.625823        7.865891       19.542067
  H           37.136641        7.730326       19.506931
  O           39.572381       34.856883        6.042772
  H           40.289250       35.060638        6.648006
  H           39.125031       35.696725        5.911682
  O           12.813431       30.410320       37.828055
  H           13.262188       31.127196       37.373708
  H           13.370113       29.643341       37.671558
  O           31.303855       37.221642       14.935452
  H           30.974963       37.123898       15.832113
  H           31.046007       36.406952       14.496775
  O           32.839014       27.764397        9.437261
  H           33.339748       28.556621        9.229003
  H           31.946982       27.961205        9.140297
  O            0.697264       36.039240       14.431069
  H            0.204132       36.255660       15.225870
  H            0.455604       36.727193       13.805799
  O           20.226616       14.748473        9.934065
  H           20.746344       15.518456       10.176417
  H           20.724806       14.338971        9.222197
  O           20.768521       13.130598       37.708290
  H           21.289464       13.865697       38.039913
  H           19.897447       13.505450       37.555458
  O            6.827235        7.572735       35.352894
  H            6.902290        6.753722       34.857607
  H            6.789896        7.293480       36.271188
  O           37.822329       36.644364       12.215394
  H           37.442479       36.536189       11.340330
  H           38.563147       36.033145       12.230967
  O           39.788503       32.607792       20.107309
  H           40.422320       31.887580       20.143311
  H           39.715308       32.906697       21.017221
  O            4.965386       36.602799       40.046227
  H            5.841351       36.484802       40.421042
  H            4.427145       35.938727       40.484344
  O           12.415538       36.379175       29.080641
  H           13.307561       36.263733       29.416337
  H           12.335521       35.721459       28.385192
  O            0.327549        5.756301        5.424372
  H            0.600988        6.263438        6.192335
  H            0.330453        6.392766        4.704965
  O           30.470902        3.374569       29.803907
  H           31.111314        2.668794       29.920008
  H           30.941961        4.169498       30.066269
  O           26.211998        1.451431       15.665242
  H           25.977364        2.368150       15.503071
  H           26.789500        1.220071       14.933391
  O           11.816248       38.259832       26.460484
  H           11.812507       39.155889       26.805145
  H           11.541368       37.717264       27.203924
  O            7.721861       16.316064        0.856718
  H            8.542043       16.812324        0.804254
  H            7.183488       16.669223        0.143924
  O            5.983292       34.978243        0.017885
  H            6.176629       35.733488        0.578199
  H            6.001013       34.226864        0.616013
  O           41.283905        6.977650       16.793214
  H           41.718525        6.268850       17.273249
  H           42.000000        7.560830       16.529108
  O           40.436887       36.080278       36.130589
  H           41.005236       35.436367       36.559636
  H           40.842954       36.221900       35.271697
  O            4.965323       36.697908        5.953441
  H            5.720176       36.493621        6.510387
  H            5.249736       36.456332        5.068347
  O           29.928604       20.173937       20.523293
  H           30.468999       20.962113       20.615370
  H           29.045281       20.509336       20.350406
  O           11.689613       39.191586       23.297991
  H           10.955433       39.789713       23.140039
  H           11.626110       38.977646       24.232250
  O           24.171552        6.262861        0.061623
  H           23.578185        7.015086        0.000000
  H           25.050353        6.648299        0.019324
  O           16.345641       15.283521       30.102912
  H           16.233818       14.401313       29.741068
  H           17.012973       15.688104       29.542892
  O            2.165889       16.326574       27.219277
  H            1.352917       16.563676       27.671587
  H            2.273039       17.006533       26.549340
  O           17.675659       40.841486        4.060825
  H           17.166338       40.054868        3.852138
  H           18.251466       40.568944        4.779719
  O           30.024723       30.987705       39.741916
  H           29.152476       30.598922       39.643131
  H           30.572462       30.266356       40.061728
  O           12.165152        4.141570       23.256753
  H           11.392576        4.389947       22.743762
  H           12.577529        4.978000       23.486909
  O            4.344966       18.162292       22.761028
  H            5.117780       18.698565       22.953104
  H            4.586788       17.669214       21.972968
  O            3.406073       31.148980       30.647055
  H            3.227196       30.700108       29.817452
  H            3.200075       30.495991       31.320710
  O            7.796387       22.487543        0.398035
  H            7.282743       21.780524        0.000519
  H            7.137839       23.096190        0.742281
  O           22.398745       12.489576       36.094108
  H           22.413660       11.711874       36.656853
  H           22.270742       12.140573       35.208414
  O           29.718844       31.699451       12.334201
  H           29.300831       30.835919       12.370301
  H           30.057918       31.762922       11.437739
  O           19.406468       34.893517        0.586941
  H           19.177166       35.617842        0.000000
  H           19.722287       34.201851        0.000001
  O           25.064640       32.964029       32.435683
  H           25.024346       32.005228       32.463994
  H           24.178379       33.232485       32.180507
  O            4.819918       12.239098        8.889722
  H            4.245006       12.977860        8.676573
  H            4.347473       11.759201        9.574657
  O            7.482599       31.575055       23.245336
  H            6.787302       30.938295       23.426507
  H            7.370452       32.249080       23.920433
  O           38.910961        1.583541       34.711204
  H           39.658371        1.381169       34.143621
  H           38.599414        0.725524       35.010181
  O            8.585380       23.153137       25.544587
  H            9.278160       23.640816       25.996194
  H            9.008511       22.818708       24.749754
  O            0.850288       11.840394       22.270072
  H            0.431548       12.511216       22.814480
  H            1.648729       12.262732       21.943325
  O           29.214744        0.000000       16.265165
  H           29.951310        0.586104       16.454050
  H           28.755761        0.421771       15.534353
  O           37.963929        8.813942       28.267676
  H           38.685241        8.230197       28.514001
  H           37.504180        8.342814       27.568169
  O           15.178851        3.263013       37.276480
  H           15.447307        4.183737       37.232603
  H           15.750174        2.817750       36.645629
  O           20.954895        4.507107       40.669077
  H           21.298326        5.346603       40.354392
  H           20.331114        4.748090       41.358617
  O           11.944523       28.860770       40.964115
  H           12.293106       29.755184       40.948639
  H           11.634894       28.709996       40.067433
  O            7.318147       14.881503       18.011005
  H            8.043077       15.410626       18.351930
  H            7.584730       14.661011       17.114925
  O           27.443268       36.986481       31.826603
  H           27.758103       37.568208       31.130760
  H           28.169951       36.949788       32.453681
  O            4.671674       18.431482       14.587502
  H            4.480139       17.913502       15.372828
  H            3.977557       18.191487       13.968434
  O           13.891015       23.644794       19.441201
  H           13.373481       23.157900       20.086815
  H           13.944389       24.534151       19.800141
  O           37.935474       18.321034       12.496289
  H           37.707833       17.403744       12.327518
  H           37.402090       18.818022       11.870872
  O           18.757424       36.430226       21.792223
  H           18.070586       36.229731       21.152082
  H           19.361025       35.685180       21.735534
  O            8.571809       33.736107       21.511981
  H            8.219350       34.492992       21.038038
  H            8.308940       33.882461       22.424188
  O           16.030820       17.818499       32.083192
  H           16.757321       18.263129       32.526164
  H           16.371998       17.618228       31.207903
  O           30.223625        8.516977       19.683998
  H           30.875707        8.963927       20.228746
  H           30.660998        7.709303       19.402910
  O            8.305561       37.592800       41.333307
  H            8.933096       38.299117       41.503725
  H            8.189593       37.601796       40.379834
  O            2.324537       41.999925       19.755386
  H            1.507731       41.803609       20.220159
  H            2.078344       41.992259       18.826962
  O           19.172438       32.997013        6.601606
  H           18.345432       32.531457        6.746670
  H           18.983927       33.597464        5.875959
  O           35.268835       16.025329        2.714111
  H           34.511567       16.484051        2.342834
  H           34.885653       15.312437        3.231409
  O           27.539505       27.788328       20.416450
  H           27.075826       28.293394       19.744412
  H           27.052993       27.965090       21.225587
  O           24.047695       26.718713       37.192367
  H           23.806352       27.602030       37.480863
  H           24.809155       26.853694       36.622628
  O           23.148614        0.795721       10.411570
  H           23.405310        1.143935       11.268646
  H           23.669694        1.301582        9.782902
  O            7.118182       25.496883       23.408314
  H            6.292747       25.970106       23.536541
  H            7.545095       25.955153       22.680045
  O           22.372067       34.200859       11.648920
  H           22.587521       33.282968       11.829974
  H           22.698236       34.678120       12.416043
  O           15.088511       23.266589       41.057600
  H           14.783766       24.137566       40.792544
  H           15.684826       23.435720       41.791387
  O           32.403427       28.262215       38.665530
  H           31.992351       29.126678       38.591739
  H           31.830064       27.775788       39.263263
  O           26.800192       30.901105       15.042904
  H           25.871120       30.717362       14.885459
  H           27.241533       30.066364       14.866646
  O           35.709682       22.823280        2.621862
  H           36.413812       23.444164        2.420791
  H           36.045677       22.313752        3.363569
  O           38.711644       34.956958       35.354602
  H           37.966867       34.490878       34.967560
  H           39.211926       34.273035       35.806940
  O           25.631901       14.206004        1.523580
  H           26.362109       14.777567        1.772251
  H           25.805960       13.382096        1.985664
  O           25.714947       10.531480        0.289493
  H           25.319882       11.406395        0.302650
  H           26.185070       10.469566        1.124834
  O           39.766125       21.038938        1.289166
  H           39.447561       21.832622        0.852922
  H           39.890696       21.303432        2.204134
  O            3.575921       26.934349       35.067898
  H            3.883999       27.235266       34.209841
  H            3.613076       27.717587       35.622694
  O           23.747519       15.471247        1.375474
  H           23.363106       16.275085        1.732960
  H           23.022560       15.046992        0.909551
  O           25.484545        6.640238       24.285484
  H           26.111728        7.344922       24.463773
  H           25.684588        5.970631       24.944461
  O            9.727551        7.604779       33.309884
  H           10.278209        7.420949       32.545222
  H           10.134339        8.373635       33.717346
  O            2.440089       35.208049       33.633450
  H            2.236701       35.730678       32.854208
  H            1.736588       35.419191       34.252439
  O           12.813934       12.737971       34.609552
  H           12.805897       13.302795       35.385848
  H           13.744602       12.555824       34.456841
  O           15.155500       21.292375       33.663838
  H           15.209807       22.103803       34.174093
  H           15.606901       21.497405       32.841133
  O           19.241936       38.915645       31.930025
  H           18.849751       39.609572       32.465171
  H           19.882756       38.499211       32.511896
  O           40.693712       37.967616       11.727583
  H           40.652051       37.052236       12.014061
  H           40.674971       37.918379       10.768487
  O           38.448266        9.901812       19.031968
  H           39.078401        9.983270       19.751704
  H           38.986518        9.680927       18.267679
  O           33.823980       22.346136       39.587233
  H           34.078492       21.604796       40.141637
  H           34.643425       22.624687       39.170628
  O           32.201434        4.846407        1.530799
  H           32.042907        4.619696        0.611453
  H           32.562939        4.043868        1.915360
  O            7.118753        2.246911       23.104203
  H            7.234293        1.314847       22.905126
  H            7.796391        2.436876       23.757933
  O           28.794535       12.025668       11.250856
  H           28.987600       12.946333       11.058952
  H           29.148059       11.545879       10.497553
  O           39.533080       26.554857       20.734709
  H           39.106094       26.471374       21.590534
  H           40.016951       27.382818       20.789414
  O           30.422591        0.409774       25.142216
  H           31.273853        0.077953       24.847304
  H           29.788298        0.000008       24.548577
  O           34.656634       36.766951       18.324101
  H           35.100870       37.527048       17.941177
  H           34.314931       37.087867       19.162489
  O           24.515063       39.991946       23.280918
  H           24.663315       39.125537       23.667028
  H           24.345469       39.813379       22.352482
  O           40.132918       20.158426        5.684691
  H           40.866696       20.609141        6.109133
  H           40.495480       19.309077        5.420499
  O           25.057849       18.992274       24.064073
  H           25.172576       18.039189       24.077892
  H           25.412339       19.287339       24.906638
  O            0.889595       34.813662       28.014885
  H            1.810607       35.079266       28.068887
  H            0.436222       35.399642       28.626214
  O           36.097619        2.076120       33.906511
  H           36.773661        1.813786       33.277326
  H           35.373088        1.466222       33.746135
  O            6.160195       26.360528       30.224452
  H            6.680519       26.749226       30.931489
  H            5.249177       26.524302       30.481096
  O           31.158952       22.462780        0.246229
  H           30.515492       23.131402        0.000000
  H           30.628194       21.712413        0.525310
  O           38.191882        9.225344       34.420393
  H           39.130284        9.226681       34.217602
  H           38.102338        9.856411       35.138988
  O           23.098854        2.933788       27.346491
  H           23.798950        2.288326       27.468841
  H           22.329887        2.532622       27.759284
  O           40.292461        5.617959       32.019410
  H           40.943404        6.063355       32.566786
  H           40.788350        4.925965       31.574573
  O           41.851157        5.374712       23.531786
  H           41.102531        5.867544       23.187691
  H           41.472848        4.808652       24.209355
  O           26.593794       17.439780       32.120298
  H           27.327993       16.910085       32.439829
  H           26.264414       16.955950       31.358682
  O            2.558892       31.570015       11.793566
  H            1.625162       31.360976       11.872144
  H            2.856243       31.677808       12.700542
  O           26.450376       22.669648       36.164304
  H           26.357683       23.295475       35.442173
  H           26.167326       23.158434       36.941229
  O           24.368552        9.032257       12.232724
  H           24.350422        9.583612       11.446974
  H           25.151090        8.486183       12.122817
  O           23.201709       20.640075       18.865366
  H           24.020814       20.141401       18.911356
  H           23.158948       21.106226       19.704126
  O           17.986472       37.888222       36.718251
  H           18.511402       37.254075       37.212246
  H           17.131101       37.881531       37.155216
  O           41.459332        2.875005        7.584937
  H           41.015771        3.309247        8.317339
  H           41.435747        1.941835        7.811386
  O           22.935743       40.311362        2.610314
  H           23.738556       40.491044        3.105219
  H           23.173213       40.491466        1.697181
  O           31.122697       17.284623       39.291184
  H           31.299266       18.196920       39.049811
  H           30.501836       17.347081       40.021440
  O           12.806557       28.860738       21.902282
  H           13.133860       28.280604       21.210876
  H           11.852493       28.753695       21.871533
  O           19.589189        2.931981       10.390542
  H           19.053841        3.634069       10.013448
  H           20.480831        3.124044       10.089332
  O           29.291130       26.994234       31.444081
  H           28.410199       26.642744       31.592879
  H           29.167435       27.672282       30.775058
  O           32.433581        0.004424       29.243440
  H           31.777645        0.532567       28.782422
  H           33.101229        0.638662       29.516625
  O           19.637877       13.347500       19.722760
  H           19.772219       14.297467       19.687555
  H           20.452896       12.978328       19.373336
  O            4.776116       11.708620       27.318705
  H            5.123952       11.887577       28.195466
  H            5.438388       11.145765       26.909763
  O           32.647684       31.307594       35.533673
  H           32.260036       30.451233       35.728862
  H           31.915769       31.828836       35.194189
  O           28.715680       22.089271       33.530740
  H           29.186939       21.682806       34.261785
  H           29.407540       22.357919       32.920985
  O           25.757034        5.218940       38.960223
  H           25.775140        4.342097       39.350793
  H           25.217885        5.737323       39.562916
  O           17.170196       24.856982       22.870261
  H           18.013437       25.114599       22.490389
  H           17.405019       24.294888       23.612925
  O           38.960537       35.926347       17.347531
  H           39.737957       35.914537       16.784322
  H           39.312746       35.991935       18.238760
  O           20.906399       33.521673        9.594496
  H           20.059165       33.404279        9.158448
  H           20.743893       33.262421       10.505003
  O            9.719155       25.592368       39.021128
  H            9.713641       26.040833       39.869994
  H            8.975499       25.971855       38.546146
  O            4.429235       37.231891        2.623388
  H            5.370659       37.125214        2.468262
  H            4.377102       37.844639        3.361266
  O            5.289627        3.416559       31.874327
  H            4.872849        4.013898       32.499793
  H            5.746110        2.775355       32.424893
  O            1.390957       27.188621       35.103718
  H            0.535334       27.055204       34.689190
  H            1.227383       27.850185       35.780637
  O           41.141588       35.041691       10.750919
  H           40.265687       34.660610       10.847365
  H           41.005888       35.813800       10.195874
  O            1.788681       38.628734        3.091623
  H            1.073447       38.640567        3.731956
  H            1.574320       39.339039        2.481576
  O           25.270955        5.095913       27.093863
  H           24.538411        4.523161       26.854993
  H           25.676906        4.661695       27.848382
  O           18.908939       37.860748       27.918334
  H           19.768583       37.513173       28.167188
  H           18.349703       37.680196       28.678135
  O            9.674967       15.108009        5.994624
  H           10.479947       15.342710        5.527027
  H            9.387178       14.291351        5.578825
  O           17.919238       32.822384       38.757791
  H           17.265205       33.375701       38.324424
  H           18.756044       33.259843       38.581644
  O           25.575571       13.881283       31.081116
  H           25.429587       13.269576       31.806532
  H           26.313014       13.503385       30.595304
  O           28.540950       17.371777       30.663435
  H           28.480085       18.306500       30.873945
  H           27.931791       17.252296       29.930434
  O           24.222856       17.076377       38.051039
  H           24.645235       17.937946       38.019127
  H           23.389805       17.235784       38.501879
  O           33.740317        3.021479       27.999488
  H           33.174570        2.245996       28.016258
  H           34.082561        3.086338       28.894644
  O           28.089070       40.173200       20.127616
  H           28.817077       40.437522       20.694947
  H           27.493104       39.696561       20.710952
  O           13.800737       13.839894        5.521258
  H           13.176906       14.335321        4.985431
  H           13.248921       13.333279        6.122493
  O           26.161836       41.407104       22.926540
  H           26.357606       40.702920       22.304026
  H           26.914652       42.000000       22.860324
  O           41.024774       13.152525       21.144151
  H           41.353202       14.043172       21.000600
  H           41.598029       12.597869       20.609008
  O           23.966592       31.203097       41.642820
  H           24.373059       30.410045       42.000000
  H           23.338091       30.877228       40.993637
  O            4.987605        6.736196        6.443062
  H            5.358474        5.904689        6.747655
  H            4.124854        6.498772        6.093873
  O            9.518341       10.498884        1.665527
  H            8.872213       10.837348        1.041278
  H           10.093630       11.247429        1.842626
  O           38.462752       35.325867       23.206434
  H           39.298913       35.533815       22.782975
  H           37.798051       35.607674       22.572872
  O           16.643330       25.417291        3.755676
  H           17.481110       25.767898        4.067003
  H           16.069754       26.185661        3.698582
  O            9.117836       29.872099        6.831391
  H            8.531907       29.641451        7.556107
  H            9.234634       29.050104        6.348354
  O           28.880824       34.817467       16.749162
  H           27.993649       34.531640       16.979270
  H           29.256958       34.070502       16.276713
  O           25.872661        9.277180       17.770695
  H           25.064195        8.785742       17.607612
  H           25.694500       10.152917       17.418581
  O           38.794877       40.748476       35.955209
  H           39.219815       39.917937       36.181834
  H           38.770280       41.237064       36.781840
  O           17.682907       23.759822       36.683053
  H           16.838383       24.164456       36.894656
  H           17.612171       23.533199       35.752311
  O           15.458952       41.291936       22.611338
  H           15.451669       41.999990       21.963008
  H           14.853272       40.636736       22.255660
  O           27.307934       34.084119        6.332412
  H           27.616669       34.427107        7.174295
  H           26.351429       34.066258        6.418557
  O           30.277670       17.614011       11.519000
  H           30.796819       16.808135       11.571653
  H           29.534636       17.382609       10.955975
  O           11.219349       10.200800       30.032110
  H           10.859533        9.433457       29.581064
  H           11.877408       10.547723       29.424455
  O            6.330719        3.198827       17.772743
  H            6.137407        3.243375       18.712089
  H            5.561917        2.767453       17.391296
  O           39.354882       23.492334       39.154312
  H           39.816597       24.279671       38.856581
  H           39.943184       22.769125       38.922985
  O           31.362869        2.155875       42.000000
  H           32.001806        2.399118       41.325970
  H           31.079530        1.272181       41.752119
  O            5.793407       38.289315       35.210753
  H            5.591752       37.757946       35.984515
  H            5.825867       37.656538       34.488824
  O            7.623887       38.331207        2.136198
  H            8.330954       38.923026        1.868745
  H            7.818640       37.506961        1.683063
  O           36.462746       23.186012       41.720736
  H           35.835017       22.461445       41.668921
  H           37.283906       22.814257       41.388868
  O            4.842166        6.250428       12.253868
  H            5.612087        6.795663       12.431817
  H            5.126310        5.658047       11.553162
  O           17.427629       37.530616       10.241614
  H           16.602644       37.116067        9.978416
  H           17.727259       37.010435       10.991464
  O           33.843212       25.448845       34.599668
  H           33.606510       24.604078       34.989625
  H           33.153694       25.613868       33.951614
  O           27.579504        6.765694        2.561216
  H           28.462545        6.966996        2.879715
  H           27.281584        7.582246        2.152402
  O           37.925077        1.329237       17.267256
  H           37.748665        1.243933       16.327401
  H           38.518537        0.600457       17.465567
  O           32.271927       25.543837       22.668459
  H           33.217525       25.683232       22.578248
  H           32.050204       25.950373       23.510011
  O           36.962749       13.807898       29.323343
  H           36.147919       13.905733       29.821546
  H           37.468118       13.157904       29.818067
  O           32.637785       29.334298       28.213406
  H           32.383556       28.477921       27.861681
  H           32.197314       29.967476       27.640944
  O           19.190501        3.534223       29.844010
  H           18.241492        3.418363       29.931660
  H           19.388687        4.299450       30.389714
  O           14.617288       18.765601        5.901127
  H           14.628048       18.883363        4.948373
  H           15.151597       17.981481        6.050503
  O            8.637945        3.982555       16.949272
  H            8.830309        4.914876       16.824780
  H            9.170075        3.728482       17.707511
  O            0.673947       33.201209       17.566765
  H            0.457436       32.576422       18.262817
  H            0.980172       32.652292       16.840434
  O           30.197381       28.373449       22.864728
  H           31.145390       28.495631       22.774868
  H           29.906968       29.131209       23.378637
  O           20.862226       18.774530       19.922773
  H           21.597681       19.308976       20.231317
  H           20.964163       17.938896       20.385339
  O           21.922380       29.268345       18.889389
  H           21.734388       28.358448       18.647581
  H           21.855304       29.753389       18.063026
  O           37.614570       34.120193       17.216866
  H           36.709283       34.434983       17.272419
  H           37.737271       33.604517       18.017906
  O           28.226464       32.174780       18.077130
  H           29.094628       32.487443       17.812070
  H           27.963552       32.770968       18.782877
  O           19.703996       16.492306       29.884468
  H           19.216222       16.096753       29.158286
  H           19.172405       17.248843       30.144671
  O           13.415038       41.766131       10.955228
  H           14.212110       41.918950       11.468110
  H           13.683106       41.138499       10.279314
  O           13.488970       23.780044        7.293024
  H           13.190811       24.551936        6.806188
  H           13.970638       23.260469        6.644426
  O           14.689879       27.890502        3.527000
  H           14.319198       28.646163        3.065159
  H           14.143727       27.150439        3.250110
  O           22.543457       17.321882       34.271114
  H           23.388966       17.536645       33.870220
  H           22.239130       18.152565       34.645271
  O           15.014786       38.400960       18.160208
  H           14.384388       37.933742       17.607006
  H           15.833213       38.381531       17.657771
  O           17.466319       15.937447       38.787624
  H           18.078402       15.257853       39.079567
  H           17.397414       16.534201       39.537143
  O           37.200206       35.642461       14.115582
  H           37.192053       36.030762       14.993580
  H           37.951388       35.043923       14.126549
  O           15.636076       22.196778       16.545849
  H           16.131817       22.784340       15.970753
  H           15.812635       22.524800       17.431214
  O           18.912777        5.746872       27.843355
  H           18.593805        6.591890       28.168820
  H           18.481783        5.097190       28.404424
  O            8.239383        6.890172        6.848138
  H            7.591574        7.178321        7.495470
  H            7.872810        6.078146        6.489137
  O            1.919903        8.463766       27.705169
  H            2.648892        9.033345       27.961839
  H            2.275462        7.928540       26.991200
  O           21.706981       11.960260       39.317517
  H           22.366957       12.621570       39.538482
  H           22.188391       11.304210       38.807140
  O           29.947160       35.386167       35.658931
  H           29.224097       34.756151       35.614391
  H           30.525552       35.037407       36.341918
  O           40.429205       18.227047       37.480668
  H           40.982644       17.809572       38.144856
  H           40.420354       19.155441       37.726939
  O           31.992747       17.742540       13.168758
  H           32.666228       18.150385       13.718131
  H           31.627037       17.044824       13.718385
  O           28.639067       10.591469       18.426080
  H           28.569766       11.540432       18.298049
  H           27.844008       10.357713       18.911757
  O           15.344540       11.895093       37.556864
  H           16.098112       12.406187       37.252502
  H           14.924290       11.586442       36.750163
  O           24.709288       22.219415       32.241564
  H           24.144706       21.701812       31.662720
  H           24.430162       23.127157       32.097569
  O           17.502954       14.543481       22.807143
  H           17.071233       14.685723       23.652784
  H           17.315805       15.341677       22.306644
  O           34.627097       20.294343       29.321962
  H           34.075148       21.022991       29.615475
  H           35.317592       20.712829       28.801647
  O           26.810693       32.483503       30.628811
  H           27.680908       32.750770       30.323822
  H           26.919228       31.563546       30.882863
  O           27.428474       17.573130       12.876334
  H           28.298961       17.933784       12.692193
  H           27.059537       18.165770       13.536111
  O           22.666991        8.929480       26.007477
  H           23.384463        9.368658       25.544788
  H           22.362998        8.257069       25.392583
  O           19.865496       22.766296       17.167065
  H           19.224743       23.058088       16.514365
  H           20.637141       22.520691       16.650456
  O           34.910410       38.751376       32.835931
  H           35.804909       38.468189       33.039404
  H           34.529127       38.969181       33.690230
  O           14.230567        6.479690       24.975016
  H           13.349121        6.261919       25.287030
  H           14.123457        7.322633       24.527113
  O            1.888600       17.321311       17.158935
  H            2.672495       17.513782       17.678731
  H            2.162771       17.469218       16.250312
  O           40.311871       12.791872       39.705933
  H           41.218760       12.536097       39.521934
  H           40.214345       12.660177       40.652394
  O           10.442802       18.517610       30.235234
  H           10.055972       19.385388       30.373251
  H            9.911905       17.930602       30.779488
  O           21.597871        5.690609       19.785939
  H           21.431173        5.483872       20.708542
  H           22.467017        6.099545       19.786500
  O           19.431741       29.071000        4.554622
  H           18.691883       28.540772        4.249345
  H           20.176043       28.766631        4.029250
  O           29.609778       19.834602       14.351788
  H           29.789414       18.997933       13.916540
  H           28.981358       20.274156       13.773409
  O           18.027350       25.534441       33.646298
  H           18.800288       24.966061       33.681453
  H           18.260492       26.214852       33.009645
  O           29.519136       15.389786       27.807330
  H           30.222028       15.640275       27.203242
  H           29.978338       15.077038       28.590889
  O           19.734316       38.685426       15.284825
  H           20.314177       37.990913       15.605976
  H           19.211772       38.261711       14.599220
