        1273
  Built with Packmol                                             
  N            4.592800       18.535609        3.388015
  C            3.265518       19.172967        3.318872
  C            2.413237       19.009136        4.571242
  N            2.095057       17.603491        4.876069
  C            0.977035       17.113726        4.048908
  C            0.954002       15.604159        3.828649
  N            2.177631       15.098611        3.180520
  C            2.173293       15.447298        1.755761
  C            3.502579       15.232872        1.058114
  N            4.600315       16.012282        1.674058
  C            4.572536       17.389749        1.153719
  C            5.199221       18.440425        2.051538
  C            5.487407       19.299424        4.285683
  C            5.215180       19.028081        5.772385
  O            5.051307       17.777412        6.039779
  O            5.175585       19.959267        6.555689
  C            1.791297       17.431356        6.313539
  C            1.814342       15.953469        6.725247
  O            2.811623       15.297434        6.223054
  O            0.941213       15.507132        7.443692
  C            2.334290       13.637849        3.378517
  C            3.787105       13.172608        3.151875
  O            4.669645       13.849942        3.803979
  O            4.024336       12.256737        2.375492
  C            5.875492       15.329643        1.455846
  C            6.898098       15.537897        2.551448
  O            6.672682       16.199704        3.574702
  N            8.084476       14.948054        2.358658
  La           4.327164       16.054243        4.619227
  H            3.376636       20.249291        3.119044
  H            2.735966       18.748166        2.464189
  H            2.928595       19.435439        5.430335
  H            1.496879       19.601459        4.437963
  H            0.018530       17.402880        4.500763
  H            1.022520       17.627961        3.087525
  H            0.063672       15.364375        3.229276
  H            0.842232       15.088809        4.779738
  H            1.409782       14.861812        1.219544
  H            1.876601       16.494569        1.669729
  H            3.760092       14.177017        1.079372
  H            3.382623       15.501870       -0.000125
  H            5.063273       17.439791        0.168926
  H            3.528021       17.642534        0.967144
  H            6.254746       18.215108        2.194386
  H            5.145819       19.408764        1.529757
  H            6.506378       18.953771        4.098412
  H            5.435941       20.372755        4.076110
  H            5.686316       14.251271        1.449445
  H            2.586124       17.925440        6.878485
  H            0.828394       17.879194        6.575911
  H            6.321165       15.580956        0.480703
  H            2.095682       13.428362        4.423648
  H            1.658598       13.072053        2.728811
  C            8.433294       14.078462        1.248725
  H            9.405758       13.638268        1.455368
  H            7.711125       13.268916        1.133708
  H            8.507517       14.638285        0.314429
  H            8.727639       15.034059        3.129419
  O           17.003536       21.482960        3.442052
  H           16.123449       21.834974        3.594560
  H           17.523241       22.246401        3.178031
  O           11.520499       19.417281        6.406688
  H           11.420332       18.499499        6.143310
  H           12.304572       19.421897        6.961532
  O            8.448967       11.813988       16.816125
  H            8.548544       12.759665       16.948429
  H            7.944487       11.738924       16.002180
  O           10.114457       10.409491        9.429800
  H            9.663497       10.984721        8.807328
  H            9.635498       10.527895       10.253948
  O            8.805466        7.441610       18.164996
  H            8.475880        6.768556       18.765075
  H            9.587342        7.047081       17.770459
  O            8.111873        4.647640        7.111642
  H            8.136560        3.704245        7.288052
  H            8.885879        4.994799        7.562240
  O            8.581412       13.694790       10.763284
  H            8.609274       12.820058       11.157988
  H            8.404056       13.531297        9.833522
  O           12.763329        3.438198       13.593696
  H           13.719704        3.476284       13.518720
  H           12.603750        3.270155       14.525865
  O           15.853526       22.351204       12.740244
  H           16.507828       21.654254       12.651502
  H           16.170559       22.883850       13.474015
  O            6.520212        3.332709        3.400765
  H            5.875436        3.770075        2.839783
  H            6.067954        2.545743        3.715074
  O            7.041284       19.955168       16.302905
  H            6.175468       19.615879       16.541591
  H            6.865646       20.832837       15.954350
  O           18.551187       17.878244       18.755544
  H           18.792049       18.693522       18.309413
  H           17.918657       18.150730       19.425096
  O           20.066724       15.136619        8.826331
  H           20.817698       14.613906        9.117079
  H           19.691931       14.632062        8.099973
  O           13.495572        3.721545       10.831699
  H           13.924341        2.862643       10.818683
  H           14.005093        4.232812       11.465446
  O            2.738519        2.395528       20.161872
  H            3.008117        1.502612       20.389344
  H            2.602977        2.368810       19.211316
  O           12.719945       18.628879       15.701040
  H           12.362537       17.769568       15.465311
  H           13.090901       18.500485       16.577709
  O            3.519206        2.887602       12.218096
  H            2.659518        2.727212       12.614251
  H            3.377561        3.639414       11.637272
  O            2.729875       11.236694        8.427401
  H            2.807625       12.136298        8.101222
  H            2.178538       11.313708        9.210177
  O            6.791060       22.233380       13.094515
  H            7.491693       22.524632       12.506288
  H            6.839046       21.274460       13.066026
  O           21.691819        0.088154        3.955786
  H           21.734821        0.003673        4.911159
  H           20.872258        0.562620        3.795029
  O           18.213582       16.826669        0.335168
  H           17.807555       16.023002        0.002021
  H           17.652988       17.532404        0.003031
  O            6.796236       10.663723       17.702372
  H            6.500003       10.315776       16.858035
  H            6.065769       10.489882       18.301404
  O            8.593646        4.802032       16.101234
  H            8.971386        5.651501       15.861566
  H            8.251262        4.935211       16.988747
  O           16.073160        1.391363       11.644984
  H           15.503783        0.907473       11.042169
  H           15.471010        1.943166       12.150524
  O            1.404884       12.136860        0.003492
  H            0.611394       11.667918        0.272178
  H            2.090106       11.463731        0.000327
  O           18.618581       10.304019       16.794027
  H           18.417607        9.726338       17.534040
  H           19.577567       10.358272       16.787491
  O            0.106332       20.856965       19.296218
  H            0.000445       19.941533       19.026964
  H            0.090674       20.826489       20.256149
  O            9.619585        3.352853       21.791136
  H            9.426603        3.913277       22.546390
  H           10.063172        3.935214       21.169261
  O           17.777519       16.672347        6.613938
  H           17.005919       17.173485        6.339676
  H           18.261341       17.273529        7.185898
  O           10.165344        6.070648       20.495932
  H           10.738146        6.839136       20.551141
  H           10.474377        5.598270       19.718758
  O            4.759173        7.852840        9.649441
  H            5.462086        7.230675        9.448073
  H            3.967706        7.442180        9.292255
  O            7.976153       16.605681       12.553608
  H            8.645239       17.134575       12.112791
  H            7.837282       17.049192       13.394236
  O           18.397931       13.599378        4.995264
  H           17.757525       13.458417        4.294024
  H           18.494889       14.553906        5.041276
  O            4.802873       13.134882       17.159549
  H            5.245669       12.287613       17.071280
  H            4.041787       13.067948       16.577388
  O            7.940227        4.703586       11.025651
  H            7.936903        4.029111       11.708877
  H            8.193336        4.233105       10.227387
  O           15.426313       20.611600       18.867891
  H           15.932080       19.817445       19.055623
  H           14.572177       20.286093       18.572697
  O            3.287507       11.345046       17.726289
  H            2.579833       10.835310       17.324927
  H            3.885153       10.683253       18.083348
  O            9.810285        9.545622       16.475391
  H            9.086844        9.327534       17.067672
  H            9.410810       10.110262       15.808876
  O           21.429030       13.534385        6.507373
  H           21.284847       14.447745        6.765655
  H           21.624753       13.580268        5.568102
  O           16.245288       14.703870        3.835497
  H           15.461506       14.223455        4.112287
  H           16.285117       14.568002        2.885446
  O            8.357363        0.955379       10.692954
  H            9.212559        0.620598       10.413155
  H            8.566309        1.621453       11.352748
  O           10.371514        2.901919        8.566642
  H            9.992388        3.695175        8.952301
  H           10.316918        3.048046        7.618851
  O           10.374582       18.601566        8.044846
  H            9.630205       18.413082        8.621129
  H           10.719176       19.438498        8.366469
  O           19.158701       22.021164       20.071526
  H           18.878408       22.669011       20.722260
  H           18.531980       21.299681       20.168088
  O            4.965224       10.718872        4.753341
  H            5.611529       11.245054        4.276740
  H            5.400219        9.873474        4.890175
  O           17.546326        6.174595       21.416864
  H           17.065266        5.632647       20.787103
  H           18.124700        5.556331       21.870598
  O            8.605441        0.706709       21.411042
  H            9.309754        0.088193       21.618665
  H            7.841464        0.365118       21.882525
  O           17.354925       19.627491       14.785540
  H           17.208852       20.575997       14.758633
  H           17.078319       19.368596       15.668209
  O           21.346816        4.356413        0.283374
  H           21.256984        5.311585        0.319476
  H           20.584051        4.026811        0.765238
  O           12.252470       15.611631        8.565566
  H           13.204482       15.563104        8.451363
  H           12.124042       16.324421        9.196501
  O            6.323542       22.700963        1.284013
  H            5.791172       22.999904        0.543108
  H            5.689713       22.561565        1.992160
  O           11.450650       20.416901       16.519451
  H           11.025252       20.915633       17.220898
  H           11.642312       21.071972       15.843589
  O            8.498350       14.901875        5.887511
  H            8.260683       15.624155        5.301379
  H            8.001308       15.073674        6.691300
  O            2.442514       22.991697        1.979861
  H            2.433986       22.072763        1.701991
  H            2.934824       22.986835        2.804633
  O           11.881880        6.838169        6.230340
  H           10.966602        7.077844        6.393276
  H           12.385722        7.592592        6.545984
  O           15.457872        6.899600       14.989411
  H           14.633177        7.258621       14.653692
  H           15.196350        6.368810       15.746055
  O            9.427137       22.286775        2.206954
  H            9.064462       21.446446        2.496849
  H            9.577640       22.169463        1.265557
  O           17.080621        4.285442       16.460708
  H           16.249255        4.515840       16.881983
  H           17.084947        4.795614       15.646860
  O            9.022880        8.932472        2.006794
  H            8.201958        8.461081        1.846785
  H            8.874377        9.395513        2.835155
  O            1.272744       12.572089       18.454882
  H            1.666291       12.906536       17.645567
  H            1.398482       13.280271       19.091522
  O           10.977796       10.409094       12.760223
  H           10.392118        9.747320       13.135405
  H           10.409546       10.936304       12.192962
  O           13.373781       16.026927        1.225186
  H           13.454326       16.719987        1.884659
  H           14.241416       15.615305        1.204694
  O           16.205447       22.304692       20.043978
  H           16.264018       22.999772       20.703643
  H           16.532342       22.712606       19.238132
  O            1.053461       11.672427        4.022879
  H            1.732008       11.208509        3.526815
  H            0.319865       11.750602        3.407763
  O            4.119733        4.979766        6.508621
  H            4.578621        4.138598        6.568489
  H            4.372824        5.446922        7.308841
  O           22.973916        1.438085       14.038779
  H           22.880848        1.101174       14.932956
  H           22.728395        0.697695       13.478258
  O           20.288346       19.542838       20.074094
  H           20.615942       18.670299       19.843699
  H           20.697366       19.734940       20.921703
  O           10.842309       13.788886       15.842122
  H           10.886243       13.070162       16.477127
  H            9.920682       13.812869       15.572548
  O            1.873062       13.865907       14.708613
  H            2.186059       14.720074       15.015465
  H            2.506315       13.608259       14.033890
  O           16.978534       11.287420       21.821983
  H           16.154511       11.764850       21.943523
  H           17.554683       11.626823       22.511549
  O            0.476264       16.708921        9.592366
  H            0.034623       16.243524       10.306567
  H            0.866953       17.478114       10.014677
  O           15.266796       15.584900       10.490944
  H           14.829462       14.764757       10.731419
  H           14.845521       15.847540        9.668636
  O           11.879865        5.359194        3.428369
  H           10.995010        5.523038        3.093836
  H           11.949177        5.920950        4.204429
  O            4.738099       11.222158        8.133785
  H            5.642722       11.201245        7.812933
  H            4.773239       11.787631        8.909444
  O            1.944148        8.877451        0.121088
  H            1.333940        9.608703        0.000088
  H            2.813074        9.270622        0.006960
  O           21.618800        5.253820       14.610233
  H           22.233481        4.982840       15.296135
  H           21.003094        4.520072       14.538389
  O            1.643263        7.955701        9.579184
  H            2.227410        8.649022        9.895100
  H            1.899190        7.827716        8.662252
  O           19.361946       20.180442        3.176031
  H           18.510427       19.859395        2.870140
  H           19.657449       19.513885        3.801348
  O            3.177433        9.306266       15.760119
  H            2.934944        8.377500       15.742293
  H            3.850355        9.390097       15.079833
  O            9.188731       12.599733        7.356776
  H            9.072211       13.515244        7.621329
  H            9.833581       12.637204        6.645856
  O            8.904997       13.373623        4.228985
  H            8.804444       12.418989        4.211999
  H            9.603057       13.528471        4.870372
  O            0.029904       15.009671       13.007792
  H            0.840022       14.512259       12.873574
  H            0.191406       15.517213       13.807142
  O           22.844252        7.155482        0.381143
  H           22.956133        8.073043        0.121739
  H           22.157125        7.179423        1.051908
  O           19.379828        6.271612        7.548701
  H           19.760187        5.594658        6.984091
  H           18.708147        6.687843        7.002589
  O           -0.000432       20.915543        3.929765
  H            0.406431       21.252099        4.731586
  H            0.317799       21.500300        3.237356
  O           14.665143        1.556990       14.261873
  H           15.067194        2.035523       14.990630
  H           13.814812        1.270734       14.604855
  O           22.394631        2.221206        2.207115
  H           22.827964        1.796659        2.951230
  H           21.713885        1.598206        1.940473
  O            5.812512       11.401844       14.747344
  H            6.358411       10.728792       14.334160
  H            4.997820       11.393504       14.238571
  O            2.365067       10.287273       19.625258
  H            2.718376       10.963426       20.208109
  H            2.110903        9.573061       20.215126
  O            4.456061        8.590379        1.586106
  H            5.319869        8.502769        1.995844
  H            4.238343        9.520645        1.685335
  O           19.385817       20.812015       14.546216
  H           19.538818       19.942566       14.923540
  H           19.767145       21.419620       15.185001
  O           18.931286       11.332115       14.420798
  H           19.131932       12.243900       14.644662
  H           19.414883       11.174706       13.605938
  O            7.925403        9.216117       12.996481
  H            7.349224        8.978922       12.266084
  H            7.703778        8.588097       13.688663
  O           21.717834        5.797044        8.876398
  H           22.272522        5.955149        9.643892
  H           20.823566        5.785552        9.226821
  O           17.331630       10.835587       12.562152
  H           17.413867       11.751814       12.836907
  H           17.244175       10.346994       13.384509
  O            2.601892       16.261450       12.630175
  H            3.498624       16.571931       12.484581
  H            2.466023       16.360085       13.575930
  O           12.772437        5.391831       21.581332
  H           12.026691        5.172063       22.144617
  H           13.361511        4.637261       21.660441
  O           14.703911        5.043073       19.189221
  H           13.872575        4.674787       19.497394
  H           14.461954        5.569983       18.423411
  O           18.662462       22.118702       11.365971
  H           18.968012       21.325128       11.811621
  H           19.460519       22.509784       11.001553
  O           11.563387       10.375940        2.586005
  H           10.684972       10.479034        2.212531
  H           11.457866        9.700369        3.260625
  O           13.419551       17.690631        6.914749
  H           12.885909       16.924521        6.691082
  H           14.117346       17.340076        7.474065
  O            1.346964       16.430818       17.626303
  H            1.418068       15.981258       16.780983
  H            0.831699       17.218526       17.434837
  O           18.908893       17.018097        4.624770
  H           19.252425       17.845347        4.970266
  H           19.421858       16.861141        3.827981
  O           16.012627        1.233306        6.779008
  H           16.668556        1.523994        6.141056
  H           15.176110        1.311699        6.313458
  O            6.522975        2.530897        0.948454
  H            6.855153        1.699144        1.294243
  H            6.004235        2.279511        0.180108
  O            4.087070        8.768189       21.022357
  H            3.866843        7.922881       21.420702
  H            5.047405        8.782009       21.007958
  O           10.455030        8.625787       21.892633
  H           10.917440        9.412018       21.593064
  H            9.529752        8.883390       21.904605
  O           22.249210       15.227567       17.842773
  H           22.191075       15.461737       18.772025
  H           21.984001       16.025668       17.378724
  O            9.020246       20.099482       21.329066
  H            9.717101       20.696591       21.046969
  H            9.090112       20.087140       22.286985
  O            1.337338       22.567180       20.965398
  H            1.211044       22.987369       20.111457
  H            0.699075       22.997767       21.539730
  O           12.623571       15.553826       15.047072
  H           13.538313       15.845010       15.060687
  H           12.600130       14.872998       14.369898
  O           21.462572        9.935300       19.762075
  H           21.289273        8.991710       19.798559
  H           20.722630       10.294613       19.266069
  O           16.817338       20.739368       22.669376
  H           16.971949       20.131633       21.942412
  H           16.320425       21.460843       22.275430
  O            3.138603       21.481719       21.389391
  H            3.301795       20.958663       20.601035
  H            4.014432       21.671425       21.735188
  O            0.637381       18.966941       14.927215
  H            0.367074       18.388918       14.209894
  H            0.006617       18.787086       15.628949
  O           19.829449        0.606752       22.827141
  H           19.833809        1.433985       22.339912
  H           20.739827        0.302779       22.789009
  O            4.492166       14.258284       13.308810
  H            4.393678       14.733984       14.136901
  H            5.326043       13.790401       13.400334
  O            9.478129       17.411167        2.143225
  H            9.178707       17.118560        1.279250
  H            9.533536       18.366937        2.065276
  O            1.095284        3.830780        2.205634
  H            1.434848        3.003714        2.555468
  H            0.930134        3.647117        1.277390
  O           18.525863       14.896129        1.629162
  H           18.989351       14.182779        1.184149
  H           19.171364       15.605743        1.678346
  O           21.846715       10.864341        0.766228
  H           21.517888       11.292234        1.560272
  H           22.456882       10.196994        1.090245
  O            1.195706       14.215720        8.947149
  H            1.994552       13.918278        8.505450
  H            1.511539       14.654712        9.740986
  O            7.962961       17.421148        6.960759
  H            7.864184       18.371356        7.056012
  H            8.883780       17.300560        6.715418
  O            4.373731       14.168425        7.130711
  H            3.919562       13.576589        6.526405
  H            3.916093       14.052272        7.967203
  O           21.527274        1.496837       19.917010
  H           21.915316        0.660642       20.185203
  H           20.895445        1.258312       19.233972
  O            8.265136       20.583900       19.298317
  H            7.533289       21.145854       19.033113
  H            9.048379       21.065164       19.019826
  O            0.459340        5.756544        2.581389
  H            0.001199        6.572814        2.794778
  H            1.129095        6.018479        1.944631
  O            0.006054        2.971676       18.769225
  H            0.064661        3.801887       19.247806
  H            0.760827        2.985059       18.175271
  O           14.876780        2.708268        2.706477
  H           14.122761        3.256064        2.936912
  H           15.541957        3.332523        2.405666
  O            5.722194       17.916167       17.686389
  H            4.910632       18.031527       17.186606
  H            6.246766       17.313313       17.153441
  O           13.914966       10.239556       17.709966
  H           13.366263       10.445205       18.470465
  H           13.502402       10.713155       16.983235
  O           16.129781       14.271396        6.479808
  H           16.278711       13.406927        6.089632
  H           16.702812       14.859741        5.981686
  O           13.467839       18.684116        0.431579
  H           12.663999       19.137319        0.166677
  H           13.411954       17.827731        0.000158
  O           15.483907       14.825503       14.106989
  H           15.498612       14.814628       15.066880
  H           16.402449       14.705283       13.853082
  O           14.438069       20.380748        8.755190
  H           13.946210       19.579592        8.949993
  H           14.457712       20.421108        7.795696
  O            1.018846        9.189231       14.102723
  H            1.738972        9.784700       13.882357
  H            0.236641        9.619644       13.748405
  O           11.590134       14.473949        3.798324
  H           12.153829       15.203037        4.067403
  H           10.719200       14.868018        3.704378
  O            5.889659       22.214737        9.015136
  H            5.349257       22.769757        8.448000
  H            6.184745       21.503227        8.441272
  O            7.402991        5.810071       14.271867
  H            6.798540        6.136143       13.601017
  H            6.884435        5.810256       15.080410
  O            5.272653       19.976798       10.581055
  H            4.992287       20.305904        9.723845
  H            5.086577       20.699109       11.186269
  O            0.562333        3.796877       12.084621
  H            0.928425        4.625393       11.766400
  H            0.169957        4.019659       12.932590
  O            7.267143       15.821718       15.185355
  H            6.591958       15.589342       14.543597
  H            7.066065       16.729964       15.424727
  O           13.673532       17.511581       18.491148
  H           12.920314       18.058556       18.726104
  H           14.432714       18.088320       18.608015
  O            0.675637       13.288607       11.142419
  H            1.010262       12.824232       10.371635
  H           -0.000131       13.874904       10.792799
  O            4.966539       17.274697        8.834446
  H            5.433240       16.709660        9.454646
  H            4.849810       18.102540        9.307408
  O           13.205252       15.773387       11.850911
  H           12.946772       16.216124       11.039186
  H           12.396864       15.732634       12.368105
  O           18.382499        7.412368       17.083622
  H           17.636015        7.121817       16.554408
  H           19.152580        7.167865       16.564165
  O            4.101909        3.963397       16.127113
  H            4.579140        3.131827       16.176777
  H            3.469881        3.833459       15.415567
  O            4.235810       15.952510       18.378922
  H            4.589219       15.059948       18.366219
  H            3.282898       15.831688       18.377503
  O           18.541275        3.973994        8.742870
  H           18.304503        4.232828        7.849187
  H           18.761170        3.041746        8.670749
  O            5.662920       21.300387       17.861496
  H            4.870815       20.776385       18.001908
  H            5.378396       22.012255       17.282763
  O           11.599810        0.945503        5.092283
  H           11.007117        0.594731        5.761162
  H           11.030107        1.460420        4.515273
  O           19.698800        3.711006       21.406099
  H           18.776200        3.457086       21.328253
  H           19.903754        4.125877       20.564364
  O           15.710406       22.395073        9.457851
  H           16.255531       22.146691        8.707605
  H           15.058046       22.996450        9.089865
  O           16.077833        4.496025        7.683445
  H           15.171971        4.779472        7.539231
  H           16.320964        4.050530        6.867931
  O           15.628484       10.411215       16.162060
  H           16.279086       11.042978       15.846912
  H           15.448470        9.854324       15.400411
  O            7.337096       11.379978       10.603250
  H            7.609323       11.139493        9.714552
  H            6.948681       10.576807       10.959189
  O            4.772667       11.393350       20.882543
  H            4.875859       12.086473       21.538788
  H            5.642663       10.990730       20.822169
  O            8.397025        2.354781        5.835058
  H            8.993112        1.602218        5.827568
  H            7.813015        2.203813        5.087541
  O           11.716140        7.325251        0.683093
  H           11.681994        8.250494        0.937029
  H           12.395579        7.289001        0.005089
  O           16.185617       13.912309        0.110047
  H           15.955385       14.843898        0.139381
  H           15.695532       13.522536        0.838426
  O            1.384687       22.993920        4.637446
  H            2.332694       22.996280        4.789109
  H            1.002266       22.991507        5.518576
  O            2.290140        7.688391       11.870060
  H            1.714649        8.394706       12.172803
  H            3.161509        8.090737       11.831652
  O            5.234050        8.785238       13.479949
  H            4.715114        9.435825       13.001235
  H            4.902936        7.939415       13.167557
  O           11.729625       15.005854       17.969533
  H           10.804474       14.750099       17.989761
  H           11.840106       15.433790       17.116710
  O            1.485497        4.101571        9.083236
  H            0.549709        3.904767        9.168636
  H            1.846160        3.345687        8.612914
  O            9.537717        8.080974       14.823679
  H            8.831174        7.869085       15.438191
  H           10.329515        7.733053       15.241587
  O            3.105823        7.799488        4.291229
  H            2.444290        8.105262        3.666247
  H            3.172710        8.509892        4.934264
  O            7.193987       16.255615       19.316290
  H            7.872606       16.777524       19.750815
  H            6.835164       15.702199       20.014588
  O            3.672409        4.686996       18.362320
  H            2.932530        4.184510       18.013305
  H            4.074744        4.101250       19.008593
  O            1.950376       19.017962        9.103232
  H            2.598692       19.642266        8.769082
  H            1.444197       19.521052        9.746137
  O           21.859784       19.954203       10.202738
  H           21.058313       19.644565        9.774377
  H           22.458887       19.204729       10.157940
  O           13.843098       12.944666        8.186392
  H           14.550125       13.557371        7.970914
  H           13.404963       13.342686        8.942870
  O            5.703878        6.550521        3.926362
  H            5.170975        7.346587        3.862980
  H            5.574433        6.248172        4.828843
  O           19.024136        9.980800       22.055100
  H           19.841149       10.136440       21.575527
  H           19.274906       10.044070       22.980170
  O           15.733360       22.928087       16.534347
  H           15.513225       22.304789       17.230598
  H           14.929735       22.996413       16.012656
  O            9.863352        1.877053        1.036519
  H            9.016857        1.504968        0.778209
  H           10.288574        1.176772        1.537952
  O            0.449717       19.871107        0.875954
  H            1.061409       20.587376        1.061739
  H            0.000926       19.718113        1.711311
  O            5.047815        7.635799       15.654660
  H            5.985629        7.806027       15.539540
  H            4.908444        6.779745       15.241880
  O           22.967090        7.884498        7.869344
  H           22.122246        7.657892        8.265088
  H           22.998101        8.843823        7.906436
  O           11.513228        2.775566       10.969378
  H           10.612507        2.549740       10.725597
  H           11.416472        3.490209       11.603859
  O            2.983112        0.919287       11.423028
  H            2.114815        0.863207       11.017269
  H            3.569014        1.158261       10.700358
  O           17.420253       15.107495       19.964003
  H           17.995851       14.379553       20.209993
  H           17.984744       15.697286       19.457901
  O           18.800891        2.058228        3.416965
  H           19.091278        2.863373        3.851870
  H           19.455225        1.909127        2.729755
  O           16.619087        7.330634       19.065331
  H           17.149877        6.576824       18.797455
  H           17.100024        7.710031       19.805196
  O           19.518022       12.615349       17.765170
  H           18.880937       12.838511       17.082494
  H           18.990238       12.220819       18.464049
  O           16.639438        6.815256        6.292985
  H           16.413475        6.012456        5.817404
  H           16.436002        6.614413        7.210001
  O           18.679054       11.963783        1.376722
  H           19.634949       11.943864        1.289587
  H           18.525498       11.940245        2.324619
  O           21.158900        4.840574       12.367444
  H           20.258281        4.649280       12.095384
  H           21.527302        5.342754       11.636187
  O            5.251017        5.670355       20.700618
  H            5.396487        6.195482       21.491064
  H            5.155427        6.318399       19.998092
  O           14.113552       12.303433        3.230914
  H           14.829962       12.618007        2.674563
  H           13.664357       13.103139        3.516108
  O           12.406294       11.661267       11.558983
  H           12.991063       12.224976       11.047121
  H           12.391486       10.831458       11.075414
  O           16.549687        9.799448        6.240273
  H           16.734082        9.067318        6.833322
  H           16.108573        9.393203        5.489923
  O            3.469503        8.326725       18.549891
  H            2.578990        8.468837       18.220474
  H            3.435551        7.460072       18.962689
  O           18.706035        2.018516       11.519971
  H           19.159126        1.674005       10.746831
  H           19.360732        2.572103       11.953048
  O           14.314611        5.122348        5.143746
  H           14.940811        4.946941        4.437466
  H           13.635639        4.452108        5.032319
  O            9.490161       10.418333        5.651252
  H           10.272279       10.150971        5.162853
  H            9.782612       10.460440        6.565222
  O           20.825264       22.458417        9.056991
  H           20.168384       21.830448        8.747329
  H           21.240441       22.020211        9.804150
  O            2.335875       17.889721       19.641613
  H            1.473757       18.266111       19.449756
  H            2.167846       17.253239       20.341112
  O           21.350053        3.431097       10.190531
  H           20.462223        3.780701       10.084418
  H           21.319678        2.951656       11.022310
  O           16.776941        3.734913        4.454102
  H           17.554167        4.029405        4.934643
  H           16.902335        2.787719        4.355405
  O            6.062020        4.718879       17.031508
  H            6.043918        4.471858       17.959073
  H            5.876461        5.661328       17.032087
  O           11.634349        3.446955        1.375801
  H           12.476013        2.985611        1.397901
  H           11.371060        3.506955        2.297604
  O            8.017699        9.092941        8.850741
  H            8.733538        9.020265        8.215117
  H            7.225223        8.911665        8.339115
  O            7.803531       13.681403       18.835998
  H            7.281484       12.885354       18.960487
  H            7.283143       14.215552       18.230585
  O           15.444145        8.357504       17.105029
  H           15.736376        8.943967       17.806732
  H           14.994158        7.643201       17.563205
  O           14.352541        8.219861        7.930523
  H           14.419517        8.913916        7.270578
  H           14.394041        7.404636        7.424234
  O            8.377999       22.193431       15.110979
  H            7.942766       22.995104       14.811619
  H            8.887164       21.900523       14.350980
  O           17.050544       20.099176       11.188533
  H           16.207193       19.667244       11.033874
  H           17.149013       20.702245       10.447417
  O           19.222475        7.325427       20.431854
  H           19.527245        6.420888       20.328660
  H           19.300343        7.705002       19.552933
  O            0.537163        0.236037        0.888149
  H            0.433200        1.177651        0.732331
  H            0.193591        0.101763        1.775037
  O           20.466626        7.172680        4.577236
  H           19.790693        6.708933        5.077015
  H           19.974813        7.693305        3.937148
  O           20.258014       19.744270        7.141355
  H           19.484353       19.245601        7.414307
  H           20.981616       19.115849        7.205613
  O            3.291380        4.723790        3.893116
  H            4.160962        5.014775        3.608722
  H            3.059403        5.325840        4.604709
  O            9.504524       21.208407        8.743191
  H            8.845321       21.844035        9.031554
  H           10.005987       21.674115        8.069179
  O            4.771857       15.288730       16.231947
  H            4.912406       16.121463       15.775300
  H            3.823796       15.256641       16.382915
  O           12.487119        2.900274        6.808924
  H           11.979967        3.450206        6.207179
  H           13.297893        2.708611        6.330851
  O            9.750203       19.158855       15.881672
  H            9.159058       19.430292       16.587784
  H            9.164117       18.861996       15.180944
  O           14.885737       14.823538       18.218450
  H           15.388683       15.557617       18.578865
  H           15.439671       14.478138       17.513824
  O            8.370148       22.898136       17.999258
  H            7.426604       23.000000       17.854093
  H            8.757390       22.992414       17.125303
  O            8.104849       10.079601       19.406802
  H            8.214412       11.007716       19.626627
  H            7.984243        9.646189       20.255477
  O           20.940830        9.793684       11.572337
  H           20.340753       10.542674       11.597762
  H           21.027255        9.526124       12.490806
  O           19.771903       17.172309        9.883189
  H           20.590594       16.683953        9.997116
  H           19.561722       17.071312        8.951382
  O            7.745495       18.004758        9.185872
  H            7.256859       18.825785        9.091670
  H            7.363890       17.587955        9.962593
  O           12.197880       22.872669        8.993208
  H           11.759683       23.000000        8.148521
  H           11.502907       22.999999        9.643931
  O           15.307495       19.448917        5.789584
  H           14.387134       19.649526        5.604068
  H           15.272594       18.811229        6.507064
  O            4.262403        9.936457       10.756605
  H            3.949506        9.859252        9.852249
  H            3.925592       10.785511       11.053772
  O           11.551642        3.887808       17.285006
  H           11.793144        3.566258       18.156790
  H           12.084828        4.677887       17.166140
  O           11.603512        0.810350       11.954157
  H           10.700796        0.556586       12.160150
  H           12.117740        0.015638       12.117388
  O           19.325969        8.733316        7.682620
  H           19.527255        9.298162        6.932848
  H           20.084227        8.147551        7.750197
  O           14.039270       12.084400        0.643309
  H           13.529239       11.538169        1.245990
  H           13.396562       12.393792        0.000000
  O           20.048535       15.216173       16.705720
  H           20.100619       14.812793       17.575374
  H           19.843678       16.137857       16.882284
  O           19.868960        9.181157       14.827333
  H           20.242266        8.321726       15.036487
  H           19.248621        9.004816       14.115486
  O            4.935812        9.154149        7.750626
  H            5.123568        8.319153        7.315593
  H            3.987461        9.267967        7.649054
  O            4.316659       22.615153       19.112862
  H            3.382624       22.519384       19.313191
  H            4.758718       22.075934       19.773519
  O           16.488802        4.524954       10.654158
  H           15.747009        5.092854       10.432894
  H           16.643976        4.013585        9.855994
  O           17.909996        4.891906        0.956854
  H           18.311942        4.026040        1.059032
  H           18.642739        5.506765        1.044480
  O            7.353195        7.192310       21.357955
  H            6.902446        7.523526       20.577669
  H            8.285811        7.240976       21.133233
  O            0.000563       17.882682       20.974339
  H            0.383700       17.547330       21.788262
  H            0.030931       17.135822       20.371082
  O           15.118053        8.077927        2.360490
  H           15.705739        8.725572        2.756603
  H           14.717235        8.540833        1.620419
  O           21.021413        1.725278       16.659250
  H           20.323385        2.268393       17.032757
  H           20.989167        1.910200       15.717227
  O           11.959117        1.564500       19.968938
  H           12.452447        1.062709       19.315826
  H           12.363654        2.435602       19.955720
  O           15.158235        2.150945       18.941440
  H           14.365635        2.656765       18.747387
  H           14.837766        1.261629       19.111908
  O            0.511951        9.083853       17.657941
  H            0.375141        9.970627       17.316413
  H            0.540213        9.197266       18.611346
  O           19.016016       20.629304        0.864648
  H           18.867782       21.358862        0.258432
  H           18.722692       19.853441        0.380252
  O            7.207649       11.803156        5.830662
  H            7.421069       11.706649        6.761717
  H            7.601444       11.032135        5.414616
  O           18.139085       20.944204       16.804598
  H           17.537647       21.673473       16.636781
  H           17.711783       20.437970       17.500143
  O           10.981509       15.324582        1.696147
  H           11.605327       15.895432        2.150798
  H           11.464135       15.007515        0.928565
  O           21.704147       12.501440        9.440418
  H           21.340376       11.922279       10.114189
  H           21.751307       11.952064        8.653904
  O           21.116477       20.297008       16.663243
  H           20.283305       20.063328       17.079108
  H           21.752394       20.290369       17.383110
  O            0.778731       13.011788       21.309089
  H            1.046408       12.136525       21.019280
  H            0.002620       13.211324       20.779486
  O            8.643928       13.501860       13.725647
  H            8.294376       13.938255       12.945200
  H            7.903875       13.478874       14.337558
  O            0.527198       11.939709       15.929567
  H            0.312223       12.875230       15.911925
  H            1.414760       11.892111       15.565410
  O           14.330341        5.686705        0.382114
  H           14.649777        6.543645        0.674242
  H           15.103769        5.259845        0.004965
  O           17.195402       10.422259       19.280121
  H           16.692477       11.145368       18.898146
  H           16.532211        9.860394       19.688932
  O           12.500222        8.848936       16.343991
  H           12.220898        8.871087       17.262257
  H           11.958816        9.515700       15.913935
  O            7.021671       10.520443        2.458570
  H            6.715633        9.833178        3.055002
  H            6.254857       11.084828        2.331646
  O           14.646006       11.455310       20.143792
  H           14.263457       11.991408       20.842348
  H           14.615254       12.019010       19.366658
  O            6.865811       15.029066        9.698224
  H            6.141776       14.410235        9.577608
  H            7.029147       15.023379       10.644761
  O            9.020361       19.298705       11.730616
  H            8.323165       19.556906       12.338049
  H            9.084279       20.033198       11.114924
  O           22.155705        1.054065       10.287302
  H           22.589450        1.631677        9.654882
  H           22.638142        1.192231       11.106330
  O           12.884405       20.007311        3.801563
  H           12.603798       20.898453        3.580540
  H           12.414364       19.803980        4.614188
  O            7.215528        6.810535       11.197891
  H            6.333879        7.039563       11.501148
  H            7.391600        7.431163       10.486230
  O           17.536532       16.700006        2.429633
  H           18.013790       17.532989        2.420240
  H           17.433811       16.494571        3.362310
  O           10.794475       19.308787        3.412627
  H           10.152242       20.021866        3.384668
  H           11.259085       19.373356        2.574408
  O            3.963300       21.325638       15.520706
  H            3.642054       21.135456       14.636197
  H            3.198217       21.679368       15.981319
  O            0.283465       22.132474        7.897669
  H            0.223617       22.048265        8.852160
  H            0.734467       22.969297        7.759952
  O           12.794174       10.649491       21.781107
  H           12.603014       10.331863       22.666711
  H           12.089073       11.274546       21.594611
  O            6.527571       19.643766       20.286306
  H            6.844126       18.827350       19.892628
  H            5.578283       19.626265       20.140745
  O           20.709542       14.943470       14.595497
  H           19.810437       14.606856       14.590332
  H           20.931139       15.045867       13.666492
  O            6.650830        1.562334       16.060430
  H            5.804106        1.155264       16.258108
  H            6.452180        2.204809       15.374569
  O           10.276914        7.120206       12.219299
  H            9.827204        7.937659       11.992901
  H            9.680159        6.681214       12.830701
  O            5.739972        4.747055       10.963358
  H            5.926504        4.907151       11.891420
  H            5.072799        5.400341       10.738105
  O           14.513201       16.540526        5.219216
  H           14.149314       15.746059        4.821556
  H           15.242087       16.224550        5.759148
  O            2.779483        4.805258       20.733129
  H            3.038789        5.720448       20.603078
  H            2.004158        4.695754       20.176782
  O           21.870483       12.382490       18.044627
  H           21.795862       12.904435       18.846955
  H           21.643017       12.994446       17.340063
  O            7.854774        5.146511        3.166003
  H            7.751348        5.745806        3.908884
  H            7.382936        5.574371        2.447013
  O            4.444277       17.508820       20.190217
  H            4.594963       16.782058       20.799180
  H            5.139187       17.417519       19.533401
  O            6.376066       13.583160       20.781055
  H            5.975699       14.190827       21.407291
  H            7.219143       13.351834       21.178989
  O           21.684348       17.298340        5.986976
  H           21.280294       16.727130        5.329569
  H           21.207515       17.103334        6.797683
  O           21.232559       16.296374        0.185850
  H           20.290784       16.278743        0.000182
  H           21.329795       15.759654        0.976495
  O           17.297369        7.850534        4.466695
  H           17.987246        8.514909        4.400359
  H           17.671891        7.074676        4.041937
  O            9.678010        6.936488        9.157729
  H            9.492621        6.449717        9.964209
  H            8.868193        6.867090        8.645848
  O            9.831283       14.209481       20.615866
  H            9.847794       14.917016       19.967139
  H           10.725530       13.858883       20.609103
  O           14.126176       13.113341       16.004617
  H           13.446492       12.505550       15.704043
  H           14.628415       12.609244       16.649818
  O            7.162382       20.878524        4.948511
  H            7.437184       20.616766        5.830380
  H            6.599206       21.643403        5.091465
  O            1.393586       19.468334       21.552571
  H            1.332915       20.312402       22.005996
  H            2.332078       19.263706       21.554226
  O           14.531760       20.495993       14.691504
  H           13.602314       20.591986       14.912053
  H           14.537624       20.348989       13.742295
  O           15.533557       12.508661       10.764765
  H           15.798298       11.663022       11.134267
  H           16.324661       13.050740       10.819045
  O           10.995647       12.599597        8.490350
  H           11.860749       12.276982        8.227213
  H           11.058368       12.699833        9.443587
  O            7.405780       22.943880        6.805412
  H            7.808636       22.994292        5.935417
  H            7.920878       22.278388        7.268485
  O            9.077976       10.325376        0.320205
  H            8.305747       10.870298        0.488868
  H            9.740593       10.943144        0.000918
  O           20.745461       13.661813        3.422512
  H           19.985079       13.076119        3.400000
  H           20.642236       14.216540        2.645168
  O           15.327972        1.868338        0.723029
  H           15.281000        1.235644        0.002462
  H           14.806510        2.615414        0.418732
  O           16.304072        8.559341        0.075042
  H           17.147872        9.015376        0.033116
  H           16.538205        7.629747        0.135704
  O            5.663353       18.034151       11.661200
  H            5.461148       17.129920       11.409794
  H            4.804248       18.441219       11.798592
  O            5.203058        1.496246       18.394021
  H            5.174662        2.196061       19.050662
  H            4.346606        1.540352       17.961371
  O           16.852211        4.020560       18.972853
  H           17.594146        3.423796       18.849852
  H           16.467200        3.752700       19.811101
  O            9.583183       20.749448        6.204305
  H            9.315953       19.933273        5.775153
  H           10.031043       21.245896        5.514665
  O           12.766106        1.005448       16.728256
  H           13.479274        1.005374       17.370997
  H           12.165765        1.688163       17.038311
  O           15.215338       11.982012       14.075453
  H           15.301746       12.686646       13.429118
  H           15.156652       11.181033       13.548545
  O           21.230153        7.572444       17.722049
  H           20.579075        8.267645       17.842542
  H           21.054419        6.954786       18.436373
  O           14.155004       21.898381        0.721450
  H           14.496704       21.835836        1.616466
  H           14.001286       20.986785        0.460673
  O            0.523855        6.059614       17.801439
  H            0.001133        5.278932       17.603896
  H            1.353987        5.712044       18.137174
  O            7.204760        7.978010        6.240278
  H            7.337119        7.392209        5.491250
  H            6.838778        8.778320        5.855306
  O           15.298009        7.265247       10.063545
  H           16.021159        7.833662       10.338652
  H           15.578343        6.917443        9.213200
  O            8.438824        4.607346       19.174727
  H            8.332642        3.655557       19.107289
  H            7.638900        4.905913       19.614751
  O            7.734768       22.986613        3.740937
  H            8.443296       22.453803        4.109482
  H            7.422923       22.479936        2.986833
  O           16.532497       16.777116       11.921426
  H           17.068809       17.365069       12.458460
  H           17.169833       16.212474       11.476878
  O           21.834793       18.986242       12.198507
  H           22.713363       19.346467       12.340207
  H           21.987792       18.063335       11.980618
  O           15.657104       17.701080        2.785224
  H           14.858944       18.204012        2.607112
  H           15.488214       17.277251        3.630498
  O           19.220151       22.943472       17.266291
  H           20.100632       22.936367       17.648949
  H           18.631216       22.984966       18.023970
  O           10.238074       17.162324        4.977340
  H           10.418124       16.265560        5.269099
  H            9.579497       17.060301        4.285596
  O           19.336669        5.086363        3.490687
  H           19.747475        5.749813        2.931404
  H           18.423619        5.056494        3.193888
  O           17.729431        9.450992        2.286983
  H           18.553010        9.756482        2.674435
  H           17.878555        8.517818        2.114964
  O           19.186427       15.807849       12.564048
  H           18.680015       15.002593       12.693795
  H           19.569575       15.710117       11.688669
  O           21.393350       11.893941       14.244978
  H           22.320207       11.684402       14.108031
  H           21.405665       12.682342       14.793533
  O            0.041124       10.292542       10.390583
  H            0.945647       10.284496       10.712296
  H            0.000053        9.555415        9.776092
  O           21.945470        5.386626        6.057257
  H           21.726285        6.306253        6.224498
  H           22.705965        5.425443        5.471779
  O           14.864347       20.192051       20.982784
  H           14.210072       20.848439       20.732178
  H           14.433168       19.675132       21.668000
  O           10.760567       17.328626       17.961252
  H           10.668307       18.233467       17.653883
  H           10.214270       17.287966       18.750269
  O            1.208753        4.914538        7.038226
  H            1.783679        5.547760        6.602089
  H            0.618974        5.454842        7.570085
  O           11.000726        0.061355       14.637726
  H           11.763111        0.535555       14.297683
  H           10.253549        0.625039       14.421791
  O           12.405795       14.438098        6.050628
  H           11.597773       13.926376        6.134092
  H           12.933810       13.948048        5.415259
  O           22.071614       22.275682       16.487240
  H           22.894198       22.093043       16.027106
  H           21.493958       22.635326       15.809293
  O            9.145318        4.389423        4.937017
  H            9.873614        4.152822        5.516094
  H            9.111928        3.677645        4.292891
  O           16.162684       18.506859        9.071418
  H           17.008606       18.960475        9.090775
  H           16.229909       17.908809        8.322780
  O            3.870121       14.110125       20.745663
  H            3.659441       15.006877       21.016171
  H            3.400629       13.994941       19.915632
  O            8.910210       16.380796       16.859303
  H            8.537566       17.229493       17.109452
  H            9.480434       16.581469       16.112833
  O           12.690604        9.547717       13.839414
  H           13.197858       10.199341       13.349716
  H           13.354311        9.008868       14.277336
  O           14.964656       10.886335        8.958360
  H           14.583377       10.019875        9.118354
  H           15.857334       10.701788        8.655522
  O           22.410015        9.857110       22.025737
  H           22.900744        9.400243       21.338582
  H           22.480245       10.785988       21.791436
  O           10.664653        4.840916       14.684205
  H           11.356183        5.069419       14.058668
  H            9.944875        4.517735       14.136377
  O            2.748302       18.929319       16.283583
  H            2.735784       18.141448       16.832060
  H            3.392139       19.503599       16.705860
  O           20.566599        0.567535       13.896848
  H           19.629970        0.468262       14.082849
  H           20.599743        1.187611       13.164012
  O            9.946190       16.345899       13.891385
  H            9.601301       15.524697       14.249720
  H           10.866351       16.358326       14.166686
  O           11.909852       12.623348        2.006628
  H           11.166879       13.167481        2.277987
  H           12.587730       13.254801        1.752874
  O            2.921687       21.464923       10.359068
  H            3.530560       22.111664       10.723381
  H            2.351545       21.974961        9.778171
  O            1.390266        2.930199       22.031557
  H            1.659756        2.009034       22.055118
  H            0.854040        3.001522       21.237821
  O           20.999706       17.497894       15.346063
  H           20.154768       17.793805       14.999304
  H           21.037716       17.869735       16.230897
  O           19.519277       21.620963        6.160710
  H           20.441897       21.826567        6.328711
  H           19.032894       22.276697        6.666761
  O           22.098643       20.923191       13.745888
  H           21.231525       21.138101       13.394254
  H           21.917058       20.346018       14.491904
  O            3.466412       14.361649       10.625326
  H            2.792241       14.574170       11.274983
  H            4.046046       15.127589       10.623917
  O            2.247877       19.891083       12.338076
  H            3.049334       19.982303       12.858721
  H            2.460101       19.214341       11.690293
  O            4.284189        3.407020       22.221755
  H            4.956702        4.047113       22.466160
  H            4.422000        3.263412       21.282060
  O            4.330504        2.916652        1.899114
  H            3.646039        3.003309        1.231489
  H            3.854262        2.937985        2.733008
  O           21.760575        4.237649        2.901322
  H           21.677649        4.914552        3.577081
  H           20.973157        3.697745        3.006768
  O           21.326572       20.768782        0.062586
  H           21.213269       21.145336        0.938425
  H           21.001835       19.868674        0.146205
  O           20.687741       18.275285        2.261035
  H           21.454056       17.714701        2.403275
  H           20.235650       17.875946        1.513517
  O           11.777414       19.828439       19.418372
  H           11.360345       19.096881       19.879460
  H           11.337224       20.609525       19.763014
  O           11.670414       18.415048       12.110947
  H           11.211370       17.580346       12.230428
  H           11.565182       18.613478       11.177034
  O            6.166241        8.247806       18.406088
  H            5.505685        8.352038       17.717229
  H            6.349620        7.305032       18.419893
  O           11.797497       14.172827       10.919685
  H           11.126882       14.722682       10.507788
  H           11.390000       13.870479       11.735266
  O           12.836387        7.065768       18.752004
  H           12.784918        6.987505       19.707488
  H           11.939403        6.900794       18.450599
  O            3.615183        6.133987       13.581388
  H            3.055444        6.890346       13.772016
  H            3.640576        6.091905       12.622104
  O           18.328309        5.750437       11.676961
  H           17.655108        5.566975       12.336405
  H           17.964951        6.474023       11.160205
  O           18.950571       18.729723       12.052431
  H           19.560163       19.228786       11.503743
  H           19.517405       18.237198       12.651397
  O            3.347123       12.825241       12.070789
  H            2.523420       12.453483       11.746700
  H            3.664756       12.181132       12.708657
  O           20.079819        7.263220        0.219069
  H           20.578459        8.055586        0.006374
  H           19.487365        7.536401        0.924059
  O            3.763786        6.458066        1.601193
  H            2.998371        6.968319        1.875980
  H            3.764056        6.525845        0.643045
  O           17.742199       13.153993        7.712880
  H           18.440726       12.843821        7.131865
  H           18.186483       13.332902        8.545493
  O           21.611247        2.934799        7.795677
  H           20.784193        2.493268        8.002455
  H           21.346810        3.724151        7.316471
  O           11.258054        5.327589        8.192412
  H           11.490800        5.297009        9.123335
  H           12.062014        5.065299        7.736897
  O            6.791253        2.617980        8.957886
  H            6.190349        1.926776        8.670003
  H            6.431837        3.421631        8.573691
  O           11.675140       16.666300       20.252588
  H           11.554558       16.645102       21.204815
  H           12.271541       15.935454       20.071448
  O            6.707411       21.191513        0.000101
  H            5.895314       20.936966        0.444432
  H            7.272088       20.417986        0.073839
  O           20.870902        9.359305        2.561403
  H           20.437066        9.419132        1.707042
  H           21.388027        8.551469        2.510173
  O            1.537090       21.220222       17.647312
  H            2.256229       20.806887       18.130756
  H            1.125535       20.496928       17.167614
  O           20.367936        4.480199       16.644575
  H           19.562782        4.734265       16.187517
  H           20.133029        4.509474       17.575491
  O           21.776022        2.356710        5.350149
  H           21.302484        3.159929        5.121398
  H           21.169185        1.875861        5.918635
  O           17.662011        7.689158        8.880264
  H           17.759353        6.739857        8.985515
  H           18.166120        8.062627        9.607613
  O           17.087703       19.606246        4.589180
  H           17.851689       19.570588        5.169506
  H           17.071119       18.745258        4.163660
  O           16.981313       17.219971       15.169574
  H           16.417397       17.288357       15.943555
  H           16.419934       16.820912       14.500061
  O            5.727082       19.526868       13.864026
  H            5.562347       20.176258       14.551688
  H            5.627967       18.680282       14.306870
  O           15.530201        2.526615        8.500528
  H           14.638109        2.309648        8.781280
  H           16.094818        2.002323        9.074084
  O           10.492923       20.287339       14.139661
  H           10.843181       19.432811       13.877313
  H           10.502160       20.806999       13.331880
  O           16.443424       19.612258        2.131143
  H           16.915802       19.161497        1.427298
  H           15.663258       19.972577        1.702012
  O            1.237991        5.898138       21.861902
  H            0.679549        5.127000       21.985244
  H            1.935453        5.794217       22.514121
  O           11.849527        9.972373        7.106019
  H           12.647480       10.234216        7.571242
  H           12.150402        9.755526        6.219964
  O            4.689761        4.127972       13.607878
  H            5.019705        3.247735       13.802928
  H            5.215005        4.708281       14.164657
  O           12.802354       22.469387       21.510131
  H           12.488514       21.735706       22.043930
  H           12.433958       22.304770       20.638450
  O            0.307106        8.388251        3.591889
  H            0.001773        9.199076        4.005483
  H            0.742425        8.680410        2.787040
  O            9.143308        6.054166        0.050458
  H           10.099927        5.990336        0.000150
  H            8.984492        6.806397        0.626278
  O           14.370666       14.258642       20.582508
  H           15.199225       14.141588       21.053159
  H           13.879215       14.886979       21.117588
  O           12.128964       21.868568        1.507948
  H           11.357624       21.297522        1.533768
  H           12.082855       22.368729        2.326700
  O           22.358801        7.730900       15.143890
  H           22.915079        7.019382       14.818281
  H           22.640389        7.856459       16.053607
  O           13.633534       10.125886        3.816813
  H           14.304493        9.590121        4.246342
  H           13.892292       10.135626        2.891831
  O           10.762094        8.826824       19.237054
  H           10.771052        9.712265       18.866056
  H            9.937146        8.781949       19.727044
  O           16.052451       11.374899        1.154810
  H           16.466983       11.231155        2.008757
  H           15.712869       10.511450        0.906251
  O           11.622007       12.370082       14.348049
  H           11.083503       11.615275       14.597054
  H           11.116991       12.805580       13.656716
  O           17.512068       14.838073       16.859358
  H           17.668155       15.778472       16.973430
  H           18.027575       14.603188       16.083650
  O           14.327280        8.331801       21.326737
  H           13.399689        8.570368       21.392957
  H           14.591759        8.642044       20.457000
  O            7.325179        3.164814       21.000498
  H            6.671988        2.478749       21.156644
  H            7.166483        3.807887       21.696137
  O            6.467415       10.237201        0.020120
  H            5.548749        9.959036        0.000063
  H            6.965619        9.416205        0.000080
  O           14.309466       17.037126       20.546583
  H           15.198616       17.399149       20.555384
  H           13.748132       17.777573       20.790070
  O            9.953431        7.612036        3.538497
  H            9.383501        7.019814        3.042334
  H           10.084666        7.167442        4.379779
  O           18.768301        2.675996       14.483067
  H           18.386660        2.679484       15.364011
  H           18.083990        3.054442       13.925268
  O           22.252068        7.464823       11.391023
  H           21.301040        7.586762       11.440024
  H           22.612544        8.344933       11.525585
  O           21.283619        8.936694        6.040537
  H           21.737431        9.780984        5.986180
  H           21.878830        8.317911        5.609871
  O            6.221419       12.699913       11.718983
  H            5.920739       11.867033       12.089965
  H            5.554243       12.924527       11.065478
  O           10.226257       18.474972        0.001016
  H           10.864557       17.763821        0.093552
  H           10.675857       19.246461        0.355005
  O           14.662130        8.985137       11.629860
  H           14.944795        8.888463       12.542263
  H           13.976511        8.321264       11.521040
  O           20.577176       12.604280       12.328436
  H           19.758775       12.793471       11.863514
  H           21.116922       13.386503       12.188992
  O           18.880482       11.158094        4.767102
  H           19.261276       10.712488        5.527469
  H           19.518403       11.015839        4.063212
  O           19.768443       13.063094       21.894517
  H           20.300087       12.376792       21.484555
  H           20.381459       13.527969       22.469621
