(written by ASE)

1273 atoms
102 atom types

0.0                      23  xlo xhi
0.0                      23  ylo yhi
0.0                      23  zlo zhi

Masses

1      1.0079999997406976 # H
2      4.0026019989703538 # He
3      6.9399999982147245 # Li
4      9.0121830976816675 # Be
5      10.809999997219188 # B
6      12.010999996910238 # C
7      14.006999996396779 # N
8      15.998999995884349 # O
9      18.998403158112769 # F
10      20.179699994808885 # Ne
11      22.989769274086012 # Na
12      24.304999993747675 # Mg
13      26.981538493059151 # Al
14      28.084999992775295 # Si
15      30.973761990032177 # P
16      32.059999991752747 # S
17      35.449999990880691 # Cl
18      39.947999989723606 # Ar
19      39.098299989942184 # K
20      40.077999989690163 # Ca
21      44.955907988435349 # Sc
22      47.866999987686484 # Ti
23      50.941499986895586 # V
24      51.996099986624294 # Cr
25      54.938043985867495 # Mn
26      55.844999985634189 # Fe
27      58.933193984839768 # Co
28      58.693399984901454 # Ni
29      63.545999983653154 # Cu
30      65.379999983181364 # Zn
31      69.722999982064152 # Ga
32      72.629999981316345 # Ge
33      74.921594980726837 # As
34       78.97099997968516 # Se
35      79.903999979445146 # Br
36      83.797999978443443 # Kr
37      85.467799978013886 # Rb
38      87.619999977460253 # Sr
39      88.905839977129475 # Y
40       91.22399997653315 # Zr
41      92.906369976100365 # Nb
42      95.949999975317411 # Mo
43      97.907209974813938 # Tc
44      101.06999997400031 # Ru
45      102.90549997352815 # Rh
46      106.41999997262405 # Pd
47      107.86819997225152 # Ag
48      112.41399997108213 # Cd
49      114.81799997046372 # In
50      118.70999996946252 # Sn
51      121.75999996867793 # Sb
52      127.59999996717562 # Te
53      126.90446996735454 # I
54      131.29299996622564 # Xe
55      132.90545192581081 # Cs
56       137.3269999646734 # Ba
57      138.90546996426735 # La
58      140.11599996395597 # Ce
59      140.90765996375231 # Pr
60      144.24199996289454 # Nd
61      144.91275996272199 # Pm
62      150.35999996132077 # Sm
63      151.96399996090813 # Eu
64      157.24999995954832 # Gd
65      158.92534995911737 # Tb
66       162.4999999581978 # Dy
67      164.93032995757261 # Ho
68      167.25899995697355 # Er
69      168.93421995654265 # Tm
70      173.05399995548285 # Yb
71      174.96679995499079 # Lu
72      178.48999995408445 # Hf
73      180.94787995345217 # Ta
74      183.83999995270821 # W
75       186.2069999520993 # Re
76       190.2299999510644 # Os
77      192.21699995055329 # Ir
78      195.08399994981576 # Pt
79      196.96656894933145 # Au
80      200.59199994839886 # Hg
81      204.37999994742441 # Tl
82      207.19999994669897 # Pb
83      208.98039994624096 # Bi
84      208.98242994624044 # Po
85        209.987149945982 # At
86      222.01757994288724 # Rn
87      223.01973994262946 # Fr
88      226.02540994185622 # Ra
89      227.02774994159839 # Ac
90      232.03769994030961 # Th
91      231.03587994056733 # Pa
92      238.02890993876841 # U
93      237.04816993902071 # Np
94      244.06420993721588 # Pu
95      243.06137993747384 # Am
96      247.07034993644254 # Cm
97      247.07030993644256 # Bk
98      251.07958993541121 # Cf
99      252.08299993515308 # Es
100      257.09510993386374 # Fm
101      258.09842993360564 # Md
102      259.10099993334774 # No

Atoms # atomic

     1   7      4.5928000000000004      18.535609000000001      3.3880150000000002
     2   6      3.2655180000000001               19.172967      3.3188719999999998
     3   6      2.4132370000000001      19.009136000000002      4.5712419999999998
     4   7      2.0950570000000002      17.603491000000002      4.8760690000000002
     5   6     0.97703499999999999               17.113726                4.048908
     6   6     0.95400200000000002      15.604158999999999                3.828649
     7   7      2.1776309999999999               15.098611                 3.18052
     8   6      2.1732930000000001               15.447298      1.7557609999999999
     9   6      3.5025789999999999               15.232872                1.058114
    10   7      4.6003150000000002      16.012281999999999                1.674058
    11   6      4.5725360000000004      17.389748999999998      1.1537189999999999
    12   6      5.1992209999999996      18.440425000000001      2.0515379999999999
    13   6      5.4874070000000001      19.299423999999998      4.2856829999999997
    14   6      5.2151800000000001               19.028081      5.7723849999999999
    15   8      5.0513070000000004      17.777412000000002      6.0397790000000002
    16   8      5.1755849999999999      19.959267000000001      6.5556890000000001
    17   6      1.7912969999999999      17.431356000000001      6.3135389999999996
    18   6      1.8143419999999999               15.953469      6.7252470000000004
    19   8                2.811623      15.297434000000001      6.2230540000000003
    20   8     0.94121299999999997               15.507132      7.4436920000000004
    21   6      2.3342900000000002      13.637848999999999                3.378517
    22   6      3.7871049999999999               13.172608                3.151875
    23   8                4.669645               13.849942                3.803979
    24   8      4.0243359999999999      12.256736999999999      2.3754919999999999
    25   6      5.8754920000000004      15.329643000000001                1.455846
    26   6      6.8980980000000001      15.537896999999999      2.5514480000000002
    27   8                6.672682      16.199704000000001      3.5747019999999998
    28   7      8.0844760000000004      14.948054000000001      2.3586580000000001
    29  57      4.3271639999999998               16.054243      4.6192270000000004
    30   1                3.376636      20.249290999999999      3.1190440000000001
    31   1      2.7359659999999999      18.748166000000001      2.4641890000000002
    32   1      2.9285950000000001      19.435438999999999      5.4303350000000004
    33   1      1.4968790000000001      19.601458999999998      4.4379629999999999
    34   1    0.018530000000000001                17.40288      4.5007630000000001
    35   1      1.0225200000000001      17.627960999999999      3.0875249999999999
    36   1    0.063672000000000006      15.364375000000001                3.229276
    37   1     0.84223199999999998      15.088808999999999                4.779738
    38   1      1.4097820000000001               14.861812                1.219544
    39   1                1.876601      16.494568999999998                1.669729
    40   1      3.7600920000000002      14.177016999999999                1.079372
    41   1      3.3826230000000002                15.50187               -0.000125
    42   1      5.0632729999999997               17.439791     0.16892599999999999
    43   1      3.5280209999999999      17.642534000000001                0.967144
    44   1      6.2547459999999999      18.215108000000001      2.1943860000000002
    45   1      5.1458190000000004      19.408764000000001                1.529757
    46   1      6.5063779999999998               18.953771      4.0984119999999997
    47   1      5.4359409999999997      20.372755000000002      4.0761099999999999
    48   1      5.6863159999999997      14.251270999999999      1.4494450000000001
    49   1      2.5861239999999999      17.925439999999998      6.8784850000000004
    50   1     0.82839399999999996      17.879193999999998      6.5759109999999996
    51   1      6.3211649999999997               15.580956     0.48070299999999999
    52   1                2.095682               13.428362                4.423648
    53   1                1.658598               13.072053      2.7288109999999999
    54   6      8.4332940000000001               14.078462      1.2487250000000001
    55   1      9.4057580000000005               13.638268                1.455368
    56   1                7.711125      13.268916000000001      1.1337079999999999
    57   1                8.507517               14.638285     0.31442900000000001
    58   1      8.7276389999999999      15.034058999999999                3.129419
    59   8               17.003536      21.482959999999999      3.4420519999999999
    60   1      16.123449000000001      21.834973999999999                 3.59456
    61   1      17.523240999999999      22.246400999999999      3.1780309999999998
    62   8      11.520498999999999      19.417280999999999      6.4066879999999999
    63   1               11.420332               18.499499      6.1433099999999996
    64   1               12.304572      19.421897000000001      6.9615320000000001
    65   8      8.4489669999999997               11.813988               16.816125
    66   1      8.5485439999999997               12.759665      16.948429000000001
    67   1      7.9444869999999996      11.738924000000001      16.002179999999999
    68   8               10.114457      10.409490999999999      9.4298000000000002
    69   1      9.6634969999999996               10.984721                8.807328
    70   1      9.6354980000000001      10.527894999999999      10.253947999999999
    71   8      8.8054659999999991      7.4416099999999998      18.164995999999999
    72   1      8.4758800000000001      6.7685560000000002               18.765075
    73   1      9.5873419999999996      7.0470810000000004      17.770458999999999
    74   8      8.1118729999999992                 4.64764      7.1116419999999998
    75   1      8.1365599999999993      3.7042449999999998      7.2880520000000004
    76   1      8.8858789999999992      4.9947990000000004      7.5622400000000001
    77   8      8.5814120000000003      13.694789999999999      10.763284000000001
    78   1      8.6092739999999992               12.820058               11.157988
    79   1      8.4040560000000006               13.531297      9.8335220000000003
    80   8      12.763329000000001      3.4381979999999999               13.593696
    81   1               13.719704      3.4762840000000002                13.51872
    82   1                12.60375      3.2701549999999999               14.525865
    83   8               15.853526      22.351203999999999      12.740244000000001
    84   1               16.507828      21.654254000000002      12.651502000000001
    85   1      16.170559000000001      22.883849999999999               13.474015
    86   8      6.5202119999999999      3.3327089999999999      3.4007649999999998
    87   1      5.8754359999999997      3.7700749999999998      2.8397830000000002
    88   1      6.0679540000000003      2.5457429999999999                3.715074
    89   8      7.0412840000000001               19.955168      16.302904999999999
    90   1      6.1754680000000004               19.615879               16.541591
    91   1      6.8656459999999999      20.832837000000001                15.95435
    92   8      18.551186999999999      17.878243999999999               18.755544
    93   1      18.792048999999999      18.693522000000002      18.309412999999999
    94   1               17.918657      18.150729999999999               19.425096
    95   8      20.066724000000001               15.136619      8.8263309999999997
    96   1               20.817698               14.613906      9.1170790000000004
    97   1               19.691931      14.632061999999999      8.0999730000000003
    98   8      13.495571999999999      3.7215449999999999               10.831699
    99   1               13.924341      2.8626429999999998               10.818683
   100   1               14.005093                4.232812               11.465446
   101   8      2.7385190000000001      2.3955280000000001      20.161871999999999
   102   1      3.0081169999999999      1.5026120000000001      20.389344000000001
   103   1      2.6029770000000001      2.3688099999999999               19.211316
   104   8      12.719944999999999      18.628879000000001      15.701040000000001
   105   1               12.362537               17.769568               15.465311
   106   1      13.090901000000001      18.500485000000001      16.577708999999999
   107   8      3.5192060000000001      2.8876019999999998      12.218095999999999
   108   1      2.6595179999999998      2.7272120000000002      12.614250999999999
   109   1                3.377561      3.6394139999999999      11.637271999999999
   110   8      2.7298749999999998               11.236694      8.4274009999999997
   111   1      2.8076249999999998               12.136298      8.1012219999999999
   112   1      2.1785380000000001               11.313708      9.2101769999999998
   113   8      6.7910599999999999                22.23338      13.094514999999999
   114   1      7.4916929999999997               22.524632               12.506288
   115   1      6.8390459999999997      21.274460000000001      13.066026000000001
   116   8      21.691818999999999    0.088153999999999996      3.9557859999999998
   117   1               21.734821                0.003673      4.9111589999999996
   118   1      20.872257999999999     0.56262000000000001                3.795029
   119   8      18.213581999999999      16.826668999999999     0.33516800000000002
   120   1      17.807555000000001      16.023002000000002   0.0020209999999999998
   121   1      17.652988000000001               17.532404   0.0030309999999999998
   122   8      6.7962360000000004      10.663722999999999               17.702372
   123   1      6.5000030000000004               10.315776      16.858035000000001
   124   1      6.0657690000000004               10.489882      18.301404000000002
   125   8      8.5936459999999997      4.8020319999999996      16.101234000000002
   126   1      8.9713860000000007      5.6515009999999997               15.861566
   127   1      8.2512620000000005      4.9352109999999998               16.988747
   128   8      16.073160000000001      1.3913629999999999      11.644983999999999
   129   1               15.503783     0.90747299999999997      11.042168999999999
   130   1                15.47101      1.9431659999999999      12.150524000000001
   131   8                1.404884                12.13686   0.0034919999999999999
   132   1     0.61139399999999999               11.667918     0.27217799999999998
   133   1                2.090106      11.463730999999999  0.00032699999999999998
   134   8      18.618580999999999               10.304019               16.794027
   135   1               18.417607      9.7263380000000002      17.534040000000001
   136   1      19.577566999999998      10.358271999999999      16.787490999999999
   137   8                0.106332      20.856964999999999               19.296218
   138   1  0.00044499999999999997               19.941533               19.026964
   139   1    0.090674000000000005      20.826488999999999      20.256149000000001
   140   8      9.6195850000000007      3.3528530000000001      21.791136000000002
   141   1      9.4266030000000001      3.9132769999999999      22.546389999999999
   142   1               10.063172      3.9352140000000002      21.169260999999999
   143   8      17.777519000000002      16.672346999999998      6.6139380000000001
   144   1      17.005918999999999      17.173484999999999      6.3396759999999999
   145   1      18.261341000000002               17.273529      7.1858979999999999
   146   8      10.165343999999999      6.0706480000000003               20.495932
   147   1               10.738146      6.8391359999999999      20.551141000000001
   148   1               10.474377      5.5982700000000003      19.718758000000001
   149   8      4.7591729999999997      7.8528399999999996      9.6494409999999995
   150   1      5.4620860000000002      7.2306749999999997      9.4480730000000008
   151   1      3.9677060000000002      7.4421799999999996      9.2922550000000008
   152   8                7.976153      16.605681000000001      12.553608000000001
   153   1      8.6452390000000001      17.134575000000002               12.112791
   154   1      7.8372820000000001      17.049192000000001      13.394235999999999
   155   8               18.397931               13.599378      4.9952639999999997
   156   1      17.757525000000001      13.458417000000001      4.2940240000000003
   157   1      18.494889000000001               14.553906      5.0412759999999999
   158   8      4.8028729999999999      13.134881999999999      17.159548999999998
   159   1      5.2456690000000004               12.287613      17.071280000000002
   160   1      4.0417870000000002      13.067947999999999      16.577387999999999
   161   8      7.9402270000000001      4.7035859999999996               11.025651
   162   1                7.936903      4.0291110000000003      11.708876999999999
   163   1      8.1933360000000004      4.2331050000000001               10.227387
   164   8               15.426313      20.611599999999999               18.867891
   165   1      15.932079999999999      19.817444999999999      19.055623000000001
   166   1               14.572177      20.286093000000001      18.572697000000002
   167   8      3.2875070000000002               11.345046      17.726289000000001
   168   1      2.5798329999999998                10.83531      17.324926999999999
   169   1      3.8851529999999999      10.683253000000001      18.083348000000001
   170   8      9.8102850000000004      9.5456219999999998      16.475390999999998
   171   1      9.0868439999999993                9.327534      17.067672000000002
   172   1      9.4108099999999997      10.110262000000001               15.808876
   173   8      21.429030000000001               13.534385      6.5073730000000003
   174   1      21.284846999999999      14.447744999999999      6.7656549999999998
   175   1      21.624752999999998               13.580268      5.5681019999999997
   176   8      16.245287999999999                14.70387      3.8354970000000002
   177   1               15.461506               14.223455      4.1122870000000002
   178   1               16.285117               14.568002                2.885446
   179   8      8.3573629999999994     0.95537899999999998               10.692954
   180   1      9.2125590000000006     0.62059799999999998               10.413155
   181   1      8.5663090000000004                1.621453               11.352748
   182   8      10.371513999999999      2.9019189999999999      8.5666419999999999
   183   1                9.992388      3.6951749999999999      8.9523010000000003
   184   1      10.316917999999999      3.0480459999999998      7.6188510000000003
   185   8               10.374582      18.601565999999998      8.0448459999999997
   186   1      9.6302050000000001      18.413081999999999      8.6211289999999998
   187   1      10.719175999999999      19.438497999999999      8.3664690000000004
   188   8      19.158701000000001      22.021163999999999      20.071525999999999
   189   1               18.878408      22.669011000000001      20.722259999999999
   190   1      18.531980000000001               21.299681      20.168088000000001
   191   8      4.9652240000000001      10.718871999999999      4.7533409999999998
   192   1                5.611529               11.245054      4.2767400000000002
   193   1      5.4002189999999999      9.8734739999999999      4.8901750000000002
   194   8      17.546326000000001      6.1745950000000001               21.416864
   195   1      17.065266000000001      5.6326470000000004      20.787102999999998
   196   1      18.124700000000001      5.5563310000000001      21.870598000000001
   197   8      8.6054410000000008     0.70670900000000003      21.411041999999998
   198   1      9.3097539999999999    0.088192999999999994               21.618665
   199   1      7.8414640000000002                0.365118      21.882525000000001
   200   8      17.354925000000001      19.627490999999999      14.785539999999999
   201   1               17.208852      20.575997000000001               14.758633
   202   1               17.078319               19.368596      15.668208999999999
   203   8               21.346816      4.3564129999999999     0.28337400000000001
   204   1      21.256983999999999                5.311585     0.31947599999999998
   205   1      20.584050999999999      4.0268110000000004     0.76523799999999997
   206   8      12.252470000000001      15.611630999999999      8.5655660000000005
   207   1               13.204482      15.563103999999999      8.4513630000000006
   208   1      12.124041999999999      16.324421000000001      9.1965009999999996
   209   8      6.3235419999999998      22.700963000000002      1.2840130000000001
   210   1      5.7911720000000004      22.999904000000001     0.54310800000000004
   211   1      5.6897130000000002      22.561565000000002      1.9921599999999999
   212   8                11.45065      20.416900999999999               16.519451
   213   1               11.025252               20.915633      17.220897999999998
   214   1               11.642312      21.071971999999999               15.843589
   215   8      8.4983500000000003               14.901875      5.8875109999999999
   216   1      8.2606830000000002               15.624155      5.3013789999999998
   217   1      8.0013079999999999               15.073674                  6.6913
   218   8      2.4425140000000001      22.991696999999998      1.9798610000000001
   219   1                2.433986      22.072762999999998                1.701991
   220   1      2.9348239999999999      22.986834999999999      2.8046329999999999
   221   8      11.881880000000001      6.8381689999999997                 6.23034
   222   1               10.966602      7.0778439999999998      6.3932760000000002
   223   1      12.385721999999999      7.5925919999999998      6.5459839999999998
   224   8               15.457872      6.8996000000000004               14.989411
   225   1               14.633177      7.2586209999999998      14.653691999999999
   226   1      15.196350000000001      6.3688099999999999               15.746055
   227   8      9.4271370000000001      22.286774999999999      2.2069540000000001
   228   1      9.0644620000000007      21.446446000000002      2.4968490000000001
   229   1      9.5776400000000006               22.169463                1.265557
   230   8      17.080621000000001      4.2854419999999998               16.460708
   231   1      16.249255000000002      4.5158399999999999      16.881983000000002
   232   1               17.084947      4.7956139999999996                15.64686
   233   8      9.0228800000000007      8.9324720000000006      2.0067940000000002
   234   1      8.2019579999999994      8.4610810000000001      1.8467849999999999
   235   1      8.8743770000000008      9.3955129999999993      2.8351549999999999
   236   8      1.2727440000000001               12.572089      18.454882000000001
   237   1                1.666291      12.906535999999999               17.645567
   238   1                1.398482      13.280271000000001      19.091522000000001
   239   8               10.977796               10.409094               12.760223
   240   1               10.392118      9.7473200000000002               13.135405
   241   1      10.409546000000001               10.936304               12.192962
   242   8      13.373780999999999      16.026927000000001      1.2251860000000001
   243   1               13.454326               16.719987      1.8846590000000001
   244   1      14.241415999999999      15.615304999999999      1.2046939999999999
   245   8      16.205446999999999      22.304691999999999      20.043977999999999
   246   1               16.264018               22.999772               20.703643
   247   1               16.532342      22.712606000000001               19.238132
   248   8                1.053461      11.672427000000001      4.0228789999999996
   249   1                1.732008      11.208508999999999                3.526815
   250   1     0.31986500000000001      11.750602000000001      3.4077630000000001
   251   8      4.1197330000000001      4.9797659999999997      6.5086209999999998
   252   1      4.5786210000000001                4.138598      6.5684889999999996
   253   1      4.3728239999999996      5.4469219999999998      7.3088410000000001
   254   8      22.973915999999999      1.4380850000000001               14.038779
   255   1               22.880848      1.1011740000000001      14.932956000000001
   256   1      22.728394999999999     0.69769499999999995               13.478258
   257   8      20.288346000000001               19.542838      20.074093999999999
   258   1               20.615942               18.670299      19.843699000000001
   259   1      20.697365999999999      19.734940000000002      20.921703000000001
   260   8               10.842309               13.788886               15.842122
   261   1               10.886243               13.070162      16.477126999999999
   262   1      9.9206819999999993      13.812868999999999      15.572547999999999
   263   8                1.873062               13.865907               14.708613
   264   1      2.1860590000000002               14.720074      15.015465000000001
   265   1      2.5063149999999998               13.608259                14.03389
   266   8               16.978534      11.287419999999999      21.821982999999999
   267   1      16.154510999999999      11.764849999999999      21.943522999999999
   268   1      17.554683000000001               11.626823      22.511548999999999
   269   8     0.47626400000000002               16.708921      9.5923660000000002
   270   1    0.034623000000000001      16.243524000000001      10.306566999999999
   271   1     0.86695299999999997      17.478114000000001      10.014677000000001
   272   8      15.266795999999999      15.584899999999999      10.490944000000001
   273   1      14.829461999999999      14.764756999999999      10.731419000000001
   274   1               14.845521                15.84754      9.6686359999999993
   275   8      11.879865000000001      5.3591939999999996                3.428369
   276   1      10.995010000000001      5.5230379999999997                3.093836
   277   1      11.949177000000001      5.9209500000000004      4.2044290000000002
   278   8      4.7380990000000001               11.222158      8.1337849999999996
   279   1                5.642722               11.201245      7.8129330000000001
   280   1      4.7732390000000002      11.787630999999999      8.9094440000000006
   281   8                1.944148      8.8774510000000006                0.121088
   282   1      1.3339399999999999      9.6087030000000002  8.7999999999999998e-05
   283   1      2.8130739999999999      9.2706219999999995                 0.00696
   284   8                 21.6188      5.2538200000000002      14.610232999999999
   285   1      22.233481000000001      4.9828400000000004               15.296135
   286   1      21.003094000000001      4.5200719999999999               14.538389
   287   8      1.6432629999999999      7.9557010000000004      9.5791839999999997
   288   1      2.2274099999999999      8.6490220000000004      9.8950999999999993
   289   1      1.8991899999999999      7.8277159999999997      8.6622520000000005
   290   8               19.361946      20.180441999999999                3.176031
   291   1               18.510427      19.859394999999999      2.8701400000000001
   292   1               19.657449      19.513884999999998      3.8013479999999999
   293   8      3.1774330000000002      9.3062660000000008               15.760119
   294   1      2.9349440000000002      8.3774999999999995               15.742293
   295   1                3.850355      9.3900970000000008      15.079833000000001
   296   8      9.1887310000000006      12.599733000000001                7.356776
   297   1      9.0722109999999994      13.515243999999999      7.6213290000000002
   298   1      9.8335810000000006      12.637204000000001      6.6458560000000002
   299   8      8.9049969999999998               13.373623      4.2289849999999998
   300   1      8.8044440000000002               12.418989      4.2119989999999996
   301   1      9.6030569999999997               13.528471      4.8703719999999997
   302   8                0.029904      15.009671000000001               13.007792
   303   1     0.84002200000000005               14.512259               12.873574
   304   1     0.19140599999999999               15.517213      13.807142000000001
   305   8      22.844252000000001      7.1554820000000001     0.38114300000000001
   306   1      22.956133000000001      8.0730430000000002                0.121739
   307   1      22.157125000000001      7.1794229999999999      1.0519080000000001
   308   8               19.379828      6.2716120000000002      7.5487010000000003
   309   1      19.760186999999998      5.5946579999999999      6.9840910000000003
   310   1               18.708147                6.687843      7.0025890000000004
   311   8 -0.00043199999999999998               20.915543      3.9297650000000002
   312   1     0.40643099999999999      21.252099000000001      4.7315860000000001
   313   1                0.317799      21.500299999999999      3.2373560000000001
   314   8               14.665143      1.5569900000000001               14.261873
   315   1      15.067194000000001                2.035523      14.990629999999999
   316   1               13.814812                1.270734      14.604855000000001
   317   8               22.394631                2.221206      2.2071149999999999
   318   1      22.827964000000001                1.796659      2.9512299999999998
   319   1      21.713885000000001                1.598206      1.9404729999999999
   320   8      5.8125119999999999      11.401844000000001               14.747344
   321   1      6.3584110000000003               10.728792      14.334160000000001
   322   1      4.9978199999999999               11.393504               14.238571
   323   8      2.3650669999999998      10.287273000000001      19.625257999999999
   324   1      2.7183760000000001               10.963426               20.208109
   325   1                2.110903      9.5730609999999992      20.215126000000001
   326   8                4.456061      8.5903790000000004                1.586106
   327   1      5.3198689999999997      8.5027690000000007                1.995844
   328   1      4.2383430000000004                9.520645                1.685335
   329   8      19.385816999999999      20.812014999999999      14.546215999999999
   330   1      19.538817999999999      19.942565999999999      14.923539999999999
   331   1      19.767144999999999      21.419619999999998               15.185001
   332   8               18.931286               11.332115               14.420798
   333   1      19.131931999999999                 12.2439               14.644662
   334   1               19.414883               11.174706               13.605938
   335   8      7.9254030000000002      9.2161170000000006      12.996480999999999
   336   1      7.3492240000000004      8.9789220000000007      12.266083999999999
   337   1      7.7037779999999998      8.5880969999999994               13.688663
   338   8               21.717834      5.7970439999999996                8.876398
   339   1      22.272521999999999      5.9551489999999996      9.6438919999999992
   340   1               20.823566                5.785552      9.2268209999999993
   341   8      17.331630000000001               10.835587      12.562151999999999
   342   1               17.413867               11.751814               12.836907
   343   1      17.244174999999998               10.346994               13.384509
   344   8      2.6018919999999999                16.26145      12.630174999999999
   345   1                3.498624      16.571930999999999               12.484581
   346   1      2.4660229999999999      16.360085000000002                13.57593
   347   8               12.772437      5.3918309999999998               21.581332
   348   1               12.026691      5.1720629999999996               22.144617
   349   1               13.361511      4.6372609999999996      21.660440999999999
   350   8               14.703911      5.0430729999999997               19.189221
   351   1      13.872574999999999      4.6747870000000002               19.497394
   352   1               14.461954      5.5699829999999997      18.423411000000002
   353   8      18.662462000000001      22.118701999999999               11.365971
   354   1      18.968012000000002      21.325127999999999      11.811621000000001
   355   1      19.460519000000001               22.509784      11.001552999999999
   356   8      11.563387000000001                10.37594      2.5860050000000001
   357   1               10.684972               10.479034      2.2125309999999998
   358   1      11.457865999999999      9.7003690000000002      3.2606250000000001
   359   8               13.419551               17.690631      6.9147489999999996
   360   1               12.885909      16.924520999999999      6.6910819999999998
   361   1               14.117346               17.340076      7.4740650000000004
   362   8      1.3469640000000001      16.430817999999999               17.626303
   363   1      1.4180680000000001               15.981258      16.780982999999999
   364   1     0.83169899999999997      17.218526000000001      17.434837000000002
   365   8      18.908892999999999      17.018097000000001      4.6247699999999998
   366   1      19.252424999999999               17.845347      4.9702659999999996
   367   1               19.421858               16.861141      3.8279809999999999
   368   8      16.012626999999998                1.233306      6.7790080000000001
   369   1      16.668555999999999      1.5239940000000001      6.1410559999999998
   370   1                15.17611      1.3116989999999999      6.3134579999999998
   371   8      6.5229749999999997                2.530897     0.94845400000000002
   372   1      6.8551529999999996                1.699144                1.294243
   373   1      6.0042350000000004      2.2795109999999998     0.18010799999999999
   374   8      4.0870699999999998      8.7681889999999996               21.022357
   375   1      3.8668429999999998      7.9228810000000003      21.420701999999999
   376   1      5.0474050000000004      8.7820090000000004      21.007957999999999
   377   8      10.455030000000001      8.6257870000000008               21.892633
   378   1      10.917439999999999      9.4120179999999998      21.593063999999998
   379   1      9.5297520000000002      8.8833900000000003               21.904605
   380   8      22.249210000000001      15.227567000000001      17.842773000000001
   381   1      22.191075000000001      15.461736999999999      18.772024999999999
   382   1      21.984000999999999               16.025668      17.378723999999998
   383   8      9.0202460000000002      20.099481999999998      21.329066000000001
   384   1      9.7171009999999995      20.696591000000002      21.046969000000001
   385   1      9.0901119999999995      20.087140000000002      22.286985000000001
   386   8      1.3373379999999999                22.56718               20.965398
   387   1                1.211044      22.987369000000001      20.111457000000001
   388   1                0.699075               22.997767      21.539729999999999
   389   8               12.623571      15.553826000000001               15.047072
   390   1               13.538313                15.84501               15.060687
   391   1                12.60013      14.872998000000001      14.369897999999999
   392   8      21.462572000000002      9.9352999999999998      19.762074999999999
   393   1      21.289273000000001      8.9917099999999994      19.798559000000001
   394   1      20.722629999999999               10.294613      19.266069000000002
   395   8      16.817337999999999      20.739367999999999               22.669376
   396   1      16.971948999999999      20.131633000000001      21.942412000000001
   397   1               16.320425      21.460843000000001                22.27543
   398   8      3.1386029999999998      21.481718999999998               21.389391
   399   1      3.3017949999999998      20.958663000000001               20.601035
   400   1      4.0144320000000002      21.671424999999999      21.735188000000001
   401   8     0.63738099999999998      18.966940999999998               14.927215
   402   1     0.36707400000000001               18.388918               14.209894
   403   1   0.0066169999999999996      18.787085999999999               15.628949
   404   8               19.829449     0.60675199999999996      22.827141000000001
   405   1      19.833808999999999      1.4339850000000001      22.339912000000002
   406   1      20.739826999999998     0.30277900000000002               22.789009
   407   8      4.4921660000000001               14.258284      13.308809999999999
   408   1      4.3936780000000004               14.733984               14.136901
   409   1      5.3260430000000003      13.790400999999999      13.400334000000001
   410   8      9.4781289999999991      17.411166999999999      2.1432250000000002
   411   1      9.1787069999999993      17.118559999999999                 1.27925
   412   1      9.5335359999999998               18.366937      2.0652759999999999
   413   8      1.0952839999999999      3.8307799999999999      2.2056339999999999
   414   1      1.4348479999999999                3.003714      2.5554679999999999
   415   1     0.93013400000000002      3.6471170000000002                 1.27739
   416   8      18.525863000000001               14.896129                1.629162
   417   1      18.989350999999999               14.182779      1.1841489999999999
   418   1      19.171364000000001               15.605743      1.6783459999999999
   419   8               21.846715               10.864341     0.76622800000000002
   420   1      21.517887999999999      11.292234000000001      1.5602720000000001
   421   1               22.456882               10.196994      1.0902449999999999
   422   8      1.1957059999999999      14.215719999999999      8.9471489999999996
   423   1      1.9945520000000001      13.918278000000001      8.5054499999999997
   424   1                1.511539               14.654712      9.7409859999999995
   425   8                7.962961      17.421147999999999      6.9607590000000004
   426   1      7.8641839999999998      18.371355999999999                7.056012
   427   1      8.8837799999999998      17.300560000000001      6.7154179999999997
   428   8      4.3737310000000003      14.168424999999999      7.1307109999999998
   429   1                3.919562               13.576589      6.5264049999999996
   430   1                3.916093               14.052272      7.9672029999999996
   431   8      21.527273999999998                1.496837      19.917010000000001
   432   1      21.915316000000001     0.66064199999999995      20.185203000000001
   433   1      20.895444999999999      1.2583120000000001      19.233972000000001
   434   8                8.265136                 20.5839      19.298317000000001
   435   1      7.5332889999999999               21.145854               19.033113
   436   1      9.0483790000000006      21.065163999999999      19.019825999999998
   437   8     0.45934000000000003      5.7565439999999999      2.5813890000000002
   438   1                0.001199      6.5728140000000002                2.794778
   439   1                1.129095      6.0184790000000001                1.944631
   440   8   0.0060540000000000004                2.971676      18.769224999999999
   441   1    0.064660999999999996      3.8018869999999998      19.247806000000001
   442   1     0.76082700000000003      2.9850590000000001      18.175270999999999
   443   8                14.87678      2.7082679999999999                2.706477
   444   1      14.122761000000001      3.2560639999999998                2.936912
   445   1               15.541957      3.3325230000000001      2.4056660000000001
   446   8                5.722194      17.916167000000002      17.686388999999998
   447   1      4.9106319999999997      18.031527000000001      17.186606000000001
   448   1                6.246766      17.313313000000001      17.153441000000001
   449   8               13.914966               10.239556      17.709966000000001
   450   1               13.366263               10.445205      18.470465000000001
   451   1               13.502402               10.713155      16.983235000000001
   452   8      16.129781000000001      14.271395999999999      6.4798080000000002
   453   1      16.278711000000001               13.406927      6.0896319999999999
   454   1      16.702812000000002               14.859741      5.9816859999999998
   455   8               13.467839               18.684116     0.43157899999999999
   456   1               12.663999      19.137319000000002     0.16667699999999999
   457   1               13.411954               17.827731  0.00015799999999999999
   458   8               15.483907      14.825502999999999               14.106989
   459   1               15.498612      14.814628000000001      15.066879999999999
   460   1      16.402449000000001               14.705283      13.853082000000001
   461   8               14.438069      20.380748000000001      8.7551900000000007
   462   1      13.946210000000001      19.579592000000002      8.9499929999999992
   463   1      14.457712000000001               20.421108      7.7956960000000004
   464   8      1.0188459999999999      9.1892309999999995      14.102722999999999
   465   1                1.738972      9.7847000000000008      13.882357000000001
   466   1     0.23664099999999999      9.6196439999999992               13.748405
   467   8      11.590134000000001      14.473948999999999                3.798324
   468   1               12.153829               15.203037      4.0674029999999997
   469   1      10.719200000000001      14.868017999999999      3.7043780000000002
   470   8                5.889659               22.214737                9.015136
   471   1      5.3492569999999997      22.769756999999998      8.4480000000000004
   472   1      6.1847450000000004      21.503226999999999      8.4412719999999997
   473   8      7.4029910000000001      5.8100709999999998               14.271867
   474   1                 6.79854      6.1361429999999997      13.601017000000001
   475   1      6.8844349999999999      5.8102559999999999      15.080410000000001
   476   8                5.272653      19.976797999999999      10.581054999999999
   477   1      4.9922870000000001      20.305904000000002      9.7238450000000007
   478   1      5.0865770000000001               20.699109      11.186268999999999
   479   8     0.56233299999999997      3.7968769999999998               12.084621
   480   1     0.92842499999999994      4.6253929999999999      11.766400000000001
   481   1                0.169957      4.0196589999999999      12.932589999999999
   482   8      7.2671429999999999      15.821718000000001      15.185354999999999
   483   1                6.591958               15.589342               14.543597
   484   1                7.066065      16.729963999999999      15.424727000000001
   485   8               13.673532               17.511581      18.491147999999999
   486   1      12.920313999999999      18.058555999999999      18.726103999999999
   487   1      14.432714000000001                18.08832      18.608015000000002
   488   8     0.67563700000000004      13.288607000000001               11.142419
   489   1                1.010262               12.824232      10.371634999999999
   490   1 -0.00013100000000000001      13.874904000000001               10.792799
   491   8                4.966539               17.274697      8.8344459999999998
   492   1      5.4332399999999996                16.70966      9.4546460000000003
   493   1      4.8498099999999997      18.102540000000001      9.3074080000000006
   494   8               13.205252               15.773387               11.850911
   495   1      12.946771999999999      16.216124000000001      11.039186000000001
   496   1      12.396864000000001      15.732633999999999               12.368105
   497   8      18.382498999999999      7.4123679999999998      17.083621999999998
   498   1               17.636015      7.1218170000000001      16.554407999999999
   499   1                19.15258      7.1678649999999999      16.564164999999999
   500   8                4.101909      3.9633970000000001      16.127113000000001
   501   1      4.5791399999999998      3.1318269999999999      16.176777000000001
   502   1                3.469881      3.8334589999999999      15.415566999999999
   503   8      4.2358099999999999                15.95251      18.378921999999999
   504   1      4.5892189999999999               15.059948      18.366219000000001
   505   1      3.2828979999999999               15.831688      18.377503000000001
   506   8      18.541274999999999      3.9739939999999998      8.7428699999999999
   507   1               18.304503      4.2328279999999996      7.8491869999999997
   508   1                18.76117      3.0417459999999998      8.6707490000000007
   509   8      5.6629199999999997      21.300387000000001      17.861495999999999
   510   1      4.8708150000000003      20.776385000000001               18.001908
   511   1      5.3783960000000004               22.012255      17.282762999999999
   512   8                11.59981     0.94550299999999998      5.0922830000000001
   513   1      11.007116999999999     0.59473100000000001      5.7611619999999997
   514   1      11.030106999999999      1.4604200000000001      4.5152729999999996
   515   8      19.698799999999999      3.7110059999999998      21.406099000000001
   516   1      18.776199999999999      3.4570859999999999               21.328253
   517   1      19.903753999999999                4.125877      20.564364000000001
   518   8      15.710406000000001               22.395073      9.4578509999999998
   519   1      16.255531000000001      22.146691000000001      8.7076049999999992
   520   1      15.058045999999999      22.996449999999999      9.0898649999999996
   521   8      16.077832999999998      4.4960250000000004      7.6834449999999999
   522   1      15.171970999999999      4.7794720000000002                7.539231
   523   1               16.320964      4.0505300000000002      6.8679309999999996
   524   8               15.628484               10.411215                16.16206
   525   1               16.279086               11.042978               15.846912
   526   1                15.44847      9.8543240000000001               15.400411
   527   8      7.3370959999999998      11.379977999999999      10.603249999999999
   528   1      7.6093229999999998               11.139493      9.7145519999999994
   529   1      6.9486809999999997      10.576807000000001               10.959189
   530   8      4.7726670000000002                11.39335      20.882542999999998
   531   1      4.8758590000000002               12.086473               21.538788
   532   1      5.6426629999999998      10.990729999999999      20.822168999999999
   533   8      8.3970249999999993                2.354781      5.8350580000000001
   534   1                8.993112      1.6022179999999999      5.8275680000000003
   535   1                7.813015      2.2038129999999998      5.0875409999999999
   536   8      11.716139999999999      7.3252509999999997     0.68309299999999995
   537   1               11.681994      8.2504939999999998                0.937029
   538   1               12.395579      7.2890009999999998   0.0050889999999999998
   539   8      16.185617000000001               13.912309     0.11004700000000001
   540   1               15.955385      14.843897999999999                0.139381
   541   1               15.695532      13.522536000000001                0.838426
   542   8                1.384687      22.993919999999999      4.6374459999999997
   543   1                2.332694      22.996279999999999      4.7891089999999998
   544   1      1.0022660000000001      22.991506999999999      5.5185760000000004
   545   8      2.2901400000000001      7.6883910000000002                11.87006
   546   1      1.7146490000000001      8.3947059999999993               12.172803
   547   1      3.1615090000000001      8.0907370000000007               11.831652
   548   8      5.2340499999999999      8.7852379999999997               13.479949
   549   1      4.7151139999999998      9.4358249999999995      13.001234999999999
   550   1      4.9029360000000004      7.9394150000000003               13.167557
   551   8               11.729625      15.005853999999999      17.969532999999998
   552   1      10.804474000000001      14.750099000000001      17.989761000000001
   553   1               11.840106                15.43379      17.116710000000001
   554   8      1.4854970000000001      4.1015709999999999      9.0832359999999994
   555   1                0.549709      3.9047670000000001      9.1686359999999993
   556   1                 1.84616      3.3456869999999999                8.612914
   557   8      9.5377170000000007      8.0809739999999994               14.823679
   558   1      8.8311740000000007      7.8690850000000001               15.438191
   559   1      10.329515000000001                7.733053      15.241587000000001
   560   8                3.105823      7.7994880000000002      4.2912290000000004
   561   1      2.4442900000000001      8.1052619999999997      3.6662469999999998
   562   1      3.1727099999999999      8.5098920000000007      4.9342639999999998
   563   8      7.1939869999999999      16.255614999999999      19.316289999999999
   564   1      7.8726060000000002               16.777524      19.750814999999999
   565   1      6.8351639999999998               15.702199               20.014588
   566   8                3.672409      4.6869959999999997                18.36232
   567   1      2.9325299999999999      4.1845100000000004      18.013304999999999
   568   1      4.0747439999999999      4.1012500000000003      19.008593000000001
   569   8      1.9503760000000001      19.017962000000001      9.1032320000000002
   570   1      2.5986919999999998      19.642265999999999      8.7690819999999992
   571   1                1.444197      19.521052000000001      9.7461369999999992
   572   8      21.859784000000001               19.954203               10.202738
   573   1      21.058312999999998               19.644565      9.7743769999999994
   574   1      22.458887000000001               19.204729                10.15794
   575   8      13.843097999999999               12.944666      8.1863919999999997
   576   1               14.550125               13.557371      7.9709139999999996
   577   1               13.404963               13.342686      8.9428699999999992
   578   8      5.7038779999999996      6.5505209999999998      3.9263620000000001
   579   1      5.1709750000000003      7.3465870000000004      3.8629799999999999
   580   1                5.574433      6.2481720000000003                4.828843
   581   8      19.024135999999999      9.9808000000000003      22.055099999999999
   582   1      19.841149000000001                10.13644      21.575527000000001
   583   1      19.274906000000001                10.04407      22.980170000000001
   584   8      15.733359999999999      22.928087000000001               16.534347
   585   1               15.513225               22.304789      17.230598000000001
   586   1      14.929735000000001               22.996413               16.012656
   587   8      9.8633520000000008      1.8770530000000001                1.036519
   588   1      9.0168569999999999      1.5049680000000001     0.77820900000000004
   589   1      10.288574000000001      1.1767719999999999                1.537952
   590   8     0.44971699999999998      19.871106999999999     0.87595400000000001
   591   1                1.061409      20.587375999999999                1.061739
   592   1  0.00092599999999999996      19.718112999999999                1.711311
   593   8      5.0478149999999999      7.6357989999999996                15.65466
   594   1      5.9856290000000003      7.8060270000000003      15.539540000000001
   595   1      4.9084440000000003      6.7797450000000001                15.24188
   596   8      22.967089999999999      7.8844979999999998      7.8693439999999999
   597   1      22.122246000000001      7.6578920000000004      8.2650880000000004
   598   1      22.998100999999998      8.8438230000000004      7.9064360000000002
   599   8               11.513228                2.775566      10.969378000000001
   600   1      10.612507000000001      2.5497399999999999               10.725597
   601   1      11.416472000000001      3.4902090000000001               11.603859
   602   8      2.9831120000000002     0.91928699999999997               11.423028
   603   1      2.1148150000000001     0.86320699999999995      11.017269000000001
   604   1      3.5690140000000001                1.158261               10.700358
   605   8      17.420252999999999               15.107495      19.964003000000002
   606   1      17.995850999999998               14.379553      20.209993000000001
   607   1      17.984743999999999               15.697286               19.457901
   608   8               18.800891      2.0582280000000002      3.4169649999999998
   609   1      19.091277999999999      2.8633730000000002      3.8518699999999999
   610   1      19.455224999999999                1.909127      2.7297549999999999
   611   8               16.619087      7.3306339999999999               19.065331
   612   1               17.149877      6.5768240000000002      18.797454999999999
   613   1      17.100024000000001      7.7100309999999999      19.805195999999999
   614   8      19.518021999999998               12.615349      17.765170000000001
   615   1      18.880936999999999               12.838511      17.082494000000001
   616   1      18.990238000000002      12.220819000000001      18.464048999999999
   617   8      16.639437999999998      6.8152559999999998      6.2929849999999998
   618   1      16.413474999999998      6.0124560000000002      5.8174039999999998
   619   1      16.436001999999998      6.6144129999999999      7.2100010000000001
   620   8      18.679054000000001      11.963782999999999                1.376722
   621   1      19.634948999999999               11.943864                1.289587
   622   1      18.525497999999999      11.940245000000001      2.3246190000000002
   623   8      21.158899999999999      4.8405740000000002      12.367444000000001
   624   1               20.258281      4.6492800000000001      12.095383999999999
   625   1      21.527301999999999      5.3427540000000002               11.636187
   626   8                5.251017      5.6703549999999998      20.700617999999999
   627   1      5.3964869999999996      6.1954820000000002      21.491064000000001
   628   1      5.1554270000000004      6.3183990000000003               19.998092
   629   8               14.113552               12.303433      3.2309139999999998
   630   1               14.829962               12.618007                2.674563
   631   1      13.664357000000001      13.103139000000001                3.516108
   632   8      12.406294000000001               11.661267               11.558983
   633   1               12.991063               12.224976      11.047121000000001
   634   1               12.391486               10.831458               11.075414
   635   8      16.549686999999999      9.7994479999999999      6.2402730000000002
   636   1      16.734082000000001      9.0673180000000002      6.8333219999999999
   637   1               16.108573      9.3932029999999997      5.4899230000000001
   638   8                3.469503      8.3267249999999997      18.549890999999999
   639   1      2.5789900000000001      8.4688370000000006      18.220473999999999
   640   1      3.4355509999999998      7.4600720000000003      18.962689000000001
   641   8               18.706035                2.018516               11.519971
   642   1      19.159126000000001                1.674005               10.746831
   643   1      19.360731999999999      2.5721029999999998      11.953048000000001
   644   8      14.314610999999999      5.1223479999999997      5.1437460000000002
   645   1               14.940811      4.9469409999999998      4.4374659999999997
   646   1      13.635638999999999                4.452108      5.0323190000000002
   647   8      9.4901610000000005      10.418333000000001      5.6512520000000004
   648   1      10.272278999999999               10.150971      5.1628530000000001
   649   1      9.7826120000000003                10.46044      6.5652220000000003
   650   8      20.825264000000001      22.458417000000001                9.056991
   651   1               20.168384      21.830448000000001      8.7473290000000006
   652   1      21.240441000000001               22.020211      9.8041499999999999
   653   8      2.3358750000000001      17.889721000000002               19.641613
   654   1                1.473757      18.266110999999999      19.449756000000001
   655   1      2.1678459999999999      17.253239000000001      20.341111999999999
   656   8      21.350052999999999      3.4310969999999998               10.190531
   657   1      20.462223000000002      3.7807010000000001      10.084417999999999
   658   1               21.319678      2.9516559999999998      11.022309999999999
   659   8      16.776941000000001      3.7349130000000001      4.4541019999999998
   660   1               17.554167      4.0294049999999997      4.9346430000000003
   661   1      16.902335000000001      2.7877190000000001      4.3554050000000002
   662   8      6.0620200000000004      4.7188790000000003      17.031507999999999
   663   1      6.0439179999999997      4.4718580000000001               17.959073
   664   1      5.8764609999999999      5.6613280000000001      17.032087000000001
   665   8               11.634349                3.446955      1.3758010000000001
   666   1               12.476013                2.985611      1.3979010000000001
   667   1                11.37106                3.506955      2.2976040000000002
   668   8      8.0176990000000004      9.0929409999999997      8.8507409999999993
   669   1      8.7335379999999994      9.0202650000000002      8.2151169999999993
   670   1      7.2252229999999997      8.9116649999999993      8.3391149999999996
   671   8      7.8035310000000004               13.681403               18.835998
   672   1      7.2814839999999998               12.885354      18.960487000000001
   673   1      7.2831429999999999      14.215552000000001      18.230585000000001
   674   8      15.444145000000001      8.3575040000000005      17.105028999999998
   675   1               15.736376      8.9439670000000007               17.806732
   676   1      14.994158000000001      7.6432010000000004               17.563205
   677   8               14.352541      8.2198609999999999                7.930523
   678   1      14.419517000000001      8.9139160000000004      7.2705780000000004
   679   1               14.394041                7.404636      7.4242340000000002
   680   8      8.3779990000000009               22.193431               15.110979
   681   1      7.9427659999999998      22.995104000000001               14.811619
   682   1      8.8871640000000003               21.900523                14.35098
   683   8      17.050543999999999               20.099176               11.188533
   684   1               16.207193               19.667244      11.033874000000001
   685   1               17.149013      20.702245000000001               10.447417
   686   8      19.222474999999999      7.3254270000000004      20.431854000000001
   687   1      19.527245000000001      6.4208879999999997      20.328659999999999
   688   1      19.300343000000002      7.7050020000000004      19.552932999999999
   689   8     0.53716299999999995                0.236037     0.88814899999999997
   690   1     0.43319999999999997                1.177651     0.73233099999999995
   691   1     0.19359100000000001     0.10176300000000001                1.775037
   692   8      20.466626000000002      7.1726799999999997      4.5772360000000001
   693   1      19.790693000000001                6.708933      5.0770150000000003
   694   1      19.974813000000001      7.6933049999999996      3.9371480000000001
   695   8      20.258013999999999                19.74427      7.1413549999999999
   696   1      19.484352999999999      19.245601000000001                7.414307
   697   1      20.981615999999999      19.115849000000001      7.2056129999999996
   698   8      3.2913800000000002      4.7237900000000002                3.893116
   699   1      4.1609619999999996      5.0147750000000002      3.6087220000000002
   700   1      3.0594030000000001      5.3258400000000004      4.6047089999999997
   701   8                9.504524      21.208407000000001      8.7431909999999995
   702   1      8.8453210000000002      21.844035000000002      9.0315539999999999
   703   1      10.005986999999999               21.674115      8.0691790000000001
   704   8      4.7718569999999998      15.288729999999999      16.231947000000002
   705   1      4.9124059999999998      16.121462999999999                 15.7753
   706   1      3.8237960000000002               15.256641      16.382915000000001
   707   8               12.487119                2.900274      6.8089240000000002
   708   1               11.979967      3.4502060000000001                6.207179
   709   1               13.297893      2.7086109999999999                6.330851
   710   8      9.7502030000000008      19.158854999999999               15.881672
   711   1      9.1590579999999999      19.430292000000001      16.587783999999999
   712   1      9.1641169999999992      18.861996000000001               15.180944
   713   8      14.885737000000001      14.823537999999999      18.218450000000001
   714   1               15.388683               15.557617               18.578865
   715   1      15.439671000000001               14.478138               17.513824
   716   8      8.3701480000000004      22.898136000000001      17.999258000000001
   717   1      7.4266040000000002                      23      17.854092999999999
   718   1      8.7573899999999991               22.992414      17.125302999999999
   719   8      8.1048489999999997               10.079601      19.406801999999999
   720   1      8.2144119999999994               11.007716      19.626626999999999
   721   1      7.9842430000000002      9.6461889999999997      20.255476999999999
   722   8      20.940829999999998      9.7936840000000007      11.572336999999999
   723   1      20.340752999999999               10.542674      11.597761999999999
   724   1               21.027255      9.5261239999999994      12.490805999999999
   725   8      19.771902999999998      17.172308999999998      9.8831889999999998
   726   1      20.590593999999999      16.683952999999999      9.9971160000000001
   727   1               19.561722      17.071311999999999      8.9513820000000006
   728   8                7.745495      18.004757999999999      9.1858719999999998
   729   1      7.2568590000000004               18.825785      9.0916700000000006
   730   1      7.3638899999999996      17.587955000000001                9.962593
   731   8                12.19788      22.872668999999998      8.9932079999999992
   732   1      11.759683000000001                      23      8.1485210000000006
   733   1               11.502907      22.999998999999999      9.6439310000000003
   734   8      15.307494999999999      19.448917000000002      5.7895839999999996
   735   1               14.387134      19.649526000000002      5.6040679999999998
   736   1               15.272594      18.811229000000001      6.5070639999999997
   737   8      4.2624029999999999      9.9364570000000008               10.756605
   738   1                3.949506      9.8592519999999997      9.8522490000000005
   739   1                3.925592               10.785511               11.053772
   740   8      11.551641999999999      3.8878080000000002      17.285005999999999
   741   1               11.793144      3.5662579999999999      18.156790000000001
   742   1               12.084828      4.6778870000000001      17.166139999999999
   743   8               11.603512     0.81035000000000001               11.954157
   744   1               10.700796     0.55658600000000003                12.16015
   745   1                12.11774    0.015637999999999999               12.117388
   746   8      19.325969000000001      8.7333160000000003                 7.68262
   747   1               19.527255      9.2981619999999996      6.9328479999999999
   748   1      20.084226999999998                8.147551                7.750197
   749   8                14.03927                 12.0844     0.64330900000000002
   750   1               13.529239               11.538169      1.2459899999999999
   751   1      13.396561999999999      12.393791999999999                       0
   752   8      20.048535000000001               15.216173      16.705719999999999
   753   1      20.100618999999998      14.812792999999999               17.575374
   754   1      19.843678000000001               16.137857      16.882283999999999
   755   8      19.868960000000001      9.1811570000000007      14.827332999999999
   756   1      20.242266000000001                8.321726      15.036486999999999
   757   1               19.248621      9.0048159999999999      14.115486000000001
   758   8      4.9358120000000003      9.1541490000000003      7.7506259999999996
   759   1      5.1235679999999997                8.319153      7.3155929999999998
   760   1      3.9874610000000001      9.2679670000000005      7.6490539999999996
   761   8      4.3166589999999996      22.615152999999999               19.112862
   762   1      3.3826239999999999      22.519383999999999               19.313191
   763   1                4.758718               22.075934               19.773519
   764   8               16.488802      4.5249540000000001      10.654158000000001
   765   1               15.747009                5.092854      10.432893999999999
   766   1      16.643975999999999                4.013585      9.8559940000000008
   767   8               17.909996      4.8919059999999996     0.95685399999999998
   768   1      18.311941999999998      4.0260400000000001                1.059032
   769   1      18.642738999999999      5.5067649999999997      1.0444800000000001
   770   8      7.3531950000000004                 7.19231               21.357955
   771   1      6.9024460000000003      7.5235260000000004               20.577669
   772   1      8.2858110000000007      7.2409759999999999      21.133233000000001
   773   8  0.00056300000000000002      17.882681999999999      20.974339000000001
   774   1     0.38369999999999999      17.547329999999999               21.788262
   775   1                0.030931      17.135822000000001      20.371082000000001
   776   8               15.118053      8.0779270000000007                 2.36049
   777   1      15.705738999999999      8.7255719999999997      2.7566030000000001
   778   1      14.717235000000001      8.5408329999999992      1.6204190000000001
   779   8      21.021412999999999      1.7252780000000001                16.65925
   780   1      20.323384999999998      2.2683930000000001               17.032757
   781   1      20.989166999999998      1.9101999999999999      15.717226999999999
   782   8      11.959117000000001                  1.5645      19.968938000000001
   783   1      12.452446999999999      1.0627089999999999      19.315826000000001
   784   1               12.363654      2.4356019999999998      19.955719999999999
   785   8      15.158234999999999      2.1509450000000001                18.94144
   786   1      14.365634999999999                2.656765               18.747387
   787   1               14.837766      1.2616289999999999               19.111908
   788   8     0.51195100000000004      9.0838529999999995      17.657941000000001
   789   1                0.375141      9.9706270000000004      17.316413000000001
   790   1     0.54021300000000005      9.1972660000000008      18.611346000000001
   791   8               19.016016      20.629304000000001     0.86464799999999997
   792   1      18.867781999999998      21.358861999999998                0.258432
   793   1      18.722691999999999               19.853441     0.38025199999999998
   794   8                7.207649               11.803156      5.8306620000000002
   795   1      7.4210690000000001      11.706649000000001                6.761717
   796   1      7.6014439999999999               11.032135      5.4146159999999997
   797   8      18.139085000000001      20.944203999999999      16.804597999999999
   798   1               17.537647      21.673473000000001      16.636780999999999
   799   1               17.711783                20.43797      17.500143000000001
   800   8      10.981509000000001      15.324581999999999      1.6961470000000001
   801   1      11.605327000000001               15.895432                2.150798
   802   1      11.464135000000001               15.007515     0.92856499999999997
   803   8      21.704146999999999      12.501440000000001      9.4404179999999993
   804   1      21.340375999999999               11.922279               10.114189
   805   1      21.751307000000001               11.952064      8.6539040000000007
   806   8               21.116477      20.297008000000002      16.663243000000001
   807   1      20.283304999999999      20.063327999999998      17.079108000000002
   808   1      21.752393999999999      20.290368999999998      17.383109999999999
   809   8     0.77873099999999995      13.011787999999999               21.309089
   810   1                1.046408      12.136525000000001      21.019279999999998
   811   1   0.0026199999999999999      13.211323999999999      20.779485999999999
   812   8      8.6439280000000007      13.501860000000001               13.725647
   813   1      8.2943759999999997               13.938255                 12.9452
   814   1      7.9038750000000002      13.478873999999999               14.337558
   815   8     0.52719800000000006      11.939709000000001               15.929567
   816   1     0.31222299999999997                12.87523               15.911925
   817   1                 1.41476               11.892111                15.56541
   818   8      14.330341000000001      5.6867049999999999     0.38211400000000001
   819   1               14.649777      6.5436449999999997     0.67424200000000001
   820   1               15.103769      5.2598450000000003   0.0049649999999999998
   821   8      17.195402000000001               10.422259      19.280121000000001
   822   1               16.692477      11.145367999999999      18.898146000000001
   823   1               16.532211      9.8603939999999994      19.688932000000001
   824   8      12.500222000000001      8.8489360000000001      16.343990999999999
   825   1               12.220898      8.8710869999999993      17.262257000000002
   826   1      11.958816000000001      9.5157000000000007               15.913935
   827   8      7.0216710000000004               10.520443      2.4585699999999999
   828   1      6.7156330000000004      9.8331780000000002                3.055002
   829   1      6.2548570000000003               11.084828      2.3316460000000001
   830   8               14.646006      11.455310000000001      20.143792000000001
   831   1      14.263457000000001               11.991408      20.842348000000001
   832   1               14.615254                12.01901      19.366658000000001
   833   8      6.8658109999999999               15.029066      9.6982239999999997
   834   1      6.1417760000000001               14.410235      9.5776079999999997
   835   1                7.029147               15.023379      10.644761000000001
   836   8      9.0203609999999994      19.298705000000002      11.730615999999999
   837   1      8.3231649999999995      19.556906000000001               12.338049
   838   1      9.0842790000000004      20.033197999999999               11.114924
   839   8      22.155705000000001                1.054065               10.287302
   840   1      22.589449999999999                1.631677      9.6548820000000006
   841   1      22.638141999999998                1.192231                11.10633
   842   8      12.884404999999999      20.007311000000001      3.8015629999999998
   843   1      12.603797999999999               20.898453      3.5805400000000001
   844   1      12.414364000000001      19.803979999999999      4.6141880000000004
   845   8      7.2155279999999999      6.8105349999999998               11.197891
   846   1      6.3338789999999996      7.0395630000000002      11.501148000000001
   847   1      7.3916000000000004      7.4311629999999997      10.486230000000001
   848   8      17.536532000000001      16.700005999999998      2.4296329999999999
   849   1                18.01379      17.532989000000001      2.4202400000000002
   850   1      17.433810999999999      16.494571000000001      3.3623099999999999
   851   8               10.794475      19.308786999999999      3.4126270000000001
   852   1      10.152241999999999      20.021865999999999                3.384668
   853   1      11.259085000000001      19.373356000000001                2.574408
   854   8      3.9632999999999998      21.325638000000001      15.520706000000001
   855   1      3.6420539999999999      21.135456000000001      14.636196999999999
   856   1      3.1982170000000001               21.679368      15.981318999999999
   857   8     0.28346500000000002      22.132473999999998      7.8976689999999996
   858   1     0.22361700000000001      22.048265000000001      8.8521599999999996
   859   1     0.73446699999999998      22.969297000000001      7.7599520000000002
   860   8               12.794174      10.649490999999999      21.781106999999999
   861   1               12.603014               10.331863      22.666710999999999
   862   1      12.089073000000001      11.274546000000001               21.594611
   863   8                6.527571      19.643765999999999               20.286306
   864   1      6.8441260000000002      18.827349999999999      19.892627999999998
   865   1      5.5782829999999999               19.626265      20.140744999999999
   866   8      20.709541999999999                14.94347               14.595497
   867   1               19.810437      14.606856000000001               14.590332
   868   1      20.931139000000002      15.045866999999999               13.666492
   869   8                 6.65083      1.5623339999999999                16.06043
   870   1                5.804106      1.1552640000000001               16.258108
   871   1      6.4521800000000002                2.204809      15.374568999999999
   872   8               10.276914      7.1202059999999996      12.219298999999999
   873   1      9.8272040000000001                7.937659               11.992901
   874   1      9.6801589999999997      6.6812139999999998      12.830700999999999
   875   8      5.7399719999999999      4.7470549999999996      10.963357999999999
   876   1      5.9265040000000004      4.9071509999999998                11.89142
   877   1      5.0727989999999998      5.4003410000000001      10.738104999999999
   878   8               14.513201               16.540526      5.2192160000000003
   879   1               14.149314      15.746059000000001      4.8215560000000002
   880   1               15.242087      16.224550000000001      5.7591479999999997
   881   8      2.7794829999999999      4.8052580000000003      20.733129000000002
   882   1                3.038789      5.7204480000000002               20.603078
   883   1      2.0041579999999999                4.695754      20.176781999999999
   884   8               21.870483      12.382490000000001      18.044626999999998
   885   1               21.795862      12.904434999999999      18.846955000000001
   886   1               21.643017               12.994446      17.340063000000001
   887   8      7.8547739999999999      5.1465110000000003      3.1660029999999999
   888   1      7.7513480000000001                5.745806                3.908884
   889   1      7.3829359999999999      5.5743710000000002      2.4470130000000001
   890   8      4.4442769999999996                17.50882      20.190217000000001
   891   1      4.5949629999999999      16.782057999999999                20.79918
   892   1      5.1391869999999997      17.417518999999999      19.533401000000001
   893   8      6.3760659999999998      13.583159999999999      20.781054999999999
   894   1      5.9756989999999996      14.190827000000001      21.407291000000001
   895   1      7.2191429999999999               13.351834      21.178989000000001
   896   8               21.684348                17.29834      5.9869760000000003
   897   1      21.280294000000001      16.727129999999999      5.3295690000000002
   898   1      21.207515000000001               17.103334      6.7976830000000001
   899   8      21.232558999999998               16.296374     0.18584999999999999
   900   1      20.290783999999999      16.278742999999999  0.00018200000000000001
   901   1      21.329795000000001      15.759653999999999                0.976495
   902   8               17.297369      7.8505339999999997      4.4666949999999996
   903   1      17.987245999999999      8.5149089999999994      4.4003589999999999
   904   1      17.671890999999999      7.0746760000000002      4.0419369999999999
   905   8      9.6780100000000004      6.9364879999999998      9.1577289999999998
   906   1      9.4926209999999998      6.4497169999999997      9.9642090000000003
   907   1      8.8681929999999998      6.8670900000000001      8.6458480000000009
   908   8      9.8312830000000009               14.209481               20.615866
   909   1      9.8477940000000004               14.917016               19.967139
   910   1      10.725529999999999      13.858883000000001      20.609103000000001
   911   8      14.126175999999999               13.113341               16.004617
   912   1      13.446491999999999      12.505549999999999               15.704043
   913   1               14.628415               12.609244               16.649818
   914   8                7.162382      20.878523999999999      4.9485109999999999
   915   1      7.4371840000000002      20.616765999999998      5.8303799999999999
   916   1      6.5992059999999997      21.643402999999999      5.0914650000000004
   917   8                1.393586      19.468333999999999               21.552571
   918   1      1.3329150000000001      20.312401999999999               22.005996
   919   1      2.3320780000000001      19.263705999999999               21.554226
   920   8                14.53176      20.495992999999999               14.691504
   921   1               13.602314      20.591985999999999               14.912053
   922   1      14.537623999999999               20.348989               13.742295
   923   8               15.533557               12.508661      10.764765000000001
   924   1      15.798298000000001               11.663022      11.134266999999999
   925   1      16.324660999999999      13.050739999999999      10.819044999999999
   926   8               10.995647      12.599596999999999      8.4903499999999994
   927   1               11.860749               12.276982      8.2272130000000008
   928   1               11.058368               12.699833      9.4435870000000008
   929   8                 7.40578                22.94388      6.8054119999999996
   930   1      7.8086359999999999      22.994292000000002      5.9354170000000002
   931   1      7.9208780000000001               22.278388      7.2684850000000001
   932   8      9.0779759999999996               10.325376     0.32020500000000002
   933   1      8.3057470000000002               10.870298     0.48886800000000002
   934   1      9.7405930000000005               10.943144  0.00091799999999999998
   935   8      20.745460999999999               13.661813      3.4225120000000002
   936   1      19.985078999999999               13.076119      3.3999999999999999
   937   1               20.642236                14.21654                2.645168
   938   8      15.327972000000001      1.8683380000000001     0.72302900000000003
   939   1      15.281000000000001                1.235644   0.0024620000000000002
   940   1      14.806509999999999      2.6154139999999999     0.41873199999999999
   941   8      16.304072000000001      8.5593409999999999    0.075041999999999998
   942   1               17.147872      9.0153759999999998                0.033116
   943   1      16.538205000000001      7.6297470000000001     0.13570399999999999
   944   8      5.6633529999999999      18.034151000000001      11.661199999999999
   945   1      5.4611479999999997      17.129919999999998               11.409794
   946   1      4.8042480000000003               18.441219      11.798591999999999
   947   8      5.2030580000000004                1.496246      18.394020999999999
   948   1      5.1746619999999997      2.1960609999999998      19.050661999999999
   949   1      4.3466060000000004      1.5403519999999999               17.961371
   950   8               16.852211      4.0205599999999997      18.972853000000001
   951   1      17.594145999999999      3.4237959999999998      18.849851999999998
   952   1      16.467199999999998      3.7526999999999999      19.811101000000001
   953   8                9.583183      20.749448000000001      6.2043049999999997
   954   1      9.3159530000000004               19.933273      5.7751530000000004
   955   1               10.031043      21.245895999999998      5.5146649999999999
   956   8      12.766106000000001      1.0054479999999999      16.728255999999998
   957   1               13.479274                1.005374      17.370996999999999
   958   1               12.165765      1.6881630000000001               17.038311
   959   8      15.215337999999999      11.982011999999999               14.075453
   960   1               15.301746               12.686646      13.429118000000001
   961   1      15.156651999999999      11.181032999999999      13.548545000000001
   962   8      21.230153000000001                7.572444      17.722048999999998
   963   1               20.579075      8.2676449999999999      17.842542000000002
   964   1      21.054418999999999      6.9547860000000004               18.436373
   965   8               14.155004      21.898381000000001     0.72145000000000004
   966   1      14.496703999999999               21.835836                1.616466
   967   1               14.001286      20.986785000000001                0.460673
   968   8     0.52385499999999996      6.0596139999999998      17.801438999999998
   969   1   0.0011329999999999999      5.2789320000000002      17.603895999999999
   970   1      1.3539870000000001      5.7120439999999997      18.137174000000002
   971   8      7.2047600000000003      7.9780100000000003                6.240278
   972   1      7.3371190000000004      7.3922090000000003                 5.49125
   973   1      6.8387779999999996      8.7783200000000008      5.8553059999999997
   974   8               15.298009      7.2652469999999996               10.063545
   975   1      16.021159000000001      7.8336620000000003               10.338652
   976   1               15.578343      6.9174429999999996      9.2132000000000005
   977   8      8.4388240000000003      4.6073459999999997      19.174727000000001
   978   1      8.3326419999999999      3.6555569999999999      19.107289000000002
   979   1      7.6388999999999996                4.905913      19.614750999999998
   980   8      7.7347679999999999      22.986612999999998      3.7409370000000002
   981   1      8.4432960000000001      22.453803000000001      4.1094819999999999
   982   1      7.4229229999999999      22.479935999999999      2.9868329999999998
   983   8      16.532496999999999      16.777115999999999               11.921426
   984   1      17.068809000000002      17.365068999999998      12.458460000000001
   985   1      17.169833000000001               16.212474      11.476877999999999
   986   8      21.834793000000001      18.986242000000001      12.198506999999999
   987   1      22.713363000000001      19.346467000000001      12.340206999999999
   988   1      21.987791999999999      18.063334999999999               11.980618
   989   8               15.657104      17.701080000000001      2.7852239999999999
   990   1      14.858943999999999      18.204011999999999      2.6071119999999999
   991   1      15.488213999999999               17.277251      3.6304979999999998
   992   8      19.220151000000001               22.943472      17.266290999999999
   993   1      20.100632000000001      22.936367000000001      17.648949000000002
   994   1      18.631215999999998               22.984966      18.023969999999998
   995   8      10.238073999999999      17.162324000000002      4.9773399999999999
   996   1      10.418124000000001      16.265560000000001      5.2690989999999998
   997   1      9.5794969999999999      17.060300999999999                4.285596
   998   8      19.336669000000001      5.0863630000000004      3.4906869999999999
   999   1      19.747475000000001      5.7498129999999996      2.9314040000000001
  1000   1      18.423618999999999      5.0564939999999998      3.1938879999999998
  1001   8      17.729431000000002      9.4509919999999994      2.2869830000000002
  1002   1                18.55301      9.7564820000000001      2.6744349999999999
  1003   1      17.878554999999999      8.5178180000000001      2.1149640000000001
  1004   8      19.186426999999998      15.807848999999999               12.564048
  1005   1      18.680015000000001      15.002592999999999               12.693795
  1006   1               19.569575               15.710117      11.688669000000001
  1007   8      21.393350000000002               11.893941               14.244978
  1008   1               22.320207               11.684402               14.108031
  1009   1      21.405664999999999               12.682342               14.793533
  1010   8    0.041124000000000001      10.292541999999999      10.390582999999999
  1011   1     0.94564700000000002      10.284496000000001               10.712296
  1012   1  5.3000000000000001e-05                9.555415      9.7760920000000002
  1013   8                21.94547      5.3866259999999997      6.0572569999999999
  1014   1      21.726285000000001      6.3062529999999999      6.2244979999999996
  1015   1      22.705964999999999      5.4254429999999996      5.4717789999999997
  1016   8               14.864347      20.192050999999999      20.982783999999999
  1017   1               14.210072      20.848438999999999      20.732178000000001
  1018   1               14.433168      19.675132000000001      21.667999999999999
  1019   8               10.760567               17.328626      17.961252000000002
  1020   1               10.668307      18.233467000000001               17.653883
  1021   1      10.214270000000001      17.287966000000001      18.750268999999999
  1022   8                1.208753      4.9145380000000003      7.0382259999999999
  1023   1                1.783679      5.5477600000000002      6.6020890000000003
  1024   1     0.61897400000000002      5.4548420000000002      7.5700849999999997
  1025   8               11.000726                0.061355      14.637726000000001
  1026   1               11.763111                0.535555      14.297682999999999
  1027   1               10.253549     0.62503900000000001      14.421791000000001
  1028   8      12.405794999999999               14.438098      6.0506279999999997
  1029   1               11.597773      13.926375999999999      6.1340919999999999
  1030   1      12.933809999999999               13.948048      5.4152589999999998
  1031   8               22.071614               22.275682                16.48724
  1032   1      22.894197999999999      22.093043000000002               16.027106
  1033   1      21.493957999999999      22.635325999999999               15.809293
  1034   8      9.1453179999999996      4.3894229999999999                4.937017
  1035   1      9.8736139999999999      4.1528219999999996      5.5160939999999998
  1036   1      9.1119280000000007      3.6776450000000001                4.292891
  1037   8      16.162683999999999      18.506858999999999      9.0714179999999995
  1038   1               17.008606      18.960474999999999      9.0907750000000007
  1039   1      16.229908999999999      17.908809000000002      8.3227799999999998
  1040   8      3.8701210000000001               14.110125               20.745663
  1041   1      3.6594410000000002      15.006876999999999               21.016171
  1042   1      3.4006289999999999      13.994941000000001      19.915631999999999
  1043   8      8.9102099999999993               16.380796      16.859303000000001
  1044   1                8.537566      17.229493000000002      17.109452000000001
  1045   1      9.4804340000000007      16.581468999999998      16.112832999999998
  1046   8               12.690604      9.5477170000000005               13.839414
  1047   1               13.197858               10.199341      13.349716000000001
  1048   1      13.354310999999999      9.0088679999999997               14.277336
  1049   8               14.964656      10.886335000000001      8.9583600000000008
  1050   1               14.583377      10.019875000000001      9.1183540000000001
  1051   1               15.857334      10.701788000000001      8.6555219999999995
  1052   8      22.410015000000001      9.8571100000000005      22.025736999999999
  1053   1               22.900744      9.4002429999999997      21.338581999999999
  1054   1               22.480245               10.785988      21.791436000000001
  1055   8      10.664652999999999                4.840916               14.684205
  1056   1               11.356183      5.0694189999999999      14.058668000000001
  1057   1      9.9448749999999997      4.5177350000000001               14.136377
  1058   8      2.7483019999999998               18.929319               16.283583
  1059   1      2.7357840000000002               18.141448      16.832059999999998
  1060   1      3.3921389999999998      19.503599000000001      16.705860000000001
  1061   8               20.566599     0.56753500000000001               13.896848
  1062   1                19.62997     0.46826200000000001               14.082849
  1063   1               20.599743                1.187611               13.164012
  1064   8      9.9461899999999996      16.345898999999999               13.891385
  1065   1      9.6013009999999994               15.524697                14.24972
  1066   1               10.866351      16.358326000000002               14.166686
  1067   8      11.909852000000001               12.623348      2.0066280000000001
  1068   1               11.166879               13.167481                2.277987
  1069   1      12.587730000000001               13.254801                1.752874
  1070   8      2.9216869999999999      21.464922999999999      10.359068000000001
  1071   1      3.5305599999999999      22.111664000000001               10.723381
  1072   1      2.3515450000000002               21.974961      9.7781710000000004
  1073   8                1.390266                2.930199      22.031556999999999
  1074   1                1.659756      2.0090340000000002               22.055118
  1075   1     0.85404000000000002                3.001522               21.237821
  1076   8               20.999706      17.497893999999999      15.346062999999999
  1077   1      20.154768000000001      17.793804999999999               14.999304
  1078   1               21.037716      17.869734999999999      16.230896999999999
  1079   8      19.519276999999999               21.620963      6.1607099999999999
  1080   1      20.441897000000001      21.826567000000001      6.3287110000000002
  1081   1      19.032893999999999      22.276696999999999      6.6667610000000002
  1082   8      22.098642999999999      20.923190999999999      13.745888000000001
  1083   1      21.231525000000001      21.138100999999999               13.394254
  1084   1      21.917058000000001      20.346018000000001               14.491904
  1085   8                3.466412               14.361649      10.625325999999999
  1086   1      2.7922410000000002      14.574170000000001      11.274983000000001
  1087   1      4.0460459999999996               15.127589               10.623917
  1088   8      2.2478769999999999      19.891082999999998      12.338075999999999
  1089   1                3.049334      19.982303000000002      12.858720999999999
  1090   1      2.4601009999999999      19.214341000000001               11.690293
  1091   8      4.2841889999999996      3.4070200000000002      22.221755000000002
  1092   1      4.9567019999999999      4.0471130000000004      22.466159999999999
  1093   1      4.4219999999999997      3.2634120000000002      21.282060000000001
  1094   8      4.3305040000000004                2.916652                1.899114
  1095   1                3.646039      3.0033089999999998      1.2314890000000001
  1096   1      3.8542619999999999      2.9379849999999998      2.7330079999999999
  1097   8      21.760574999999999      4.2376490000000002                2.901322
  1098   1      21.677648999999999      4.9145519999999996      3.5770810000000002
  1099   1               20.973157      3.6977449999999998      3.0067680000000001
  1100   8      21.326571999999999      20.768782000000002    0.062586000000000003
  1101   1               21.213269               21.145336     0.93842499999999995
  1102   1               21.001835      19.868673999999999                0.146205
  1103   8      20.687740999999999               18.275285      2.2610350000000001
  1104   1      21.454056000000001      17.714701000000002      2.4032749999999998
  1105   1                20.23565      17.875945999999999                1.513517
  1106   8               11.777414      19.828438999999999      19.418372000000002
  1107   1      11.360345000000001               19.096881      19.879460000000002
  1108   1      11.337224000000001      20.609525000000001      19.763013999999998
  1109   8      11.670413999999999      18.415047999999999      12.110946999999999
  1110   1      11.211370000000001      17.580345999999999               12.230428
  1111   1               11.565182      18.613478000000001      11.177034000000001
  1112   8      6.1662410000000003      8.2478060000000006               18.406088
  1113   1      5.5056849999999997      8.3520380000000003               17.717229
  1114   1      6.3496199999999998      7.3050319999999997      18.419892999999998
  1115   8               11.797497               14.172827      10.919684999999999
  1116   1               11.126882      14.722682000000001               10.507788
  1117   1      11.390000000000001               13.870479      11.735265999999999
  1118   8               12.836387      7.0657680000000003      18.752003999999999
  1119   1      12.784917999999999      6.9875049999999996      19.707488000000001
  1120   1               11.939403      6.9007940000000003               18.450599
  1121   8                3.615183      6.1339870000000003               13.581388
  1122   1                3.055444      6.8903460000000001      13.772016000000001
  1123   1      3.6405759999999998      6.0919049999999997               12.622104
  1124   8      18.328309000000001      5.7504369999999998               11.676961
  1125   1      17.655107999999998      5.5669750000000002      12.336404999999999
  1126   1      17.964950999999999      6.4740229999999999      11.160204999999999
  1127   8               18.950571               18.729723               12.052431
  1128   1      19.560162999999999      19.228785999999999               11.503743
  1129   1               19.517405      18.237197999999999      12.651396999999999
  1130   8      3.3471229999999998               12.825241               12.070789
  1131   1      2.5234200000000002               12.453483      11.746700000000001
  1132   1      3.6647560000000001               12.181132      12.708657000000001
  1133   8      20.079819000000001      7.2632199999999996     0.21906900000000001
  1134   1      20.578458999999999      8.0555859999999999   0.0063740000000000003
  1135   1               19.487365      7.5364009999999997     0.92405899999999996
  1136   8      3.7637860000000001      6.4580659999999996      1.6011930000000001
  1137   1      2.9983710000000001      6.9683190000000002                 1.87598
  1138   1      3.7640560000000001      6.5258450000000003     0.64304499999999998
  1139   8      17.742198999999999               13.153993      7.7128800000000002
  1140   1      18.440726000000002               12.843821      7.1318650000000003
  1141   1      18.186482999999999      13.332902000000001      8.5454930000000004
  1142   8      21.611246999999999      2.9347989999999999      7.7956770000000004
  1143   1      20.784192999999998                2.493268      8.0024549999999994
  1144   1      21.346810000000001                3.724151      7.3164709999999999
  1145   8               11.258054      5.3275889999999997      8.1924119999999991
  1146   1                 11.4908      5.2970090000000001      9.1233350000000009
  1147   1               12.062014      5.0652990000000004      7.7368969999999999
  1148   8      6.7912530000000002      2.6179800000000002      8.9578860000000002
  1149   1      6.1903490000000003                1.926776      8.6700029999999995
  1150   1      6.4318369999999998      3.4216310000000001      8.5736910000000002
  1151   8      11.675140000000001                 16.6663      20.252587999999999
  1152   1               11.554558      16.645102000000001               21.204815
  1153   1      12.271540999999999               15.935454               20.071448
  1154   8      6.7074109999999996               21.191513                0.000101
  1155   1      5.8953139999999999      20.936966000000002     0.44443199999999999
  1156   1      7.2720880000000001      20.417985999999999    0.073839000000000002
  1157   8      20.870902000000001      9.3593050000000009      2.5614029999999999
  1158   1      20.437066000000002      9.4191319999999994      1.7070419999999999
  1159   1      21.388027000000001      8.5514690000000009                2.510173
  1160   8      1.5370900000000001               21.220222      17.647311999999999
  1161   1      2.2562289999999998               20.806887      18.130756000000002
  1162   1                1.125535               20.496928               17.167614
  1163   8               20.367936      4.4801989999999998               16.644575
  1164   1      19.562781999999999      4.7342649999999997               16.187517
  1165   1      20.133029000000001                4.509474               17.575491
  1166   8      21.776022000000001      2.3567100000000001                5.350149
  1167   1               21.302484                3.159929      5.1213980000000001
  1168   1      21.169184999999999                1.875861      5.9186350000000001
  1169   8               17.662011      7.6891579999999999      8.8802640000000004
  1170   1      17.759353000000001      6.7398569999999998      8.9855149999999995
  1171   1      18.166119999999999      8.0626270000000009      9.6076130000000006
  1172   8      17.087703000000001      19.606245999999999      4.5891799999999998
  1173   1               17.851689      19.570588000000001      5.1695060000000002
  1174   1      17.071118999999999               18.745258      4.1636600000000001
  1175   8               16.981313      17.219971000000001      15.169574000000001
  1176   1      16.417397000000001      17.288357000000001               15.943555
  1177   1      16.419934000000001               16.820912      14.500061000000001
  1178   8      5.7270820000000002               19.526868      13.864026000000001
  1179   1      5.5623469999999999      20.176258000000001               14.551688
  1180   1      5.6279669999999999      18.680281999999998                14.30687
  1181   8               15.530201      2.5266150000000001      8.5005279999999992
  1182   1               14.638109      2.3096480000000001      8.7812800000000006
  1183   1               16.094818      2.0023230000000001      9.0740839999999992
  1184   8      10.492922999999999      20.287338999999999               14.139661
  1185   1               10.843181      19.432811000000001      13.877312999999999
  1186   1                10.50216      20.806999000000001                13.33188
  1187   8               16.443424      19.612258000000001      2.1311429999999998
  1188   1      16.915801999999999      19.161497000000001                1.427298
  1189   1      15.663258000000001      19.972577000000001      1.7020120000000001
  1190   8      1.2379910000000001      5.8981380000000003      21.861902000000001
  1191   1     0.67954899999999996      5.1269999999999998      21.985244000000002
  1192   1      1.9354530000000001      5.7942169999999997      22.514120999999999
  1193   8               11.849527      9.9723729999999993      7.1060189999999999
  1194   1                12.64748               10.234216      7.5712419999999998
  1195   1               12.150402      9.7555259999999997                6.219964
  1196   8      4.6897609999999998      4.1279719999999998      13.607877999999999
  1197   1      5.0197050000000001                3.247735               13.802928
  1198   1      5.2150049999999997      4.7082810000000004               14.164657
  1199   8      12.802353999999999      22.469387000000001      21.510131000000001
  1200   1               12.488514               21.735706                22.04393
  1201   1      12.433958000000001      22.304770000000001      20.638449999999999
  1202   8     0.30710599999999999      8.3882510000000003      3.5918890000000001
  1203   1   0.0017730000000000001      9.1990759999999998      4.0054829999999999
  1204   1                0.742425      8.6804100000000002      2.7870400000000002
  1205   8      9.1433079999999993      6.0541660000000004    0.050458000000000003
  1206   1      10.099926999999999      5.9903360000000001  0.00014999999999999999
  1207   1      8.9844919999999995      6.8063969999999996                0.626278
  1208   8               14.370666               14.258642      20.582508000000001
  1209   1               15.199225               14.141588      21.053159000000001
  1210   1               13.879215               14.886979      21.117588000000001
  1211   8               12.128964               21.868568      1.5079480000000001
  1212   1      11.357623999999999      21.297522000000001                1.533768
  1213   1               12.082855      22.368728999999998      2.3267000000000002
  1214   8               22.358801      7.7309000000000001      15.143890000000001
  1215   1      22.915078999999999      7.0193820000000002      14.818281000000001
  1216   1      22.640388999999999      7.8564590000000001               16.053607
  1217   8      13.633533999999999      10.125885999999999      3.8168129999999998
  1218   1      14.304493000000001      9.5901209999999999      4.2463420000000003
  1219   1      13.892291999999999               10.135626      2.8918309999999998
  1220   8      10.762093999999999      8.8268240000000002      19.237054000000001
  1221   1      10.771051999999999      9.7122650000000004               18.866056
  1222   1      9.9371460000000003      8.7819489999999991      19.727043999999999
  1223   8      16.052451000000001      11.374898999999999      1.1548099999999999
  1224   1      16.466982999999999      11.231154999999999      2.0087570000000001
  1225   1               15.712869                10.51145     0.90625100000000003
  1226   8               11.622007               12.370082               14.348049
  1227   1               11.083503               11.615275               14.597054
  1228   1      11.116991000000001      12.805580000000001      13.656715999999999
  1229   8      17.512067999999999               14.838073               16.859358
  1230   1      17.668154999999999      15.778472000000001                16.97343
  1231   1      18.027574999999999      14.603187999999999      16.083649999999999
  1232   8                14.32728      8.3318010000000005      21.326737000000001
  1233   1               13.399689      8.5703680000000002      21.392956999999999
  1234   1               14.591759      8.6420440000000003      20.457000000000001
  1235   8      7.3251790000000003      3.1648139999999998               21.000498
  1236   1      6.6719879999999998      2.4787490000000001               21.156644
  1237   1      7.1664830000000004                3.807887               21.696137
  1238   8      6.4674149999999999      10.237201000000001    0.020119999999999999
  1239   1      5.5487489999999999      9.9590359999999993                 6.3e-05
  1240   1      6.9656190000000002      9.4162049999999997  8.0000000000000007e-05
  1241   8               14.309466      17.037126000000001      20.546582999999998
  1242   1      15.198615999999999      17.399149000000001               20.555384
  1243   1               13.748132               17.777573                20.79007
  1244   8      9.9534310000000001      7.6120359999999998                3.538497
  1245   1      9.3835010000000008      7.0198140000000002      3.0423339999999999
  1246   1               10.084666      7.1674420000000003      4.3797790000000001
  1247   8      18.768301000000001                2.675996               14.483067
  1248   1      18.386659999999999                2.679484               15.364011
  1249   1                18.08399      3.0544419999999999      13.925268000000001
  1250   8      22.252068000000001                7.464823      11.391023000000001
  1251   1                21.30104      7.5867620000000002      11.440023999999999
  1252   1               22.612544      8.3449329999999993               11.525585
  1253   8      21.283619000000002      8.9366939999999992      6.0405369999999996
  1254   1      21.737431000000001      9.7809840000000001      5.9861800000000001
  1255   1      21.878830000000001      8.3179110000000005      5.6098710000000001
  1256   8                6.221419               12.699913               11.718983
  1257   1      5.9207390000000002      11.867032999999999      12.089964999999999
  1258   1      5.5542429999999996      12.924526999999999      11.065478000000001
  1259   8               10.226257      18.474972000000001                0.001016
  1260   1               10.864557               17.763821    0.093551999999999996
  1261   1      10.675857000000001               19.246461     0.35500500000000001
  1262   8      14.662129999999999      8.9851369999999999      11.629860000000001
  1263   1      14.944794999999999      8.8884629999999998               12.542263
  1264   1               13.976511      8.3212639999999993      11.521039999999999
  1265   8      20.577176000000001      12.604279999999999               12.328436
  1266   1               19.758775               12.793471               11.863514
  1267   1      21.116921999999999      13.386502999999999      12.188992000000001
  1268   8      18.880482000000001               11.158094      4.7671020000000004
  1269   1      19.261275999999999               10.712488                5.527469
  1270   1      19.518402999999999               11.015839                4.063212
  1271   8      19.768443000000001               13.063094               21.894517
  1272   1      20.300087000000001               12.376792               21.484555
  1273   1               20.381459      13.527969000000001               22.469621
