53
Properties=species:S:1:pos:R:3:forces:R:3 XYZ=T file=T generated=T by=T Avogadro.=T energy=-352.1082763671875 stress="-inf -inf nan -inf inf nan nan nan -inf" pbc="F F F"
N        2.12787244      -2.12545485       6.92470611      -0.00108293       0.00134224       0.00308019
C        2.72565534      -3.46334862       6.87379770       0.00265405       0.00281874       0.00217035
C        2.50072513      -4.21392111       5.56796064       0.00048271       0.00389636       0.00100112
N        1.08133935      -4.43093707       5.26157051      -0.00162608       0.00122273       0.00141485
C        0.54299361      -5.54903311       6.04249204      -0.00322071      -0.00150688      -0.00273662
C       -0.97405030      -5.56360844       6.17612014      -0.00100106      -0.00107628       0.00183436
N       -1.51798981      -4.36041167       6.81629426       0.00390285       0.00245844      -0.00072687
C       -1.31425338      -4.39815036       8.26658030      -0.00271653      -0.00094390       0.00006001
C       -1.43805407      -3.05053754       8.96443907      -0.00057733      -0.00070977      -0.00066701
N       -0.47192752      -2.05571613       8.48420316      -0.00032986       0.00051424       0.00641516
C        0.85173904      -2.28362519       9.07270961       0.00071159       0.00041829      -0.00020441
C        2.01065911      -1.65516379       8.31051700       0.00101721      -0.00136247       0.00322688
C        2.90203315      -1.16122310       6.12133380      -0.00117019       0.00125647       0.00015318
C        2.71420250      -1.36308096       4.60963516      -0.00281051       0.00010599      -0.00208807
O        1.49474662      -1.56878755       4.26507812      -0.00066268      -0.00045089      -0.00003755
O        3.69184391      -1.32380212       3.88073170       0.00242376       0.00064495       0.00215888
C        0.88991053      -4.64566685       3.81564160       0.00126100       0.00123313       0.00132385
C       -0.57750897      -4.49108914       3.38467136       0.00087857       0.00072677       0.00002652
O       -1.16921857      -3.48100110       3.91371360       0.00081193      -0.00367081      -0.00483310
O       -1.05524283      -5.30641504       2.61317721      -0.00527573      -0.00245833       0.00002551
C       -2.94263536      -4.19346207       6.47489685       0.00346897       0.00093222       0.00247407
C       -3.45814927      -2.77378460       6.75843813       0.00362027       0.00057256       0.00329319
O       -2.66015835      -1.84452092       6.37232944      -0.00499409      -0.00447381       0.00084460
O       -4.53596392      -2.63763323       7.31409138      -0.00481248      -0.00007725      -0.00358677
C       -0.95750768      -0.69143700       8.75998975       0.00104922      -0.00268638       0.00296807
C       -0.19332496       0.37651431       7.96158020      -0.00260413      -0.00641394      -0.00491911
O        0.00494500       0.05868501       6.73279714       0.00286913       0.00077339      -0.00661325
O        0.15868283       1.39758882       8.52773654       0.00263470       0.00591850       0.00382817
H        3.81009328      -3.40494749       7.04910456       0.00447494      -0.00158429      -0.00030215
H        2.31183296      -4.04229684       7.70157235       0.00299503       0.00003178      -0.00016153
H        2.94309358      -3.66104218       4.74209665       0.00277956       0.00004461      -0.00252396
H        3.04675959      -5.16711909       5.62868342      -0.00457352       0.00123817      -0.00328150
H        0.85003214      -6.50893280       5.60168040       0.00422852       0.00117937      -0.00149596
H        0.99802633      -5.51212635       7.03421394      -0.00238322       0.00609334      -0.00693873
H       -1.25302987      -6.47178768       6.73089510       0.00367186      -0.00202870       0.00341661
H       -1.42966708      -5.65212765       5.19226913       0.00096165       0.00054734       0.00228509
H       -2.02892773      -5.08917190       8.73809788      -0.00041330      -0.00347289       0.00318404
H       -0.32053235      -4.81107802       8.45142893      -0.00530401      -0.00355627      -0.00141447
H       -2.43822025      -2.64698593       8.82070590       0.00098208       0.00077040      -0.00265291
H       -1.32731983      -3.22326905      10.04499691      -0.00454297       0.00369620      -0.00055921
H        0.88365923      -1.90233593      10.10397730       0.00144994      -0.00531857      -0.00250909
H        1.00213747      -3.36261719       9.14241077      -0.00180930       0.00279987       0.00197462
H        1.89382261      -0.57386857       8.28646419       0.00130469      -0.00304228      -0.00181728
H        2.93225828      -1.85510516       8.87696558       0.00172302      -0.00417097       0.00097421
H        2.50167549      -0.16886468       6.34162488      -0.00241131      -0.00053647       0.00009128
H        3.96667219      -1.19149589       6.37419209      -0.00226995       0.00211930       0.00297928
H       -1.99237637      -0.64429086       8.41182714       0.00780502       0.00109610      -0.00102410
H        1.43831081      -3.85390539       3.29955000      -0.00125220      -0.00297236      -0.00315191
H        1.26959248      -5.62255736       3.49999302      -0.00279106       0.00200552       0.00211260
H       -0.91536338      -0.46006202       9.82872220       0.00398441       0.00264280       0.00159132
H       -3.03156768      -4.33417480       5.39484337      -0.00018549      -0.00067736       0.00211069
H       -3.56835040      -4.92622612       6.99446495      -0.00178906       0.00250742      -0.00196850
Lu      -0.38814968      -2.04166437       5.65561995      -0.00153740       0.00158376      -0.00080471
