53
Properties=species:S:1:pos:R:3 XYZ=T file=T generated=T by=T Avogadro.=T energy=-352.1082763671875 stress="-inf -inf nan -inf inf nan nan nan -inf" pbc="F F F"
N      2.0913627663   -2.2298992468    6.9916180683
C      2.8274855909   -3.4992391144    6.9393912723
C      2.5886723762   -4.2264688367    5.6257668719
N      1.1536849048   -4.4391106309    5.4027943075
C      0.7045618557   -5.6296191030    6.1355371519
C     -0.8109190114   -5.6732268844    6.2494966334
N     -1.3209483585   -4.4458418026    6.8721566231
C     -1.2168304448   -4.5463858983    8.3333144420
C     -1.3665371014   -3.1861728826    8.9959059584
N     -0.3839512683   -2.2361410582    8.4608392637
C      0.9062869917   -2.4162510071    9.1381515584
C      2.0340757967   -1.7409776985    8.3743236952
C      2.7639414705   -1.2245236191    6.1585922536
C      1.8575983090   -0.0778614557    5.8699601157
O      0.5667699626   -0.2629321184    5.7172327301
O      2.3205230863    1.0405859127    5.7403577612
C      0.9156953620   -4.6148728860    3.9641542900
C      0.9835766229   -3.3097051715    3.2488978570
O      0.5726249907   -2.2045225296    3.8264876603
O      1.3935238988   -3.2690719968    2.1033067932
C     -2.7240732946   -4.2600722062    6.4798454283
C     -2.8247872888   -3.7654019243    5.0783624838
O     -1.9188855358   -2.9522462394    4.5862934178
O     -3.7750433424   -4.0902865345    4.3899996147
C     -0.8776628507   -0.8693920390    8.6740609643
C     -1.9523279153   -0.5321276941    7.6988866544
O     -1.9253241049   -1.0104504905    6.4764202981
O     -2.8499779462    0.2222368374    8.0263612234
H      3.9171525275   -3.3352181167    7.0880856230
H      2.5221973715   -4.1766696464    7.7583653237
H      3.0458271585   -3.6422826730    4.8030726580
H      3.1460489230   -5.1887602059    5.6154977830
H      1.0742778241   -6.5599065320    5.6511904621
H      1.1183764332   -5.6525320177    7.1608441775
H     -1.1248494882   -6.5758055430    6.8185899324
H     -1.2429724354   -5.8277503841    5.2412476371
H     -1.9751770941   -5.2505041263    8.7405875337
H     -0.2397633208   -4.9634095099    8.6410044860
H     -2.4034739667   -2.8258185745    8.8469151078
H     -1.2717133026   -3.2865392914   10.0995105435
H      0.8685085008   -2.0270019210   10.1790754578
H      1.1637410757   -3.4870873551    9.2382779226
H      1.8870127011   -0.6436619936    8.4120509157
H      3.0007877417   -1.9019453417    8.8999510694
H      3.0305464469   -1.6072991875    5.1557533584
H      3.7118163923   -0.8795155324    6.6276502508
H     -0.1042621726   -0.1006015507    8.4893176559
H      1.6234943967   -5.3519327739    3.5242606309
H     -0.1026398421   -4.9840475027    3.7402031712
H     -1.2245189584   -0.7239451879    9.7210339681
H     -3.2342090124   -3.4773798890    7.0718419971
H     -3.3100924759   -5.1952326377    6.6198569218
Yb    -0.1486269100   -2.4674824102    6.0365808192
