188
Properties=species:S:1:pos:R:3:forces:R:3 XYZ=T file=T generated=T by=T Avogadro.=T energy=-1247.3817138671875 stress="-inf -inf -inf -inf inf inf -inf inf inf" pbc="F F F"
N       18.90441901      30.99067604      23.35317201       0.00253595      -0.01715353       0.02264768
C       17.56426083      31.59093368      23.21091211       0.00632620       0.00192216       0.01051706
C       16.97665216      32.16228624      24.49683888      -0.00381610      -0.00186026      -0.00730194
N       16.79937241      31.16349868      25.56626556       0.02118936       0.00765526      -0.00224400
C       15.62445887      30.30747322      25.32790869       0.01228032       0.00755107      -0.01052138
C       15.64798320      28.96885230      26.06054335       0.00876719      -0.01023048      -0.00151223
N       16.80224884      28.12382638      25.69594990       0.00101304      -0.01941532      -0.00848264
C       16.58157658      27.48790090      24.38872285      -0.01127094      -0.00665193      -0.00597753
C       17.82618660      26.92676374      23.72139948      -0.00844066       0.00107533       0.00798783
N       18.85523420      27.95482474      23.44447962      -0.01196369       0.00801992      -0.00006941
C       18.46462311      28.77084372      22.28593247       0.00424892       0.00987449       0.00341997
C       19.19858200      30.09753111      22.22289332      -0.00139058       0.00431387      -0.00306714
C       19.94529756      32.03593215      23.44675167      -0.00732008      -0.00105906      -0.00147676
C       20.00809988      32.71675919      24.82256228      -0.00079721      -0.02410018      -0.00471997
O       19.83739019      31.90484110      25.80872008       0.00553073      -0.00719470      -0.00310075
O       20.23081951      33.91229365      24.87951421      -0.01875728      -0.00966024       0.01630121
C       16.71140405      31.82654866      26.88365243       0.01027119      -0.00383949       0.01322168
C       16.95279785      30.85434367      28.04713572      -0.01312044      -0.02265060      -0.00199986
O       17.90980668      30.01112730      27.82449370       0.01226187       0.00915289      -0.01042056
O       16.27091034      30.92921099      29.04971968      -0.02131557       0.01449111      -0.00123143
C       17.07547802      27.11581433      26.74506840      -0.00167179       0.00053602       0.00326610
C       18.49994393      26.53903990      26.69949917       0.00412011      -0.00521052      -0.00007021
O       19.41139474      27.38087365      26.34468079       0.01194000       0.00565171       0.00576234
O       18.68151669      25.37282623      27.01733340      -0.00552744       0.01637769      -0.00631839
C       20.18267916      27.34217785      23.26371500      -0.00551978       0.00889733       0.00225538
C       21.23373850      27.91089316      24.20414776      -0.00721750      -0.00725758       0.02108219
O       21.19019790      29.09065831      24.58391958      -0.00239450      -0.00030193      -0.01288601
N       22.21819382      27.07221962      24.53593584       0.00372618      -0.00064681       0.01271068
Dy      19.04479115      29.67933321      25.81286346       0.01234930      -0.00715141      -0.00808924
H       17.59191291      32.39830876      22.46435049       0.00042719      -0.00258166       0.00535467
H       16.89618507      30.82674819      22.80929652       0.00841671       0.00952563       0.01471855
H       17.62731875      32.94707916      24.88135909      -0.00744119      -0.02444056      -0.00307466
H       16.01985265      32.64408359      24.25023841       0.00282899       0.00276363      -0.02056390
H       14.70864553      30.83890438      25.62157192      -0.01669702      -0.01278877      -0.00280038
H       15.54908916      30.13803633      24.25286754      -0.00067112      -0.00218204      -0.02148399
H       14.70057124      28.45175763      25.85351909      -0.00201201      -0.00168794      -0.01499165
H       15.68153908      29.13596705      27.13474826      -0.00886125      -0.01476433       0.01062354
H       15.85900381      26.66370494      24.48016171      -0.00012311      -0.00089434      -0.00170948
H       16.11416195      28.22608945      23.73544146       0.00236891       0.01078922       0.00797364
H       18.27001734      26.16025505      24.35406218       0.00470443       0.00304165       0.01032981
H       17.51465707      26.43106495      22.79179670       0.00590058       0.01267637       0.00274187
H       18.63590437      28.22225115      21.34728258      -0.00414311       0.00305638       0.01718116
H       17.38830198      28.93489584      22.33847792       0.01291215      -0.00477146       0.01366247
H       20.27383989      29.91113629      22.23166696      -0.00282180       0.00027680       0.00125350
H       18.96869646      30.59236208      21.26739725      -0.00270405      -0.01045929      -0.01713306
H       20.23593937      20.17215125      25.03391154      -0.01025563      -0.00725479       0.00056624
H       18.49658443      20.03042301      24.76794791       0.00504935      -0.00255337      -0.01945976
H       20.12552258      26.26208954      23.41545295       0.00013949       0.01259413       0.00496640
H       15.75502146      32.34308832      27.00993303       0.00670689      -0.01126638       0.01051009
H       17.52326581      32.55624614      26.93388428       0.00510836       0.00574705      -0.01358827
H       20.54231475      27.49245047      22.23827587      -0.00331733      -0.00042338      -0.00576785
H       17.00539959      27.63142916      27.70621302      -0.00039610      -0.00145750       0.00603434
H       16.34834819      26.29933245      26.72220909      -0.01199707       0.01535621      -0.00032150
C       23.16299053      27.33597729      25.62344027      -0.01612049      -0.01103926       0.02021354
H       22.05797307      26.09644664      24.32247079      -0.00442970       0.01677608      -0.01282822
H       26.40719555      27.44230438      23.15146486      -0.01053197       0.00725619       0.00286363
H       23.58361067      29.99373341      25.12588637       0.00498952      -0.00698373      -0.00627173
C       24.62128874      27.43394370      25.16615934      -0.01347035      -0.00751242       0.00331002
C       24.94554273      28.57825453      24.23899256       0.01166624       0.00690848       0.00078741
H       25.21671802      27.52090976      26.08421638      -0.00085731       0.00597644      -0.00415760
H       24.93084137      26.49492193      24.69967690       0.00602011      -0.01083249      -0.00056548
H       25.94955727      31.51750149      21.91040813      -0.00550858      -0.01282884      -0.00605575
C       25.91920209      28.40506791      23.25424762      -0.00264682       0.02260490      -0.01403255
C       24.34210228      29.82935061      24.37242942      -0.00002187       0.01418728      -0.01308523
H       27.03937593      29.30818960      21.66223379      -0.00457320      -0.01657533       0.01971968
C       24.69614455      30.87907104      23.53355053       0.01027201      -0.00938553      -0.00717964
H       24.21378726      31.84244204      23.65087385       0.01522866      -0.02043661      -0.00221529
C       26.28078253      29.45698100      22.42146767      -0.00265851       0.01236134      -0.00342587
C       25.66814712      30.69620065      22.55771041      -0.00212330       0.01730778      -0.00105114
C       23.00640711      26.22988634      26.67657671      -0.00668341       0.00302471       0.00546575
H       22.85384684      28.25754651      26.10776498       0.01556286       0.00346082       0.00496709
O       22.83166427      26.46999948      27.85447506       0.00097141       0.01655069       0.00049770
N       23.05494809      24.97898949      26.15420609       0.00511166       0.00888479       0.00218406
C       22.86476168      23.78435830      26.94459399      -0.01177835       0.00870082      -0.00028461
C       21.39634508      23.33760917      26.95420800      -0.01138335      -0.00318164      -0.00642204
S       20.73564674      23.27760756      25.25048175       0.01012908       0.00132685       0.00673267
N       24.18177348      21.75341034      27.17789683       0.01876983       0.00213124       0.00543576
C       23.79130193      22.73111921      26.34047965      -0.00646120      -0.00406387       0.00278068
O       24.13009315      22.79857138      25.16608426      -0.00721735       0.02067694       0.00767839
H       16.04451240      24.67811552      23.16839529      -0.01085930       0.00481506      -0.01144624
H       20.79222462      24.05820473      27.50568116       0.00671792      -0.00583825       0.00502735
H       21.30030419      22.34924996      27.40565455      -0.00337610      -0.00106424       0.00238515
C       25.11199474      20.72036513      26.77314069      -0.00373530      -0.02393335       0.01136345
C       24.63776000      19.43046952      27.42759671       0.00670192      -0.00459259      -0.00211167
O       28.00878671      26.07449898      25.09793999       0.00062599      -0.01031092       0.00787908
C       26.55707185      21.03574070      27.22629596      -0.00957000      -0.00620946      -0.00077590
O       24.36615957      19.40074631      28.62366836      -0.00812724       0.00738395       0.01072466
H       27.20292302      25.63513909      27.61701987      -0.00475839       0.00185315      -0.00002095
N       24.53728356      18.37380167      26.61048231       0.00908075       0.00453778       0.00515366
H       27.55661604      21.62364980      24.76017924      -0.00667391      -0.00654951       0.00270313
H       27.94081070      26.76517530      25.76441358       0.00821257       0.00102785      -0.02433947
C       27.28092268      24.75492400      26.98800299       0.00467006       0.01071382      -0.00116083
C       27.70673498      24.87185936      25.66810925       0.00177658      -0.00386498       0.00351411
H       26.59995778      23.42797244      28.52125743       0.00184122      -0.00935852      -0.00946522
H       25.07088506      20.66593404      25.68413798       0.00973755       0.00144459       0.01073259
C       27.03535817      22.36003743      26.70954966      -0.00458420       0.01247828      -0.00220758
H       26.56792690      21.01974623      28.31882139       0.01286531      -0.00806780       0.00302309
H       27.19579213      20.21982101      26.87467640       0.00975654      -0.00033417       0.01376948
C       27.48406172      22.49922031      25.39582536       0.00449994       0.00633954      -0.00676858
H       28.16484203      23.83885956      23.85172172       0.00131983       0.01128721      -0.00230355
C       26.94537116      23.50576094      27.49571352       0.00578775       0.01368808      -0.00442958
C       27.82034464      23.73597745      24.87247146       0.00639287       0.00547745      -0.00058553
C       24.07351137      17.07930880      27.04983067       0.00762798       0.02038372      -0.00392276
C       25.12018039      16.30554509      27.90352716      -0.00961316       0.00120075      -0.00102928
H       24.81826475      18.42835515      25.64185677       0.00247432      -0.01041036       0.00413021
H       27.21258578      18.10768166      28.85281551      -0.02194755       0.00337791       0.00582955
C       23.67723292      16.35005325      25.77047317       0.01455349      -0.01087736       0.01494765
H       29.43577225      17.85437202      27.73173043       0.00223833      -0.01259014       0.00254566
C       26.54054434      16.48596328      27.50037922       0.00977841       0.00067290       0.00373714
H       23.19225266      17.23100406      27.67943543       0.01106259       0.00757668      -0.00770083
O       24.34984701      16.44954488      24.75695140      -0.00961602       0.00359055       0.00350964
H       25.00276562      16.66919760      28.92470300      -0.00293003       0.00063722       0.00620830
H       24.84311610      15.24800400      27.90490445      -0.00264057      -0.01519042      -0.00022804
C       27.39673461      17.39542565      28.06514705       0.00970823       0.00816765      -0.00057155
C       28.61188941      16.32472229      26.51921891       0.01612541       0.00171536      -0.00451189
C       27.29861944      15.78500469      26.50456795       0.01872471      -0.00767156       0.00272549
N       28.63509647      17.30893212      27.47368864      -0.00183859      -0.00628541      -0.01091814
H       30.61791138      16.28849156      25.70924003      -0.00938074      -0.01037099      -0.00003239
C       29.30249063      14.83366224      24.81271156      -0.00061679       0.01182608      -0.00619882
H       30.06472064      14.44590859      24.14889605      -0.00967562       0.00758253       0.00043606
H       26.01161680      14.33302304      25.55689318      -0.01362049       0.00094894      -0.00170640
H       27.79663628      13.48868988      24.07649374      -0.00175506      -0.01233944      -0.00609034
C       29.62116245      15.86330154      25.68111061       0.00190291      -0.00733378       0.00461555
C       27.00877150      14.75009161      25.60943550       0.00258911      -0.00028247      -0.00851400
C       28.00975333      14.28662835      24.77572626       0.00526676      -0.01119659       0.00033641
N       22.54699677      15.60227679      25.85727452       0.00350094       0.00091168      -0.00288770
O       21.47098675      17.59431815      24.44876345       0.00121761      -0.00651550      -0.01168811
H       21.96103656      15.80530424      26.65088371       0.00896874       0.00344001      -0.00682476
C       21.83658237      15.21381896      24.64557561      -0.00712549      -0.01107913      -0.00405395
C       22.59625608      14.17389427      23.81960600      -0.00242493      -0.00519350      -0.00173193
C       22.94311329      12.92157004      24.61879992      -0.01017300       0.00562639       0.00936115
C       21.44086476      16.50764662      23.88875019      -0.00424083      -0.01816928      -0.00970590
N       21.01105483      16.34758141      22.62422254      -0.00427611       0.01338649       0.00975028
C       23.61990731      11.83826878      23.78254861      -0.01091945       0.01000199       0.00954197
H       23.59026868      13.19086588      25.45901113       0.00589910       0.00139488      -0.00157300
H       22.02591819      12.51934011      25.06108226      -0.00806680      -0.01207412      -0.00106472
C       25.06306434      12.16053955      23.42185209      -0.00898826      -0.00606878       0.00033183
H       23.60719016      10.88539122      24.31666840       0.00096834       0.00226292      -0.01308548
H       23.04760843      11.68087418      22.85982628       0.01045431      -0.00923138       0.00375950
N       25.60894870      11.09881495      22.57845320       0.01067673      -0.00862750      -0.00493020
H       25.12064861      13.16204866      22.96571147       0.00692993      -0.00379342       0.00958022
H       25.66106500      12.19960593      24.33801596      -0.00670715       0.00607338      -0.00419208
H       25.08609093      11.04679774      21.71203102      -0.00057959      -0.00535039      -0.00493851
H       26.56453677      11.30478134      22.31523826       0.01186779       0.01167768      -0.00127748
C       20.70965803      17.48243107      21.77450126       0.00621039       0.00189313       0.00635324
H       21.12855512      15.46902854      22.14593645      -0.01497291       0.00007790       0.00764234
C       19.82702193      18.51111501      22.49772537       0.00098598       0.00250250      -0.01066738
H       19.26006020      18.91879565      19.86635624      -0.00916600       0.00314656       0.00463863
C       19.96125845      16.98410498      20.53652162       0.00764522      -0.00557554       0.01337001
O       18.72207744      18.22810795      22.92248350       0.00973272      -0.00052908       0.00366032
C       18.39861449      21.21769655      22.24081611       0.00525670       0.01982957      -0.00105464
N       20.33599086      19.76598299      22.51434612      -0.00019357      -0.00093031       0.00595774
N       17.46343770      21.98139395      22.81958156      -0.01953786      -0.01529270       0.01311342
S       19.01981663      22.20088928      25.53160089       0.01352669       0.01082010      -0.00976086
H       20.29480806      21.73995077      23.00314087      -0.00799134      -0.00351623       0.00466506
C       19.62585141      20.87736659      23.10265511      -0.00294614      -0.00126898       0.00081378
H       21.96732200      13.87461129      22.97552335      -0.00430499      -0.00382829       0.00373533
O       18.32722979      20.86340376      21.05948041       0.00600697      -0.00224039      -0.00431162
C       19.36673093      20.66908289      24.60646534      -0.00033145       0.00113863      -0.00693229
H       23.49361254      14.63783676      23.41118944      -0.00361893      -0.00210175      -0.00675181
C       16.29168838      22.44323822      22.09076523      -0.00138937       0.01184064      -0.00816622
H       15.89507388      21.60417955      21.51025079      -0.00417598       0.00996321      -0.00251347
C       19.80928685      18.06055081      19.48079419      -0.00440295      -0.00483155       0.01054761
O       20.72666527      15.87011159      20.04815327       0.00655067      -0.00855863       0.00082934
H       21.64783640      17.95154533      21.44907766      -0.00372726       0.02042134       0.00121272
H       20.35062174      15.59581545      19.20689574      -0.00628763       0.00167054       0.00474393
H       20.79016613      18.38926623      19.13189809      -0.00492407       0.00431548       0.00683724
H       19.25491817      17.67328254      18.62344033       0.00404947       0.00168127      -0.00575182
H       17.64357172      22.38662750      23.73770570      -0.00625568      -0.00246813       0.01076734
C       15.22534149      22.96661788      23.05762161       0.00663337       0.01624566      -0.00499514
H       17.71339835      22.19754940      20.23540415       0.00612674      -0.01041642      -0.01071692
H       13.91807289      22.34225475      24.62918884      -0.00081837       0.00195588       0.00891086
C       16.73110506      23.55147186      21.11618204      -0.00248845      -0.00216204      -0.00911014
O       15.76970084      24.02787096      23.83516563       0.00126308       0.01096904       0.00056744
O       16.45991776      24.72273799      21.29389245      -0.01350062       0.00421166      -0.00207850
C       14.69491743      21.91025159      24.00079100       0.01040863       0.01140502      -0.00528306
O       17.46142882      23.15177155      20.09327919       0.00670091      -0.00009781       0.00087120
H       20.89891509      14.76144655      24.98513887      -0.02001473       0.00224838       0.00463264
H       14.41042333      23.35383997      22.43198378      -0.00843298      -0.02000083      -0.00859761
H       14.26622851      21.07240709      23.45150265       0.00697307      -0.00782410      -0.01209009
H       15.48459813      21.53393268      24.65100706       0.01528430      -0.00551207       0.00435247
H       23.47518156      24.79470096      25.25104817       0.01742154      -0.00182311      -0.00350326
H       23.14186302      23.99952292      27.98043890       0.01628640      -0.00169577      -0.00366908
H       23.87666177      21.72735173      28.13929306      -0.01152673       0.01250243      -0.00301063
H       21.30969567      19.88862088      22.29999884       0.00082722      -0.00531977      -0.00669255
H       18.97762216      16.63715066      20.87520423      -0.00660181       0.00545877      -0.00563936
H       19.82869427      32.78525114      22.65716968      -0.01141202       0.00720561       0.00712004
H       20.91200871      31.54151604      23.31762894      -0.00398451       0.01703353       0.00355908
