57
Properties=species:S:1:pos:R:3:forces:R:3 XYZ=T file=T generated=T by=T Avogadro.=T energy=-350.0027770996094 stress="inf inf -inf inf -inf nan -inf nan -inf" pbc="F F F"
N      2.2936776401   -2.3791774276    6.8012280720
C      3.0268464111   -3.6191873456    6.4888317602
C      2.1624394865   -4.8751353181    6.5521322377
N      0.9408043962   -4.7515485294    5.7527508774
C      0.0081419426   -5.8612981554    6.0113549813
C     -0.8292076098   -5.6125281210    7.2538360621
N     -1.5095097848   -4.3102196067    7.2006365518
C     -1.9370967928   -3.8738025208    8.5349209387
C     -0.7479483629   -3.4529342325    9.3746087147
N      0.0586708983   -2.4387921114    8.6725765585
C      1.4452361224   -2.6354928104    9.1199254315
C      2.4335331526   -1.9607943768    8.2076160804
C      2.8739008550   -1.2720224264    6.0210592255
C      2.2313422052   -1.0970221678    4.6973321401
O      0.9698106070   -1.3999401922    4.5190249295
O      2.8471913934   -0.5561905359    3.7976180119
C      1.2109492583   -4.6895304664    4.3112899683
C     -0.0122262581   -4.2337957708    3.5824750796
O     -0.8246551646   -3.3547753637    4.1275659026
O     -0.2715896096   -4.6914768812    2.4847007412
C     -2.6826370306   -4.3431995231    6.3200583211
C     -3.1569569502   -2.9534128812    6.0281636883
O     -2.3073907224   -1.9513271417    5.9434734088
O     -4.3463444179   -2.7408611254    5.8822725340
C     -0.4780484719   -1.1198392711    9.0444943019
C     -0.2734490107   -0.0507793621    8.0218695182
O     -0.2421364683   -0.3456502608    6.7440596731
N     -0.3503957400    1.2655388960    8.3645326390
C     -0.2766584473    1.7904403473    9.7181379641
H      3.4557913351   -3.5784549435    5.4664623357
H      3.9232992809   -3.7447465748    7.1332808163
H      2.7608697055   -5.7506097584    6.2185918579
H      1.9095767293   -5.0772776981    7.6066157498
H     -0.7053689319   -6.0147058461    5.1771640692
H      0.5492227977   -6.8292472806    6.0930395714
H     -0.1184439627   -5.6864122534    8.0941980569
H     -1.5574821565   -6.4381070733    7.4077672857
H     -2.6070968064   -2.9922631693    8.4716347831
H     -2.5123397816   -4.6711296498    9.0540058795
H     -1.0873234921   -3.1013792928   10.3744511541
H     -0.1815617437   -4.3672390991    9.6379250589
H      1.5860811441   -2.2868405744   10.1663874530
H      1.7423169392   -3.6999158421    9.1340774253
H      2.2064402137   -0.8852392463    8.3627021470
H      3.4728659978   -2.1004091966    8.5766401071
H      2.6824691447   -0.2720677631    6.4665402162
H      3.9814476415   -1.3454238132    5.9440537971
H     -1.5847961444   -1.1489597138    9.1290673597
H      1.9748440586   -3.9320775869    4.0551265499
H      1.5687481936   -5.6706036168    3.9288209694
H     -0.1210771399   -0.8150693434   10.0508750975
H     -2.4543053748   -4.7992052379    5.3375949256
H     -3.4981804712   -4.9525593084    6.7677031701
H     -0.2643123067    2.8985711716    9.6800074403
H     -1.1656106759    1.4638996811   10.2963476990
H      0.6511094320    1.4408397088   10.2163179030
La    -0.0818585313   -2.6105181956    6.2193686944
