(written by ASE)

7592 atoms
102 atom types

0.0                      42  xlo xhi
0.0                      42  ylo yhi
0.0                      42  zlo zhi

Masses

1      1.0079999997406976 # H
2      4.0026019989703538 # He
3      6.9399999982147245 # Li
4      9.0121830976816675 # Be
5      10.809999997219188 # B
6      12.010999996910238 # C
7      14.006999996396779 # N
8      15.998999995884349 # O
9      18.998403158112769 # F
10      20.179699994808885 # Ne
11      22.989769274086012 # Na
12      24.304999993747675 # Mg
13      26.981538493059151 # Al
14      28.084999992775295 # Si
15      30.973761990032177 # P
16      32.059999991752747 # S
17      35.449999990880691 # Cl
18      39.947999989723606 # Ar
19      39.098299989942184 # K
20      40.077999989690163 # Ca
21      44.955907988435349 # Sc
22      47.866999987686484 # Ti
23      50.941499986895586 # V
24      51.996099986624294 # Cr
25      54.938043985867495 # Mn
26      55.844999985634189 # Fe
27      58.933193984839768 # Co
28      58.693399984901454 # Ni
29      63.545999983653154 # Cu
30      65.379999983181364 # Zn
31      69.722999982064152 # Ga
32      72.629999981316345 # Ge
33      74.921594980726837 # As
34       78.97099997968516 # Se
35      79.903999979445146 # Br
36      83.797999978443443 # Kr
37      85.467799978013886 # Rb
38      87.619999977460253 # Sr
39      88.905839977129475 # Y
40       91.22399997653315 # Zr
41      92.906369976100365 # Nb
42      95.949999975317411 # Mo
43      97.907209974813938 # Tc
44      101.06999997400031 # Ru
45      102.90549997352815 # Rh
46      106.41999997262405 # Pd
47      107.86819997225152 # Ag
48      112.41399997108213 # Cd
49      114.81799997046372 # In
50      118.70999996946252 # Sn
51      121.75999996867793 # Sb
52      127.59999996717562 # Te
53      126.90446996735454 # I
54      131.29299996622564 # Xe
55      132.90545192581081 # Cs
56       137.3269999646734 # Ba
57      138.90546996426735 # La
58      140.11599996395597 # Ce
59      140.90765996375231 # Pr
60      144.24199996289454 # Nd
61      144.91275996272199 # Pm
62      150.35999996132077 # Sm
63      151.96399996090813 # Eu
64      157.24999995954832 # Gd
65      158.92534995911737 # Tb
66       162.4999999581978 # Dy
67      164.93032995757261 # Ho
68      167.25899995697355 # Er
69      168.93421995654265 # Tm
70      173.05399995548285 # Yb
71      174.96679995499079 # Lu
72      178.48999995408445 # Hf
73      180.94787995345217 # Ta
74      183.83999995270821 # W
75       186.2069999520993 # Re
76       190.2299999510644 # Os
77      192.21699995055329 # Ir
78      195.08399994981576 # Pt
79      196.96656894933145 # Au
80      200.59199994839886 # Hg
81      204.37999994742441 # Tl
82      207.19999994669897 # Pb
83      208.98039994624096 # Bi
84      208.98242994624044 # Po
85        209.987149945982 # At
86      222.01757994288724 # Rn
87      223.01973994262946 # Fr
88      226.02540994185622 # Ra
89      227.02774994159839 # Ac
90      232.03769994030961 # Th
91      231.03587994056733 # Pa
92      238.02890993876841 # U
93      237.04816993902071 # Np
94      244.06420993721588 # Pu
95      243.06137993747384 # Am
96      247.07034993644254 # Cm
97      247.07030993644256 # Bk
98      251.07958993541121 # Cf
99      252.08299993515308 # Es
100      257.09510993386374 # Fm
101      258.09842993360564 # Md
102      259.10099993334774 # No

Atoms # atomic

     1   7               36.607498      22.619374000000001      12.113903000000001
     2   6      37.614440000000002      21.965274999999998      11.273237999999999
     3   6      38.950586999999999      21.777591999999999               11.970957
     4   7      39.550249000000001               23.034402               12.450517
     5   6      40.131658000000002      23.824031999999999      11.361969999999999
     6   6      40.353591000000002                25.28285      11.731980999999999
     7   7      39.112965000000003      26.015951000000001      12.046231000000001
     8   6      38.357517999999999               26.367321               10.839883
     9   6      36.898815999999997      26.691307999999999      11.131069999999999
    10   7      36.160770999999997      25.551345000000001      11.712320999999999
    11   6      35.861623000000002               24.532598      10.699204999999999
    12   6      35.523499999999999      23.176756000000001               11.292126
    13   6      36.032057000000002      21.701574000000001               13.116541
    14   6      35.137728000000003      22.461397000000002      14.114509999999999
    15   8               35.525278      23.667653999999999      14.379213999999999
    16   8      34.162244999999999      21.895555999999999                14.57446
    17   6               40.536935      22.716602999999999               13.504996
    18   6      39.846843999999997      22.116299000000001      14.744363999999999
    19   8               38.646051      22.566973999999998      14.931950000000001
    20   8      40.445382000000002                21.31898               15.434614
    21   6      39.464022999999997               27.223533               12.821299
    22   6      39.953710000000001      26.890750000000001               14.238676
    23   8      39.461641999999998      25.796237999999999      14.718908000000001
    24   8      40.705145999999999      27.665376999999999      14.796578999999999
    25   6      34.940261999999997      26.004297000000001                12.37448
    26   6      35.242665000000002      26.670577999999999      13.701518999999999
    27   8      36.355319000000001      26.601735000000001               14.232236
    28   7      34.224350999999999      27.331634000000001               14.265997
    29  57      37.743214999999999      24.447420999999999      13.894083999999999
    30   1      37.258842000000001      20.981286999999998      10.930949999999999
    31   1      37.744314000000003      22.567326999999999               10.370708
    32   1      38.819583000000002      21.127158999999999      12.835400999999999
    33   1      39.637706000000001      21.254722000000001      11.291036999999999
    34   1      41.092193000000002               23.394776      11.041021000000001
    35   1      39.466146000000002      23.755904000000001      10.498466000000001
    36   1      40.900466000000002      25.777121000000001               10.917185
    37   1      40.994036000000001      25.339739000000002               12.612399
    38   1      38.806829999999998               27.228161               10.319977
    39   1               38.417358      25.531987000000001      10.139530000000001
    40   1      36.836604000000001               27.522886               11.833459
    41   1      36.420425000000002               27.047677               10.205714
    42   1      35.034227999999999      24.854192999999999               10.046847
    43   1               36.735028      24.442848999999999      10.052073999999999
    44   1      34.631506999999999      23.247903999999998               11.913285
    45   1      35.267533999999998      22.490894000000001               10.471389
    46   1      35.567245999999997      32.952607999999998      9.6416609999999991
    47   1      36.771875999999999      32.683933000000003      8.3833350000000006
    48   1      34.344779000000003      26.681388999999999               11.741652
    49   1      41.310048000000002      22.031445999999999      13.141139000000001
    50   1      41.015121000000001      23.640388000000002               13.838113
    51   1      34.315440000000002      25.141632000000001               12.618307
    52   1      40.213023999999997      27.828921999999999                12.30029
    53   1      38.566113000000001      27.831095999999999      12.950984999999999
    54   6      34.290464999999998               27.910349      15.600683999999999
    55   1      33.321781999999999      27.299334999999999               13.815731
    56   1               30.288159      27.403410000000001      16.493138999999999
    57   1      34.017246999999998      25.302230000000002      16.114232999999999
    58   6      32.914740000000002               27.871983      16.264268999999999
    59   6      32.238740999999997      26.522922999999999      16.304252999999999
    60   1      33.056600000000003      28.274211000000001                17.27112
    61   1      32.265337000000002      28.594757000000001      15.759093999999999
    62   1      30.372181999999999               23.118354      16.414062999999999
    63   6      30.848372999999999      26.476165999999999               16.436131
    64   6               32.940075                25.31879      16.222418999999999
    65   1      29.101925000000001               25.240565      16.590088999999999
    66   6      32.273207999999997               24.098703               16.256269
    67   1      32.841909000000001      23.185593000000001               16.133426
    68   6      30.181308999999999      25.259377000000001      16.492214000000001
    69   6      30.892043000000001      24.068418999999999               16.396307
    70   6      34.789740999999999      29.366613000000001      15.602937000000001
    71   1      35.014080999999997      27.332405000000001      16.179078000000001
    72   8               34.828992      30.000935999999999      16.642348999999999
    73   7      35.161611999999998      29.857973999999999               14.401415
    74   6      35.413054000000002               31.260151               14.184239
    75   6               36.239449      31.465834000000001      12.910811000000001
    76  16      35.521673999999997               30.554907               11.483241
    77   7      34.162120000000002      33.292149999999999               14.574783
    78   6      34.092590000000001                32.03875               14.084002
    79   8      33.108564999999999      31.557338000000001      13.545275999999999
    80   1      38.712257000000001               28.016524      6.9757429999999996
    81   1      37.250629000000004      31.090662999999999               13.066039
    82   1      36.283527999999997      32.526479999999999      12.662862000000001
    83   6               33.100296      34.270046000000001               14.446496
    84   6      33.778173000000002      35.555897000000002               13.980089
    85   8      29.996248000000001      29.764057999999999      17.729983000000001
    86   6      32.378070000000001      34.521633000000001      15.787413000000001
    87   8      34.764020000000002      35.985278000000001               14.572203
    88   1               32.467388      30.625806999999998      18.331537999999998
    89   7      33.250731000000002      36.146248999999997               12.898054
    90   1      29.877728999999999               33.535905               15.300782
    91   1               30.574468      29.326312999999999      18.361782000000002
    92   6      31.883870000000002      31.271681999999998      17.685928000000001
    93   6      30.592621999999999      30.918133000000001      17.308672000000001
    94   1      33.460478999999999                32.69341      17.492546000000001
    95   1      32.395209999999999      33.883467000000003                13.70881
    96   6      31.737919000000002      33.284180999999997               16.346612
    97   1      33.118661000000003               34.920876      16.485476999999999
    98   1      31.631893999999999      35.304580000000001               15.620253
    99   6      30.444766999999999      32.908653000000001               15.980198
   100   1               28.863225      31.452449999999999      16.172616000000001
   101   6      32.445968999999998      32.444985000000003                17.20439
   102   6      29.867398999999999      31.741593000000002      16.454671000000001
   103   6      33.828544000000001      37.330089999999998      12.310086999999999
   104   6      33.592973000000001      38.623249999999999               13.148698
   105   1      32.412736000000002      35.798138999999999                12.45487
   106   1      32.863160999999998      37.969706000000002               15.898253
   107   6      33.247577999999997      37.433276999999997      10.904362000000001
   108   1      30.464131999999999               38.382241               16.496074
   109   6      32.301794000000001      38.691015999999998      13.883139999999999
   110   1      34.910561000000001      37.182445000000001      12.250052999999999
   111   8      32.093215999999998      37.118769999999998               10.667389
   112   1      34.404569000000002      38.667380000000001      13.874822999999999
   113   1      33.706411000000003      39.482987000000001                12.48208
   114   6               32.135202      38.345202999999998               15.198525
   115   6      30.116319000000001      39.023609999999998                14.50788
   116   6      31.017921000000001      39.126944000000002               13.416179
   117   7               30.825723      38.534373000000002               15.573979
   118   1      28.104057000000001      39.303193999999998               15.252039
   119   6      28.336027000000001      39.850357000000002      13.181494000000001
   120   1      27.298255999999999                40.13626      13.069057000000001
   121   1      31.193988000000001      39.653055999999999               11.329995
   122   1      28.819071999999998      40.305059999999997                11.13639
   123   6      28.776976999999999      39.381925000000003      14.406765999999999
   124   6      30.537551000000001      39.594005000000003               12.188532
   125   6      29.205369000000001      39.949691999999999               12.083142
   126   7               34.105328      37.928136000000002      9.9742730000000002
   127   8      34.075733999999997      35.406604999999999      9.0794090000000001
   128   1      35.076746999999997      37.910651999999999      10.237804000000001
   129   6      33.838622999999998      37.758451000000001      8.5535630000000005
   130   6      32.666483999999997      38.613514000000002      8.0637170000000005
   131   6      32.855139999999999      40.104573000000002      8.3316189999999999
   132   6      33.718570999999997      36.240178999999998      8.2598059999999993
   133   7      33.266691000000002               35.911344      7.0364100000000001
   134   6      31.717130999999998      40.963320000000003                7.781428
   135   1      32.956623999999998      40.277050000000003      9.4081510000000002
   136   1      33.799128000000003      40.428215000000002      7.8803000000000001
   137   6      30.428187999999999      40.871166000000002      8.5862639999999999
   138   1      32.018006999999997      42.012638000000003      7.7430289999999999
   139   1      31.507964000000001      40.670124999999999      6.7450979999999996
   140   7      29.384495000000001      41.656095999999998      7.9288720000000001
   141   1      30.156092999999998      39.814262999999997      8.7404550000000008
   142   1               30.591286      41.299014999999997      9.5805369999999996
   143   1      29.197393999999999      41.275378000000003      7.0085160000000002
   144   1      28.512875999999999      41.593696000000001      8.4395349999999993
   145   6      33.013731999999997               34.534188      6.6651379999999998
   146   1      32.856267000000003      36.604385000000001      6.4321739999999998
   147   6      34.209133999999999      33.633927999999997      7.0022529999999996
   148   1               33.002882      32.337364999999998                4.913017
   149   6      32.764397000000002      34.475828999999997      5.1564300000000003
   150   8      35.320832000000003      33.838788000000001      6.5474410000000001
   151   6      35.385978999999999      30.847401999999999      6.8523829999999997
   152   7      33.903869999999998      32.549393999999999      7.7519520000000002
   153   7                36.62247      30.333549000000001      6.8729310000000003
   154  16      36.898162999999997               30.980563               10.028485
   155   1      34.386577000000003      30.822441000000001      8.7184830000000009
   156   6      34.908244000000003      31.576927999999999      8.1212579999999992
   157   1      32.565553999999999      38.475380000000001      6.9829340000000002
   158   8      34.632883999999997      30.714241000000001      5.8846189999999998
   159   6      36.012155999999997      32.196199999999997      8.9968470000000007
   160   1      31.749072000000002      38.245868999999999      8.5234810000000003
   161   6      37.187778999999999      29.637032000000001      5.7269220000000001
   162   1      36.914284000000002                30.18995                4.822654
   163   6               32.270578      33.116815000000003      4.7018459999999997
   164   8      31.799894999999999      35.507502000000002      4.8877560000000004
   165   1      32.116202999999999      34.172823999999999      7.1844450000000002
   166   1               31.566561      35.460107999999998      3.9562390000000001
   167   1      31.330304000000002               32.869183      5.1983649999999999
   168   1      32.092243000000003      33.123116000000003      3.6242049999999999
   169   1               37.141855      30.265204000000001                 7.73963
   170   6      38.711391999999996      29.570457000000001                5.864916
   171   1      34.923071999999998               29.099076      5.3629639999999998
   172   1               40.441865      30.832329000000001                 5.95601
   173   6      36.585419999999999      28.225346999999999      5.6344729999999998
   174   8               39.049664      28.919274000000001      7.0857159999999997
   175   8      37.246512000000003      27.229019999999998                 5.80802
   176   6               39.362803      30.936337000000002      5.8540910000000004
   177   8      35.286700000000003      28.176839000000001      5.3772390000000003
   178   1      34.746200999999999      38.095193000000002      8.0405619999999995
   179   1      39.075786999999998      28.976082000000002      5.0192100000000002
   180   1               39.152251      31.456281000000001      4.9196499999999999
   181   1      39.001778000000002      31.554217999999999      6.6766300000000003
   182   1      34.953364000000001      29.305942000000002      13.584676999999999
   183   1      35.999730999999997      31.633327999999999               15.027918
   184   1      35.009037999999997      33.623936999999998      15.011571999999999
   185   1      33.009658000000002      32.512920999999999      8.2088249999999992
   186   1      33.713945000000002      34.720539000000002      4.6645969999999997
   187   1      35.454464999999999      20.899328000000001               12.643907
   188   1      36.844130999999997      21.259260000000001               13.697469
   189   8               30.939532               13.036144      24.791948999999999
   190   1      30.931263000000001               13.953319               25.075581
   191   1      31.298363999999999               12.557413      25.543413000000001
   192   8      10.007664999999999      8.7518779999999996      16.713329000000002
   193   1      9.8858010000000007      9.4365260000000006               17.375245
   194   1      9.6717010000000005      7.9544990000000002      17.130410999999999
   195   8      39.510221000000001      17.680578000000001      32.225366000000001
   196   1      40.125906999999998      18.385463999999999      32.439355999999997
   197   1      39.093907999999999               17.464955      33.063716999999997
   198   8      38.410863999999997      14.750470999999999      4.3168569999999997
   199   1      38.228174000000003               14.818156      5.2569470000000003
   200   1      38.094095000000003                13.87659      4.0747200000000001
   201   8      39.777589999999996               40.533631               11.293065
   202   1      40.004640000000002               39.863543      11.942030000000001
   203   1      40.541192000000002      40.570782000000001      10.711537999999999
   204   8                7.917262      18.494343000000001      34.966656999999998
   205   1      7.9105259999999999      17.741493999999999      34.370922999999998
   206   1      7.2395659999999999      19.079574999999998      34.618988000000002
   207   8               11.791124               18.528959     0.58312299999999995
   208   1               11.134929               18.951214    0.023806999999999998
   209   1               12.239511               17.911254  9.9999999999999995e-07
   210   8      12.017231000000001      30.585439000000001      35.653022999999997
   211   1                11.91066      29.641317000000001      35.790869999999998
   212   1      12.893337000000001      30.779070000000001      35.995933000000001
   213   8      33.088273999999998      26.165883999999998      19.391058000000001
   214   1      33.296880999999999      27.050875000000001      19.082837999999999
   215   1      32.478918999999998                26.30489               20.120445
   216   8               15.940927     0.34299099999999999      37.770800000000001
   217   1      16.164608000000001     0.94674800000000003      38.482959000000001
   218   1      15.445932000000001     0.88156000000000001      37.148252999999997
   219   8      1.6497200000000001      12.888946000000001      32.750255000000003
   220   1      2.2887940000000002      13.599940999999999      32.661963999999998
   221   1      1.1861159999999999               13.085281      33.568280999999999
   222   8               36.620663      20.087343000000001      38.630343000000003
   223   1      37.170575999999997               19.914469      37.862597000000001
   224   1      36.185220999999999      20.919557000000001      38.429214999999999
   225   8      24.148572000000001               27.492918      7.8579340000000002
   226   1      24.528638999999998      26.614485999999999      7.7828869999999997
   227   1      24.868853000000001      28.084890999999999      7.6268390000000004
   228   8      16.342227999999999                8.017989                1.631459
   229   1               15.680322      7.3238390000000004      1.5894820000000001
   230   1               16.593104      8.0525029999999997      2.5580180000000001
   231   8               19.410128     0.46743000000000001      32.178184000000002
   232   1      18.455376999999999                0.499307      32.273888999999997
   233   1      19.576090000000001     0.85216599999999998               31.313848
   234   8      18.347933999999999      39.117510000000003      26.234836000000001
   235   1      18.290856999999999               38.159222               26.222496
   236   1      17.914991000000001      39.371625000000002      27.053754999999999
   237   8      30.978006000000001      21.597992000000001      7.6281530000000002
   238   1      30.345832999999999      21.599634999999999                6.905602
   239   1      31.815121000000001      21.377223000000001      7.2120509999999998
   240   8      39.867854000000001      37.883985000000003      19.887174999999999
   241   1      39.033909000000001      37.448092000000003      19.696760000000001
   242   1      40.261612999999997      37.351779000000001      20.583131000000002
   243   8      28.110389000000001      26.941400999999999      17.606477999999999
   244   1      27.677637000000001      26.833127000000001      16.756343999999999
   245   1               27.501794               27.481676                18.11673
   246   8      17.158467000000002      13.361865999999999      3.6827899999999998
   247   1               16.397779      13.898222000000001                3.918164
   248   1      17.182780999999999               12.675065      4.3538750000000004
   249   8      16.014783999999999      29.579830999999999      34.346004000000001
   250   1               15.892521      29.966671999999999      33.475872000000003
   251   1                15.14367               29.618883      34.748840000000001
   252   8               13.336378      20.295601000000001      25.284569999999999
   253   1      12.880038000000001      20.030581999999999               26.086596
   254   1      12.758470000000001      20.951930999999998      24.887212000000002
   255   8      8.2728669999999997      2.7376710000000002      28.151191000000001
   256   1      8.6681240000000006                3.397405      27.576519000000001
   257   1      9.0198719999999994      2.2363149999999998      28.487742999999998
   258   8               12.308996      36.794840000000001      18.336843999999999
   259   1      12.677462999999999      36.779215000000001      19.223248000000002
   260   1                12.44243      35.902479999999997               18.007403
   261   8      41.124291999999997      4.2944490000000002      20.463996000000002
   262   1               40.775582      3.4021279999999998      20.526361000000001
   263   1                      42                4.182315      20.085574000000001
   264   8      25.589300000000001               22.031063      19.969173000000001
   265   1      25.215935000000002      22.379919000000001      19.156386000000001
   266   1      26.489394999999998               21.791477               19.734503
   267   8      9.5910899999999994      41.031035000000003      32.180261000000002
   268   1               10.125721      40.900765999999997      31.393543000000001
   269   1      10.067676000000001               41.694775               32.685195
   270   8      17.517738000000001                16.60943      37.710259000000001
   271   1      17.046330999999999      16.787354000000001      36.893042000000001
   272   1                 17.6387      15.656537999999999      37.713127999999998
   273   8      10.762378999999999      37.201981000000004      22.845697999999999
   274   1               10.001875      37.360177999999998      23.409908999999999
   275   1               10.956042               36.268476               22.962764
   276   8               20.904166      8.6783140000000003      40.419870000000003
   277   1      21.623640000000002      8.3452020000000005      40.961274000000003
   278   1      20.853245999999999      9.6120800000000006      40.639254000000001
   279   8               11.880419      14.488023999999999               36.076276
   280   1               11.174166                14.30584      36.700567999999997
   281   1               11.717119      15.389609999999999      35.787973999999998
   282   8      17.250084000000001      40.862828999999998      36.729196999999999
   283   1      17.603121999999999               40.009242      36.467514999999999
   284   1               17.981845      41.297016999999997      37.174897999999999
   285   8      41.664166000000002                 1.12706               19.866522
   286   1      41.324556999999999     0.29744500000000001               19.522824
   287   1      41.197490999999999                 1.80128      19.366237000000002
   288   8      32.957355999999997      4.3933030000000004      36.678361000000002
   289   1      33.642302999999998      3.8916780000000002      36.230092999999997
   290   1               33.436954      4.9591029999999998      37.288687000000003
   291   8               25.325094               27.076003      40.111130000000003
   292   1      25.581420999999999      26.860707000000001      39.211314000000002
   293   1      24.751197000000001      26.352423999999999      40.375171000000002
   294   8      38.202919000000001      33.336376000000001      40.795485999999997
   295   1      39.152209999999997      33.192962000000001      40.793622999999997
   296   1      38.045509000000003      33.880509000000004      41.571233999999997
   297   8               13.194371               23.661973               17.225144
   298   1               13.247914      24.609220000000001               17.372052
   299   1               12.526187               23.564021      16.542079000000001
   300   8      14.706262000000001      6.7363479999999996      19.461314999999999
   301   1               14.004521      6.5430330000000003      18.835284999999999
   302   1               15.325638      7.2777989999999999      18.965488000000001
   303   8      6.2347270000000004      35.734690000000001      11.336494999999999
   304   1      6.3804400000000001                35.28998               12.174783
   305   1      7.0275259999999999      35.548822999999999      10.827019999999999
   306   8               39.314667               21.349912      4.2598979999999997
   307   1      38.408755999999997      21.301784999999999                3.945678
   308   1      39.452786000000003      22.281783000000001      4.4474660000000004
   309   8      21.847563000000001      35.479939999999999      34.448582000000002
   310   1      21.831994999999999      34.521189999999997      34.400818999999998
   311   1      22.083832000000001      35.669449999999998      35.360121999999997
   312   8      27.733934999999999      26.520008000000001               10.126752
   313   1      27.533028000000002      26.994343000000001      9.3165859999999991
   314   1               28.263558      27.136379999999999               10.638833
   315   8      9.8566549999999999               35.114874      41.937900999999997
   316   1               10.610223      35.625027000000003               41.631954
   317   1                10.04777      34.216073999999999      41.658121000000001
   318   8               22.395146               41.996637      18.699190999999999
   319   1      23.248059000000001      41.999999000000003      18.258448000000001
   320   1      21.919817999999999      41.267361999999999      18.293158999999999
   321   8      5.8552390000000001      19.911055000000001      16.828738999999999
   322   1      5.7114190000000002               20.854284      16.722148000000001
   323   1      5.3813700000000004               19.687078      17.633676000000001
   324   8      38.670949999999998      21.537555999999999      20.300201999999999
   325   1      37.799492000000001               21.940396      20.302810000000001
   326   1               38.607329      20.827518999999999      20.943974000000001
   327   8               30.701812      33.977679999999999      39.545695000000002
   328   1                29.81634               34.341203      39.471435999999997
   329   1      31.204159000000001      34.432549000000002      38.864972000000002
   330   8      39.420836999999999      33.677669000000002               28.403399
   331   1      40.329622000000001      33.946036999999997      28.557714000000001
   332   1      38.908956000000003               34.200049      29.026084999999998
   333   8               16.369232               26.497557                5.741117
   334   1               15.422283      26.607558000000001      5.8547529999999997
   335   1               16.706343               27.394033      5.6681179999999998
   336   8               21.766638      17.814174000000001      2.6966549999999998
   337   1      20.852247999999999               17.654031      2.4517639999999998
   338   1      22.079899999999999      18.448484000000001      2.0469170000000001
   339   8      9.3456489999999999                 12.8813               37.889668
   340   1      9.5084739999999996      13.550209000000001      38.558827000000001
   341   1      10.216279999999999      12.679062999999999      37.537896000000003
   342   8      31.251145999999999               38.815306      20.011666999999999
   343   1      32.207520000000002      38.893144999999997               19.979827
   344   1                31.08888      38.139327999999999      20.674513000000001
   345   8      6.5918219999999996      18.479856000000002      30.195468999999999
   346   1      7.3991530000000001      18.719042000000002      30.656697000000001
   347   1      6.6661950000000001      17.531732000000002               30.060668
   348   8      39.865217000000001                12.14509      23.957523999999999
   349   1               39.131152               12.052977      24.569396999999999
   350   1      40.145541000000001               13.058394      24.057206999999998
   351   8      38.584040000000002      21.515232000000001      17.983599999999999
   352   1      37.830132999999996               20.965214               17.758149
   353   1      39.203738999999999               20.911158      18.400386000000001
   354   8      31.774957000000001      24.242636000000001      18.279996000000001
   355   1      31.765547000000002               25.123009      17.897137000000001
   356   1               31.534457      24.380030999999999      19.199736999999999
   357   8               13.374782               26.013465      4.6616569999999999
   358   1      12.523167000000001               25.582051      4.5598739999999998
   359   1               13.258189      26.596177000000001      5.4163059999999996
   360   8               26.617518                       0      38.390295000000002
   361   1      26.871639999999999                0.761042      38.917516999999997
   362   1      26.891629999999999                0.225938      37.497850999999997
   363   8      41.296835999999999      33.381956000000002               36.005516
   364   1      40.758915999999999      32.589892999999996      36.076250000000002
   365   1                      42      33.250663000000003      36.646580999999998
   366   8               28.475334      2.0139860000000001               31.113598
   367   1      28.106718999999998      2.7408290000000002      31.621089999999999
   368   1      29.411342000000001      2.2195019999999999      31.048062999999999
   369   8      32.850498000000002      13.491683999999999      32.858544000000002
   370   1      33.717539000000002               13.849665      32.654057999999999
   371   1      32.286487000000001               14.264906      32.940151999999998
   372   8      28.602654999999999      23.457277000000001      8.8389430000000004
   373   1      28.316026999999998      22.630158000000002                 8.44468
   374   1      27.901586999999999      24.078437999999998      8.6260940000000002
   375   8      18.239239999999999      32.620533000000002      41.312629999999999
   376   1      18.756406999999999      31.927157000000001      40.896104999999999
   377   1      17.472429000000002      32.720959999999998      40.742932000000003
   378   8                       0      30.744700999999999               31.736435
   379   1                 0.48979      30.022632999999999      31.335875000000001
   380   1     0.62168199999999996      31.142334000000002      32.351286999999999
   381   8      18.807048000000002               38.358801      8.3340999999999994
   382   1      17.961760000000002      38.090220000000002      7.9665710000000001
   383   1      19.234273999999999      37.533611999999998      8.5773740000000007
   384   8      27.645344999999999      38.114127000000003      3.3082259999999999
   385   1      28.344132999999999      37.775810999999997      2.7434590000000001
   386   1      27.138829999999999      37.335616000000002      3.5531839999999999
   387   8      33.667375999999997               12.890687      15.878437999999999
   388   1      33.951073000000001               11.979953               15.987086
   389   1      34.039538999999998               13.348397      16.636486999999999
   390   8      3.1433309999999999                24.72278      22.302230999999999
   391   1      2.4916580000000002      24.370025999999999               21.691813
   392   1      3.6945410000000001      23.968274999999998               22.524791
   393   8      20.810891999999999      38.865540000000003               19.689577
   394   1      21.050342000000001      38.163333999999999      20.298916999999999
   395   1      20.463823000000001                38.40605      18.920777000000001
   396   8               11.484823      41.386110000000002               22.308173
   397   1                12.32948      41.788339000000001               22.092558
   398   1               11.079074                      42      22.925546000000001
   399   8      41.999999000000003      39.173957999999999                20.01793
   400   1      41.511107000000003      38.838019000000003      19.263044000000001
   401   1      41.900308000000003      38.493524999999998               20.688537
   402   8      5.8230519999999997      39.794656000000003      29.462693000000002
   403   1      4.9039469999999996      39.942117000000003      29.227692000000001
   404   1      5.8622310000000004      38.864718000000003      29.700012000000001
   405   8               12.964831      9.0409970000000008      36.293267999999998
   406   1               12.217755      8.5703499999999995               35.916314
   407   1      13.642428000000001      8.3682269999999992      36.397601999999999
   408   8      31.295991000000001      25.266732999999999      38.869173000000004
   409   1      31.253354999999999      25.957038000000001      38.203299999999999
   410   1      30.927517000000002               25.673009               39.657722
   411   8      22.855360000000001      19.778297999999999      33.262430000000002
   412   1      22.126574000000002      20.009734999999999      33.842975000000003
   413   1                22.48893      19.854399999999998      32.377794999999999
   414   8     0.48904799999999998      1.3913759999999999      26.739450000000001
   415   1                1.409265      1.6453850000000001      26.637450000000001
   416   1    0.079559000000000005                2.146369               27.169504
   417   8      12.612731999999999               17.845558      16.610859999999999
   418   1      12.039320999999999      17.334420000000001      17.186762000000002
   419   1      12.257706000000001      17.699604000000001      15.730351000000001
   420   8      28.141794000000001      3.1697030000000002               39.055062
   421   1      28.194179999999999                3.789647      39.786259999999999
   422   1      28.333124999999999      2.3161749999999999      39.451954999999998
   423   8                      42               30.528126               28.591759
   424   1      41.368892000000002      30.429089000000001               29.308432
   425   1      41.970393000000001      31.463550000000001      28.375547000000001
   426   8      34.045608000000001      30.832494000000001      40.778711999999999
   427   1      34.729326999999998      31.422211000000001      41.105035999999998
   428   1      34.510848000000003      30.227899000000001      40.195051999999997
   429   8     0.56110599999999999      38.869146999999998      22.564143999999999
   430   1      1.0649329999999999      38.154401999999997      22.960405000000002
   431   1      1.2279139999999999      39.465612999999998      22.214517000000001
   432   8      14.574522999999999      15.020884000000001                1.967039
   433   1               14.548714                14.09938      1.6989160000000001
   434   1               14.596314      14.989421999999999      2.9268179999999999
   435   8      6.6240379999999996               31.340263      18.875965000000001
   436   1      7.0564499999999999               31.843785      19.569659000000001
   437   1      5.8238940000000001               31.004877      19.288188999999999
   438   8      26.509938999999999      30.014842999999999                11.79222
   439   1      26.948398999999998               30.823981      12.065668000000001
   440   1      27.062957999999998      29.670874000000001               11.086176
   441   8      6.9607070000000002               37.449731               14.649547
   442   1      7.6741979999999996      38.026710000000001      14.931950000000001
   443   1      7.1995709999999997      37.195678000000001      13.754536999999999
   444   8               15.267344      28.795339999999999      25.951309999999999
   445   1      14.892436999999999               28.880198      26.831064999999999
   446   1      15.888132000000001      28.066171000000001      26.025995000000002
   447   8      33.917479999999998      9.5339670000000005      5.5705530000000003
   448   1      33.671598000000003      10.263127000000001      6.1446550000000002
   449   1      33.529893999999999      9.7583749999999991      4.7208110000000003
   450   8      31.663934000000001                14.46158      15.135877000000001
   451   1      30.704084000000002               14.472388               15.118629
   452   1      31.883272999999999               14.188908      16.030404999999998
   453   8      2.6106829999999999      8.1335490000000004               13.910275
   454   1      2.7803619999999998      8.1669730000000005      12.965915000000001
   455   1      2.6726009999999998      9.0484629999999999               14.196178
   456   8     0.66834700000000002      2.0661499999999999      10.405006999999999
   457   1                       0                1.514994      10.818847999999999
   458   1     0.20196800000000001      2.5133619999999999      9.6942789999999999
   459   8      26.308278999999999               17.343487      5.8338460000000003
   460   1                25.43674      17.013196000000001      6.0641769999999999
   461   1      26.153089999999999      17.922816999999998      5.0835559999999997
   462   8      10.971183999999999      39.585062000000001      38.426054000000001
   463   1               10.659896      40.314413999999999      38.967227999999999
   464   1               10.711231      39.823230000000002      37.532553999999998
   465   8      14.533937999999999      36.812511999999998      7.7920230000000004
   466   1               13.808736               37.423527      7.9419129999999996
   467   1               14.985654               36.766365      8.6384659999999993
   468   8               11.824705               31.816913      21.997776999999999
   469   1               10.925998      31.598562000000001               21.740147
   470   1               12.024607      31.203182000000002      22.709123999999999
   471   8      19.268443999999999      9.1277810000000006      4.0166750000000002
   472   1      18.721284000000001      8.3882340000000006      4.2912869999999996
   473   1      18.945156000000001      9.3510200000000001      3.1401520000000001
   474   8      41.767296999999999      26.751698999999999      24.462841000000001
   475   1      41.999845999999998      25.830984000000001      24.604009000000001
   476   1      41.341450000000002               26.760759               23.601903
   477   8      33.319367999999997      36.795124999999999      26.742812000000001
   478   1               32.413857               36.750017      27.058630000000001
   479   1      33.261147000000001      36.549607000000002               25.816004
   480   8      41.301063999999997      9.7230969999999992               11.594002
   481   1      41.365236000000003      9.1126609999999992               12.332227
   482   1      40.676260999999997      9.3073709999999998      10.994472999999999
   483   8      9.5252839999999992      9.6359250000000003      5.4113189999999998
   484   1      9.6450700000000005      8.7138690000000008                5.650461
   485   1      8.8921469999999996      9.6146689999999992      4.6892889999999996
   486   8      40.352997000000002      10.535247999999999      37.568137999999998
   487   1      40.095337999999998      11.355634999999999               37.995106
   488   1      41.139991000000002               10.764092      37.067225999999998
   489   8      20.374791999999999      28.867840999999999               25.899849
   490   1      21.036252999999999      28.191175999999999               26.062082
   491   1      20.870698999999998               29.601844               25.528423
   492   8               37.838054      40.057786999999998      29.159455000000001
   493   1      37.663680999999997      39.282747999999998      28.620349999999998
   494   1      38.113653999999997      39.701123000000003      30.007674999999999
   495   8      26.883714000000001      34.619221000000003               26.582922
   496   1               26.107305      34.061452000000003      26.494565000000001
   497   1               27.544618      34.197575000000001      26.027888000000001
   498   8      7.8912909999999998      2.2427090000000001      31.561450000000001
   499   1      8.7951119999999996      2.1026919999999998      31.853387000000001
   500   1      7.7132649999999998      1.5038009999999999      30.974112999999999
   501   8               38.161375      25.826332000000001      33.597374000000002
   502   1      38.617133000000003      25.623730999999999      32.777031000000001
   503   1      38.863463000000003      26.067588000000001      34.206890000000001
   504   8      33.117956999999997      31.459389999999999               23.198172
   505   1      32.844512999999999      30.552171999999999      23.352796999999999
   506   1      33.635466999999998               31.688029      23.974412000000001
   507   8                1.369629      30.117422000000001               13.563345
   508   1                1.484305               31.037253               13.813314
   509   1                2.139459      29.919101000000001               13.024205
   510   8      19.531261000000001      3.2169989999999999      1.0028999999999999
   511   1                19.48959                 3.90829                 1.66781
   512   1      19.602641999999999      2.4035929999999999      1.5087820000000001
   513   8      25.941756999999999      14.457599999999999      25.081862999999998
   514   1      25.397739999999999      13.936559000000001      24.486643000000001
   515   1      25.500416999999999      15.309711999999999      25.123896999999999
   516   8      19.865953000000001      18.363150999999998      7.0470540000000002
   517   1      19.068750999999999               18.361466                6.512086
   518   1      20.222480000000001               19.248732      6.9408640000000004
   519   8      26.730122999999999      20.351880999999999      6.8113789999999996
   520   1      27.537483000000002      20.857057999999999      6.9325850000000004
   521   1      26.546582000000001      19.983820000000001      7.6794140000000004
   522   8               14.187649      21.698388000000001      19.179881000000002
   523   1      13.670488000000001                21.20823               19.823321
   524   1               14.710623      21.027650000000001      18.733506999999999
   525   8      37.481721999999998      17.605201000000001               39.508944
   526   1      37.746116999999998               16.868364      38.953163000000004
   527   1      36.677376000000002               17.935247      39.100606999999997
   528   8               19.319675               14.954926     0.65873899999999996
   529   1      18.584959000000001      15.567857999999999     0.57980600000000004
   530   1      19.019804000000001      14.304423999999999      1.2987139999999999
   531   8      8.2273929999999993               41.449182               27.642799
   532   1      8.8191089999999992      41.441169000000002      26.886800999999998
   533   1      8.6749489999999998                      42      28.290050999999998
   534   8               13.705601               11.369043      32.169531999999997
   535   1      14.556112000000001               11.282912      31.732568000000001
   536   1               13.163164               10.682698      31.772877000000001
   537   8               13.636376      12.144190999999999      39.918632000000002
   538   1               12.816082               12.578897      40.163319999999999
   539   1      13.995706999999999               12.691348      39.215679000000002
   540   8               16.683736      27.554366000000002     0.21726300000000001
   541   1      17.441192000000001      28.102802000000001                       0
   542   1      16.277467999999999      27.995359000000001     0.96767199999999998
   543   8      17.927886999999998               11.858566               15.743147
   544   1      17.626937999999999               10.959991               15.897154
   545   1      17.634661999999999      12.344352000000001      16.518177999999999
   546   8      31.866216999999999      28.179794000000001               35.451625
   547   1      31.827653999999999               27.221733                35.40307
   548   1               31.812783      28.467244999999998      34.536661000000002
   549   8      39.514363000000003      23.433741000000001      7.4375640000000001
   550   1      38.837511999999997               22.756459      7.3676519999999996
   551   1      39.511169000000002      23.863582999999998      6.5785720000000003
   552   8                23.04702      36.560425000000002      18.624065999999999
   553   1                22.18797      36.895031000000003      18.892016000000002
   554   1      23.321622999999999      37.148411000000003      17.915894000000002
   555   8               31.611767      11.678070999999999      40.164912999999999
   556   1      32.479216000000001               11.274986      40.082576000000003
   557   1      31.499193000000002               12.170577               39.347963
   558   8      16.946059999999999     0.41971799999999998      30.506402999999999
   559   1      16.729544000000001    0.053137999999999998               31.366906
   560   1      17.443422999999999                1.217058      30.705200999999999
   561   8               12.524963      9.6104299999999991               14.031577
   562   1               12.765179      10.469272999999999      14.387119999999999
   563   1               11.767785      9.7889300000000006                13.46814
   564   8      17.446843999999999                41.66534               13.507189
   565   1      16.675765999999999      41.157026000000002      13.769450000000001
   566   1      17.756558999999999      41.233127000000003               12.707245
   567   8      26.874386000000001      16.084302999999998      4.1068300000000004
   568   1      27.713280000000001                16.53247      3.9759579999999999
   569   1      26.534037000000001               15.951212      3.2185220000000001
   570   8     0.76268899999999995      5.5002829999999996      34.467146999999997
   571   1                       0      5.3640210000000002      35.034123999999998
   572   1     0.40430199999999999      5.9240120000000003      33.683148000000003
   573   8      30.736087000000001               13.951058               37.063972
   574   1      30.751252000000001               14.907631      37.144373000000002
   575   1      30.619879000000001               13.637903      37.964567000000002
   576   8      9.6282840000000007               37.235422      29.601683000000001
   577   1                8.755725      37.632266000000001      29.548003000000001
   578   1               10.036745      37.442486000000002               28.757334
   579   8               29.867352               10.800105      33.719166000000001
   580   1      28.937647999999999      10.682994000000001      33.928117999999998
   581   1      30.329989000000001                10.34151      34.425069999999998
   582   8      28.897293999999999                2.932404      20.316182999999999
   583   1                29.28641                3.769879      20.053599999999999
   584   1                28.30714      3.1599349999999999      21.039086000000001
   585   8      41.382778000000002      33.284427999999998      38.757952000000003
   586   1      41.332931000000002      34.203048000000003      39.032499999999999
   587   1      40.506374999999998      32.934265000000003      38.936684999999997
   588   8      8.1944990000000004      23.230823999999998      40.081988000000003
   589   1      8.8514119999999998      23.802658000000001      40.485962999999998
   590   1      8.6854049999999994      22.444597000000002      39.829993999999999
   591   8      41.726892999999997      1.5186269999999999      31.258199000000001
   592   1      41.667039000000003      2.0022890000000002               30.431027
   593   1               41.072913                1.934671      31.825524999999999
   594   8      36.487274999999997               32.214734      25.027636999999999
   595   1      35.907542999999997      31.461501999999999      24.892440000000001
   596   1      37.168939000000002      32.114105000000002      24.358419999999999
   597   8               15.068031      5.8268019999999998               21.769375
   598   1               14.789612      6.7338430000000002      21.915949000000001
   599   1      15.821821999999999                5.901262               21.178701
   600   8      2.3727499999999999               30.290004               15.552635
   601   1      2.2206950000000001      31.194607000000001               15.836001
   602   1                3.087793      30.356957000000001      14.914770000000001
   603   8      25.683050999999999      9.6238709999999994                4.006958
   604   1               25.089205      8.9015830000000005      4.2246110000000003
   605   1      25.992979999999999      9.4190520000000006      3.1211609999999999
   606   8               27.915581      6.5837510000000004      34.975906999999999
   607   1               28.830634      6.6983459999999999               35.242874
   608   1      27.579125000000001      7.4790739999999998      34.887383999999997
   609   8      10.092594999999999      38.292205000000003                3.926752
   610   1               10.042686      38.565641999999997      3.0078040000000001
   611   1      10.175902000000001      39.114584999999998      4.4160300000000001
   612   8      7.3677630000000001      4.7896080000000003               32.308315
   613   1      7.4661270000000002      5.7211480000000003      32.518749999999997
   614   1      7.5948099999999998      4.7303139999999999      31.376878000000001
   615   8      38.513986000000003                2.512324      36.630313000000001
   616   1      37.950705999999997      1.7488250000000001               36.776975
   617   1      38.308399000000001      3.1037379999999999      37.358739999999997
   618   8      11.661180999999999      20.572863999999999      1.0705549999999999
   619   1               11.436786      21.451685000000001     0.75583900000000004
   620   1      12.517791000000001               20.389944                0.676346
   621   8      14.604414999999999      29.073101000000001      6.9061060000000003
   622   1               15.449873      28.639261000000001      7.0428819999999996
   623   1      14.325596000000001      28.782457000000001      6.0340809999999996
   624   8      31.631582000000002                3.119542      4.5374739999999996
   625   1      31.288046000000001      3.9941800000000001      4.7342370000000003
   626   1      32.340632999999997      3.2776869999999998                3.909081
   627   8      8.7664869999999997      22.661283000000001      30.198695000000001
   628   1      7.8728160000000003      22.443169000000001      29.923915000000001
   629   1      8.6881509999999995      23.532900999999999               30.594659
   630   8      11.521945000000001      19.424327999999999      39.607067999999998
   631   1      10.918324999999999      20.051846999999999      40.011527999999998
   632   1      12.392986000000001      19.717265000000001      39.886564999999997
   633   8      21.259174999999999      35.314636999999998               17.082452
   634   1      22.101237000000001               34.989176      17.409151999999999
   635   1               20.768151      34.520636000000003               16.856399
   636   8      24.201302999999999      7.7058350000000004      10.908429999999999
   637   1      23.494686999999999      8.2561269999999993               10.562602
   638   1      24.424344999999999      7.1192549999999999               10.181231
   639   8      4.3492329999999999               27.062258      8.4513479999999994
   640   1      3.8203860000000001      26.305596000000001      8.1877049999999993
   641   1      3.8476490000000001               27.822049      8.1451229999999999
   642   8               39.723886     0.39187499999999997      8.5862219999999994
   643   1      40.254174999999996     0.92662999999999995      9.1816680000000002
   644   1      38.859822999999999                0.811361      8.5945719999999994
   645   8               19.631639               10.378161      23.042414999999998
   646   1               18.764764      10.701257999999999      22.785778000000001
   647   1               20.242787               10.867082      22.485552999999999
   648   8      18.447911000000001      19.263788999999999      21.387153999999999
   649   1      18.668924000000001      18.558945000000001               22.000401
   650   1      19.002538999999999      19.999279000000001      21.659338000000002
   651   8      2.6563530000000002               41.326791               38.005772
   652   1      3.4003739999999998      41.671090999999997      37.506157000000002
   653   1      1.9416040000000001      41.278013000000001      37.365932000000001
   654   8      17.382833999999999                0.236708      1.0800719999999999
   655   1      16.452072999999999     0.42372500000000002                1.223015
   656   1      17.789795999999999                 1.10267     0.99560599999999999
   657   8      36.443938000000003               31.099162     0.95830199999999999
   658   1      37.069397000000002               30.405994     0.73459600000000003
   659   1      36.978298000000002      31.773987999999999                1.384579
   660   8      32.764769000000001      18.811240000000002      36.283109000000003
   661   1      33.443066999999999      18.441825999999999      35.712871999999997
   662   1      32.736564000000001      19.742121999999998      36.047938000000002
   663   8               11.142522      29.406497999999999     0.71626800000000002
   664   1               10.989341      30.336977000000001     0.53607800000000005
   665   1      10.345140000000001      29.116396000000002      1.1664509999999999
   666   8               12.198781      11.916251000000001      24.532754000000001
   667   1      11.662349000000001      11.169669000000001      24.809487000000001
   668   1      11.668272999999999      12.355987000000001      23.863548999999999
   669   8      37.827240000000003               36.998027      8.6454850000000008
   670   1      37.103915000000001      36.374467000000003      8.7439590000000003
   671   1               38.378881      36.847099999999998      9.4172080000000005
   672   8                      42      9.1581349999999997      8.0831949999999999
   673   1      41.533549999999998      8.3508040000000001                 8.31203
   674   1      41.487391000000002      9.5336730000000003      7.3628850000000003
   675   8      35.264932000000002      35.493319999999997      20.040493999999999
   676   1      35.932082999999999      36.172234000000003      19.915161000000001
   677   1      34.435930999999997               35.932865      19.835070000000002
   678   8               11.362059      18.601141999999999      36.472365000000003
   679   1      11.285189000000001               19.001922               37.341383
   680   1      10.688872999999999      19.040638000000001               35.946717
   681   8      40.200346000000003      17.315480000000001      25.604217999999999
   682   1      39.713135000000001      18.017378999999998      25.166395000000001
   683   1      40.593753999999997               17.740447      26.370556000000001
   684   8      30.368698999999999      16.554103000000001      7.9890970000000001
   685   1               31.040215      16.382953000000001      7.3246419999999999
   686   1      30.690301999999999      16.104254999999998      8.7744949999999999
   687   8               36.471097      3.1984979999999998      35.666314999999997
   688   1      35.553955999999999      3.2080419999999998      35.382612000000002
   689   1      36.907372000000002                2.612082      35.043078999999999
   690   8      32.195523000000001      29.360793000000001      13.336130000000001
   691   1      32.489556999999998      28.882632000000001      12.557264999999999
   692   1      32.937314999999998      29.305730000000001               13.943875
   693   8      5.9499700000000004      2.5599020000000001      28.730561999999999
   694   1      6.3617359999999996      3.3105180000000001      28.296109000000001
   695   1                6.670439      2.1308919999999998               29.199088
   696   8      39.790849999999999      33.498227999999997      23.590869000000001
   697   1      39.087817000000001      32.844420999999997      23.588284000000002
   698   1      39.570807000000002      34.087825000000002      22.865197999999999
   699   8                25.08053                34.58905               12.670353
   700   1               24.635244      33.742185999999997               12.749528
   701   1      24.415334000000001               35.174453               12.299597
   702   8                3.607904      5.7302939999999998      37.499020000000002
   703   1                3.589194      4.7782270000000002               37.376773
   704   1      4.3356500000000002      5.8782009999999998      38.108241999999997
   705   8      13.807188999999999      10.391780000000001      22.630030000000001
   706   1               14.052697      11.307135000000001      22.783574000000002
   707   1               13.001249               10.272518      23.138832000000001
   708   8      9.9247219999999992               13.903445      22.055890000000002
   709   1      9.2454750000000008      14.362768000000001      22.555261000000002
   710   1               10.149578      14.509772999999999      21.345645000000001
   711   8                18.48807      24.045062999999999      31.048601000000001
   712   1      18.367039999999999      23.301200000000001               30.453837
   713   1               18.347517      24.817793999999999      30.495633000000002
   714   8               12.541423      20.974723000000001               13.224297
   715   1               11.849731      20.664235999999999      12.635327999999999
   716   1               12.194951      21.793309000000001      13.588324999999999
   717   8      34.899554999999999      9.3515560000000004      25.653818000000001
   718   1      35.820599000000001      9.3400130000000008      25.924499999999998
   719   1      34.897696000000003      8.9192940000000007      24.796036999999998
   720   8      36.860339000000003      38.932099999999998      37.634146000000001
   721   1               36.883702      38.522238999999999      38.502012999999998
   722   1      37.779980000000002      38.958495999999997      37.358094000000001
   723   8      11.785608999999999      41.610522000000003      35.514411000000003
   724   1      12.694141999999999      41.815112999999997      35.281098999999998
   725   1               11.266387      41.974718000000003      34.793014999999997
   726   8      20.314202999999999      7.0922749999999999      1.7597769999999999
   727   1      20.436053999999999                7.156663     0.80965600000000004
   728   1                20.60558                7.943657      2.0957680000000001
   729   8      19.998072000000001      30.384329999999999      33.897216999999998
   730   1               19.543104               29.928234      34.609050000000003
   731   1                20.92998               30.285719               34.108086
   732   8               12.283362      32.601329999999997      5.0540209999999997
   733   1               11.890167      33.471367999999998      4.9532449999999999
   734   1               11.979645      32.300607999999997      5.9142330000000003
   735   8      39.583852999999998               12.149079      35.009506999999999
   736   1      38.759965999999999      11.814387999999999      34.647683999999998
   737   1      39.799129999999998               12.902984      34.454596000000002
   738   8      21.461763000000001               12.012632      32.509121999999998
   739   1      21.536093999999999      11.312958999999999               33.162312
   740   1               20.873244               11.653098               31.840525
   741   8      29.722190999999999      5.7863049999999996               20.840505
   742   1      30.205221000000002      5.9489789999999996      20.026904999999999
   743   1               29.688499      6.6432130000000003      21.273188999999999
   744   8      5.4381579999999996      31.521056000000002               11.016648
   745   1      4.7104590000000002      30.950520000000001               10.758448
   746   1      5.8824370000000004      31.038153999999999               11.718121
   747   8      21.626560999999999               19.682551      27.773648000000001
   748   1               22.028986      18.910305000000001               27.369401
   749   1      20.950959999999998      19.323042999999998      28.354130999999999
   750   8     0.71777199999999997      19.661885999999999      2.2445759999999999
   751   1     0.49886599999999998      20.318816999999999                1.579561
   752   1     0.32473999999999997               20.000719                3.052883
   753   8      35.702277000000002                3.375041      30.151603999999999
   754   1                36.64602      3.4663300000000001      30.302403000000002
   755   1               35.547784      3.8345050000000001      29.322347000000001
   756   8      40.579914000000002               15.229803      2.2013850000000001
   757   1      41.140296999999997               15.827793                2.701489
   758   1      41.170341000000001      14.523929000000001                1.926104
   759   8               12.787455               11.407477      27.855678000000001
   760   1      13.723356000000001               11.603895               27.770629
   761   1      12.394989000000001               11.765599      27.055451999999999
   762   8      1.2276849999999999      3.6875810000000002      31.897438999999999
   763   1                1.026508                3.558799      32.827314999999999
   764   1                  1.3331      4.6379029999999997               31.805688
   765   8      36.279569000000002      28.449293000000001      8.3230880000000003
   766   1      36.952070999999997      27.765851999999999      8.3718310000000002
   767   1      35.820211999999998      28.273382999999999      7.4980500000000001
   768   8               40.490333      21.421268999999999      23.076122000000002
   769   1      39.914774999999999      22.188562000000001      23.117584000000001
   770   1      40.702539000000002      21.232531000000002      23.993722000000002
   771   8               13.303951               11.572243      8.6710049999999992
   772   1               13.265685                12.49898      8.4231750000000005
   773   1      12.575912000000001               11.460029      9.2874540000000003
   774   8      6.8600859999999999      4.6933220000000002      8.4889960000000002
   775   1                6.238035                4.162388      7.9861170000000001
   776   1      6.4758979999999999      5.5736860000000004      8.4899459999999998
   777   8      13.504842999999999      33.753700000000002                3.131405
   778   1      14.079985000000001      33.077198000000003                2.766327
   779   1               14.091448      34.312046000000002      3.6479189999999999
   780   8      5.6459200000000003      39.312066000000002      39.531889999999997
   781   1      6.2448880000000004      38.591985000000001      39.321069999999999
   782   1      6.0610929999999996      39.757876000000003               40.274538
   783   8      8.3807019999999994               23.694848      8.3285129999999992
   784   1      7.5943399999999999      23.210059000000001      8.5899280000000005
   785   1      8.0541839999999993      24.564088000000002      8.0826480000000007
   786   8      40.528742000000001               15.923677      29.940836000000001
   787   1      39.912047999999999      16.008817000000001      29.209970999999999
   788   1      40.016230999999998      15.506422000000001      30.637882000000001
   789   8      25.417864999999999                       0      1.4212959999999999
   790   1                24.56503     0.42777399999999999      1.5281020000000001
   791   1      25.910364000000001     0.59049200000000002     0.84561799999999998
   792   8      35.625110999999997      38.027686000000003      35.225706000000002
   793   1      35.253990999999999      38.808444999999999      35.643331000000003
   794   1      34.925457999999999               37.371952               35.281751
   795   8      8.4175199999999997               37.132925      11.502886999999999
   796   1      9.1154630000000001      37.574893000000003                11.01374
   797   1      7.7734529999999999      37.824097999999999      11.676380999999999
   798   8      9.2062089999999994      21.268906999999999      35.682504000000002
   799   1      9.6097020000000004      21.777826999999998      34.975454999999997
   800   1      8.3702050000000003               20.971228      35.314909999999998
   801   8      4.9871429999999997      28.643547000000002                12.19192
   802   1      4.5963289999999999      29.479624000000001               12.456429
   803   1      5.6495040000000003      28.885687000000001                11.53978
   804   8      32.150902000000002      2.6333489999999999               27.033987
   805   1      31.590651000000001      2.9318409999999999      27.754228000000001
   806   1      31.537175000000001      2.2787630000000001      26.385719999999999
   807   8      9.6454690000000003               26.188181               26.564366
   808   1      9.4433620000000005      27.086196000000001      26.837216000000002
   809   1      8.9405439999999992      25.658754999999999      26.945720000000001
   810   8               21.158825      28.632906999999999               40.874364
   811   1      20.947023999999999      28.387291000000001      41.777988999999998
   812   1      20.407585000000001      28.324770999999998      40.361203000000003
   813   8      26.236810999999999      41.438918999999999      9.1818279999999994
   814   1      25.420884000000001      41.282316000000002      8.7007209999999997
   815   1      26.385169999999999      40.625552999999996      9.6707730000000005
   816   8               24.796713      36.919702000000001                13.57131
   817   1      24.668970999999999      37.667464000000002               14.159748
   818   1      25.316037999999999      37.273851000000001      12.845001999999999
   819   8      40.215339999999998      5.9452749999999996      7.4650400000000001
   820   1      41.136021999999997      5.9032790000000004      7.7339349999999998
   821   1      39.736142999999998      6.1123349999999999      8.2805780000000002
   822   8      33.774388999999999               13.439064      18.991745000000002
   823   1      34.252549000000002               14.205028      18.665573999999999
   824   1      32.873173999999999               13.573349      18.687736999999998
   825   8      2.7727919999999999               29.460089      18.344902999999999
   826   1      3.0202559999999998      30.279748000000001      17.910568000000001
   827   1      2.5777510000000001      29.718852999999999               19.249139
   828   8               25.644962      28.809999999999999      37.901212999999998
   829   1      26.569565000000001               28.642215      37.704534000000002
   830   1      25.268947000000001      29.086366999999999      37.061642999999997
   831   8      36.112408000000002      38.034433999999997      21.736045000000001
   832   1      36.986342999999998      38.060882999999997      21.339483000000001
   833   1      35.747089000000003      38.906436999999997      21.566355999999999
   834   8      9.2058739999999997                1.466458               16.439532
   835   1      8.5313490000000005      2.1007250000000002      16.185666999999999
   836   1      8.8052390000000003     0.96571700000000005      17.154648999999999
   837   8      5.3943490000000001               38.990586               16.391987
   838   1      6.2424609999999996               39.334584               16.101993
   839   1      5.0947950000000004      39.620446000000001      17.052430000000001
   840   8      11.347452000000001      12.135165000000001               14.461371
   841   1      11.131762999999999               12.994183      14.831899999999999
   842   1               11.945088               12.331818      13.735561000000001
   843   8      41.136633000000003      27.884326999999999      2.1499450000000002
   844   1      40.466897000000003      28.480789999999999                2.492597
   845   1               41.245089      28.149087999999999                1.233004
   846   8      10.899786000000001      24.197696000000001      19.067360999999998
   847   1      11.822730999999999      24.462022000000001      19.062010999999998
   848   1               10.890608      23.354424000000002      18.607524000000002
   849   8      40.595939999999999      30.935614000000001      8.8726380000000002
   850   1      40.248606000000002      30.499158999999999                8.091234
   851   1      40.535772000000001      31.872409000000001                8.669079
   852   8      34.856555999999998     0.63724400000000003               10.596658
   853   1               34.475299      1.3513930000000001      11.112757999999999
   854   1      35.429825999999998      1.0791090000000001      9.9651840000000007
   855   8      28.286757999999999      20.610368999999999      36.244039000000001
   856   1      28.951841999999999      20.533812000000001               35.555906
   857   1      27.463971000000001      20.375454999999999      35.807599000000003
   858   8               16.995856      1.2621039999999999               12.031055
   859   1      17.947158999999999      1.3566260000000001      11.942671000000001
   860   1               16.772271                1.802861               12.792786
   861   8               40.452596      6.2103339999999996      3.5297149999999999
   862   1      40.634388999999999                6.281498                2.589709
   863   1      40.402835000000003      5.2649150000000002                3.692037
   864   8      1.9579470000000001      17.292750999999999      22.344674999999999
   865   1      1.1867179999999999               17.805581      22.091819000000001
   866   1      1.6430750000000001      16.719861999999999      23.048446999999999
   867   8      11.320907999999999      37.683553000000003     0.94021699999999997
   868   1               11.915092      38.316674999999996      1.3498829999999999
   869   1      11.501689000000001      37.760710000000003                       0
   870   8      19.373888999999998                16.72043      33.965273000000003
   871   1      18.598614999999999      16.921455999999999      34.494672999999999
   872   1      19.416150999999999               15.760837      33.959150999999999
   873   8      21.658532999999998      41.874657999999997      34.119956000000002
   874   1      21.675539000000001      41.028866999999998               34.573909
   875   1      21.429953000000001      41.654161000000002      33.213439000000001
   876   8               19.185153      5.4337520000000001      35.420709000000002
   877   1      18.254674999999999      5.5091190000000001      35.644886999999997
   878   1               19.428908      6.3115459999999999      35.116236000000001
   879   8      1.7260629999999999               40.379289      41.334591000000003
   880   1                1.925262      41.042067000000003                      42
   881   1      1.3353440000000001      39.654598999999997      41.829369999999997
   882   8      33.849685999999998      22.509848000000002               19.933875
   883   1      33.048457999999997               22.910349      19.588394999999998
   884   1      33.568564000000002      22.072697000000002               20.741657
   885   8               34.602995      12.550402999999999      40.585769999999997
   886   1      34.417267000000002               11.717224      41.025137999999998
   887   1      34.416218000000001      12.378277000000001      39.659416999999998
   888   8      16.924116000000001      7.6092599999999999      36.093653000000003
   889   1      17.843347000000001      7.6637500000000003               35.822046
   890   1      16.900400999999999      8.0530249999999999      36.945211999999998
   891   8      19.687905000000001      40.860553000000003      27.771691000000001
   892   1      19.660799999999998      41.067503000000002               26.834588
   893   1      18.776717000000001               40.950184      28.062114000000001
   894   8      3.5741420000000002      4.1608080000000003               18.600241
   895   1      4.3361419999999997      4.7422950000000004      18.545895999999999
   896   1      2.8272539999999999      4.7259849999999997               18.387224
   897   8      39.995398999999999               18.400191               22.567643
   898   1      40.747408999999998      17.811063999999998      22.663229999999999
   899   1      39.662523999999998      18.220579000000001               21.684707
   900   8      40.529347999999999      26.446957999999999      40.828997999999999
   901   1      39.609408999999999               26.290533      40.603236000000003
   902   1      40.720556000000002      25.799575000000001      41.512354999999999
   903   8               11.000045      40.298994999999998      17.696494000000001
   904   1               11.357106      41.189309000000002      17.736153000000002
   905   1               10.221907      40.328907000000001      18.258853999999999
   906   8      5.1126300000000002      41.155616000000002               12.415623
   907   1      5.9957010000000004      41.403011999999997               12.131535
   908   1      4.6613730000000002      40.909351000000001               11.604227
   909   8      1.9606760000000001               31.905704      9.1880039999999994
   910   1      1.7532000000000001      32.079233000000002      8.2668280000000003
   911   1                2.657492               32.532705      9.3976699999999997
   912   8      3.6791640000000001               14.654038      35.645310000000002
   913   1      3.4219469999999998               15.578804      35.664566000000001
   914   1      4.6045429999999996      14.658531999999999      35.902793000000003
   915   8      28.913861000000001      20.947016000000001                9.374231
   916   1      29.311620999999999      21.373415000000001      10.136920999999999
   917   1      27.969868000000002      20.978110999999998      9.5490270000000006
   918   8      5.6093729999999997      2.9882179999999998               25.988464
   919   1      6.4165330000000003      3.4943080000000002               25.869761
   920   1      5.1528929999999997                3.432566      26.707367999999999
   921   8               41.289133               18.242175      41.547566000000003
   922   1      40.989606999999999               17.447695      41.995685000000002
   923   1      40.834200000000003      18.957004000000001                      42
   924   8                27.98761      7.7309859999999997      25.603190000000001
   925   1      28.046517000000001      6.8062529999999999      25.854437999999998
   926   1      27.309429000000002      7.7505860000000002      24.923242999999999
   927   8               40.424768               10.062849      24.678654999999999
   928   1      39.530073999999999      9.8220030000000005      24.427178999999999
   929   1      40.639727000000001      9.4636809999999993               25.397983
   930   8      32.236741000000002      3.7095280000000002      38.644433999999997
   931   1      31.631876999999999      3.2087500000000002      38.092087999999997
   932   1      32.079751999999999      3.3773590000000002      39.531936999999999
   933   8      17.442793000000002      24.149222000000002      14.933141000000001
   934   1               16.909219      24.529226000000001               14.231271
   935   1      16.830435000000001               24.038477               15.664849
   936   8      3.8556029999999999      29.624089000000001      32.215203000000002
   937   1      3.8091689999999998      28.667788000000002               32.144078
   938   1      4.7660660000000004      29.800653000000001               32.465252
   939   8      18.310417000000001               22.312559      7.0408530000000003
   940   1               18.951221               21.975438      7.6712850000000001
   941   1               17.553621               22.558812                7.578684
   942   8      10.315656000000001      15.343768000000001      2.4914719999999999
   943   1               10.959712               15.661965      3.1283919999999998
   944   1      9.4908929999999998               15.310501      2.9826959999999998
   945   8     0.60583100000000001      19.430365999999999               14.960457
   946   1                1.045423      19.984335999999999               14.311149
   947   1      1.2873619999999999      18.820499000000002      15.254087999999999
   948   8      9.9985560000000007      24.229939000000002      2.0797460000000001
   949   1      9.8610150000000001      24.618048000000002                2.947028
   950   1      9.1511969999999998      23.835764999999999      1.8578190000000001
   951   8               12.233746               35.469704      13.657780000000001
   952   1      11.967359999999999      36.259801000000003               14.133711
   953   1               12.846746      35.788575999999999               12.990551
   954   8      16.895520999999999      19.841470999999999      14.266999999999999
   955   1      17.070485000000001               20.755105      14.504454000000001
   956   1      17.262007000000001      19.750278999999999      13.383815999999999
   957   8      21.503654999999998      38.110413000000001      35.096620999999999
   958   1      22.103688999999999               38.858604      35.140146000000001
   959   1      20.633224999999999      38.494911000000002      35.227601999999997
   960   8               23.674598      11.314704000000001      34.304319999999997
   961   1      23.980021000000001               12.152607      33.948847999999998
   962   1      24.049904999999999      10.654968999999999      33.715646999999997
   963   8               14.206574               25.610291               22.602211
   964   1                13.54546      25.021159000000001               22.973125
   965   1      13.719189999999999      26.408964000000001               22.384905
   966   8      22.936689999999999                1.535409      41.246291999999997
   967   1      23.103010000000001     0.84953500000000004      41.897168000000001
   968   1      21.981801999999998      1.5388980000000001      41.142279000000002
   969   8      10.927903000000001      6.1200700000000001      16.062470000000001
   970   1                11.64743      6.1869969999999999      16.694552000000002
   971   1      10.841557999999999      5.1775900000000004               15.898403
   972   8               31.833969      22.533926999999998      37.163693000000002
   973   1               31.927132               21.672373      36.750449000000003
   974   1      32.155054999999997      22.404575000000001      38.059691000000001
   975   8      21.428007999999998      25.062336999999999      18.177610999999999
   976   1               20.883754      25.850598000000002      18.242084999999999
   977   1                20.88832      24.367747000000001      18.563517999999998
   978   8      23.322376999999999      32.030844000000002      25.103619999999999
   979   1      22.640540000000001      32.706380000000003      25.125436000000001
   980   1      24.138947999999999      32.520299000000001      24.975999999999999
   981   8      26.597861000000002                12.17155      26.550495000000002
   982   1               26.271366               11.728291      25.763953999999998
   983   1                26.00808      11.880305999999999      27.250478999999999
   984   8      4.4523149999999996               13.169404               31.780296
   985   1      5.2302080000000002      13.693320999999999                31.57507
   986   1      4.4539569999999999               12.471518                 31.1203
   987   8               13.081054      24.939167000000001      26.807494999999999
   988   1      12.260851000000001      24.445498000000001      26.734815000000001
   989   1      13.642018999999999               24.389436      27.360447000000001
   990   8               31.312262      18.272123000000001               15.838099
   991   1      32.014176999999997               18.913926               15.707217
   992   1      30.601493000000001      18.775418999999999      16.243244000000001
   993   8      19.186775000000001      20.390996999999999      24.627814999999998
   994   1      19.816869000000001               19.749036               24.292268
   995   1               19.569367               20.689878      25.456631999999999
   996   8      40.362031000000002               31.305622      24.296707000000001
   997   1               40.784858      30.503336999999998      24.611795000000001
   998   1      41.091169999999998      31.904209999999999      24.115898999999999
   999   8               13.634347      1.6280889999999999      18.224782999999999
  1000   1               13.590607                1.789647      19.170145000000002
  1001   1               13.070838     0.86243199999999998      18.087419000000001
  1002   8      38.040787999999999      1.0510250000000001                5.700494
  1003   1      38.767709000000004     0.95726800000000001      6.3205910000000003
  1004   1      38.463627000000002                1.067744      4.8381889999999999
  1005   8      2.8932009999999999      30.109459000000001      41.426186999999999
  1006   1      3.0209820000000001               29.554821      40.653027999999999
  1007   1      3.6323509999999999      29.892579000000001                      42
  1008   8      25.690449000000001      14.240781999999999               13.921669
  1009   1      24.977063000000001               14.575657               13.373341
  1010   1      25.278296999999998      13.560066000000001               14.459626
  1011   8      7.3850740000000004               40.831972      41.665002999999999
  1012   1      6.5133939999999999      41.054850999999999                      42
  1013   1      7.6886210000000004      41.636234999999999      41.236443999999999
  1014   8      4.5622499999999997      24.496486999999998      14.159098999999999
  1015   1      3.7940990000000001      24.607534000000001               14.724197
  1016   1      4.4230869999999998      25.120487000000001               13.442231
  1017   8      37.891658999999997                      42               13.530268
  1018   1               38.808532      41.897835999999998      13.796036000000001
  1019   1      37.776806999999998      41.363191999999998                12.82039
  1020   8      34.089585999999997      20.266135999999999      38.280222999999999
  1021   1      34.329118000000001      19.594549000000001               37.637324
  1022   1      33.154497999999997      20.421817999999998               38.125256
  1023   8               28.941993      26.079564000000001      1.8663890000000001
  1024   1      28.512233999999999                26.93807                1.865183
  1025   1      29.407907000000002               26.047338      2.7057500000000001
  1026   8      5.2868040000000001               17.377198      32.850886000000003
  1027   1      5.7833410000000001      17.759467999999998      33.578240999999998
  1028   1      5.9140940000000004               17.346442      32.124110000000002
  1029   8      2.7768419999999998      36.135483999999998      10.645659999999999
  1030   1      3.0356100000000001      37.041518000000003               10.829684
  1031   1      2.4467829999999999      36.160248000000003      9.7439450000000001
  1032   8      9.9047520000000002                2.247039     0.25778699999999999
  1033   1      10.861302999999999                 2.21387     0.33285700000000001
  1034   1                   9.593      2.2126320000000002      1.1656789999999999
  1035   8                19.43449                7.398218               38.085611
  1036   1                18.77251      6.8374189999999997      37.674500000000002
  1037   1               19.225707      8.2821049999999996      37.772888000000002
  1038   8      4.0493509999999997      38.468021999999998      21.288817000000002
  1039   1      4.2070309999999997               38.640836      22.219944000000002
  1040   1      3.1826219999999998      38.054594000000002      21.266480999999999
  1041   8      2.6559010000000001      28.391276999999999               10.693324
  1042   1                3.010891      27.768198999999999      10.054982000000001
  1043   1      3.1600600000000001      28.225642000000001      11.493968000000001
  1044   8      6.2928139999999999      33.341701999999998               10.124988
  1045   1      6.6836630000000001               32.775872      9.4550649999999994
  1046   1      5.8746260000000001      34.048028000000002                9.626125
  1047   8      35.235641999999999               37.208821      5.3400309999999998
  1048   1      34.518906000000001      37.716358999999997      4.9521899999999999
  1049   1      34.797033999999996      36.482641000000001      5.7905049999999996
  1050   8      25.568473000000001      22.010469000000001               27.496233
  1051   1               26.057644      21.844843999999998               26.686909
  1052   1      24.953735999999999      22.711089999999999               27.264135
  1053   8                14.42352                2.649972               38.690089
  1054   1               13.962977                1.853175      38.963473999999998
  1055   1               14.923995      2.9142679999999999      39.466178999999997
  1056   8               31.304883               18.956972      3.9687540000000001
  1057   1      31.438776000000001      19.264081000000001      3.0690430000000002
  1058   1      31.773389000000002      18.119306000000002      4.0069710000000001
  1059   8      21.623432999999999                0.252521      2.0099490000000002
  1060   1               21.345174     0.74379399999999996                1.233452
  1061   1      21.050457000000002     0.57142099999999996      2.7118340000000001
  1062   8               28.320155      41.932946000000001      32.529604999999997
  1063   1      28.502648000000001      41.124397000000002      32.045178999999997
  1064   1      27.361955999999999                      42      32.529249999999998
  1065   8               14.984137               15.745388      37.475591999999999
  1066   1               15.065154      14.957223000000001      38.017771000000003
  1067   1      14.117649999999999      16.097377000000002      37.694553999999997
  1068   8      29.982105000000001      20.529900999999999               25.903447
  1069   1               30.902338      20.337282999999999               26.097856
  1070   1      30.000205000000001      21.404610999999999               25.506964
  1071   8      11.519550000000001      24.589777000000002      41.360534999999999
  1072   1               10.909136      24.100069999999999      41.916688000000001
  1073   1                 11.5039               25.481582      41.717019999999998
  1074   8      18.821636000000002      19.987846000000001      30.268143999999999
  1075   1      19.559104999999999               20.332856      29.759388999999999
  1076   1      18.718779000000001      20.611174999999999      30.991693999999999
  1077   8      41.674505000000003      35.714419999999997      2.3084820000000001
  1078   1      41.053511999999998      35.039394999999999      2.5920930000000002
  1079   1      41.133901999999999      36.352150999999999      1.8355250000000001
  1080   8      39.203335000000003               10.783268               26.457217
  1081   1      39.447718000000002               11.412155      27.140226999999999
  1082   1      38.964258000000001      9.9879650000000009      26.939893000000001
  1083   8      24.504391999999999               20.284125      10.636162000000001
  1084   1      24.683450000000001      19.958645000000001               11.521445
  1085   1      24.137322000000001      19.526686000000002      10.173356999999999
  1086   8      2.8250470000000001      41.014055999999997                34.21913
  1087   1      3.6888909999999999      40.993816000000002      33.800693000000003
  1088   1      2.8609960000000001      41.775485000000003               34.803573
  1089   8                8.939114      37.070562000000002      5.6418010000000001
  1090   1                 9.58704      37.686523000000001      5.9918149999999999
  1091   1      9.3277300000000007      36.205015000000003      5.7916230000000004
  1092   8      33.871313000000001      39.538989000000001      5.4607619999999999
  1093   1      33.896630999999999      40.425308999999999                5.828894
  1094   1      33.885573000000001      39.675196999999997                4.510033
  1095   8      25.042276000000001      23.846319999999999      23.192170999999998
  1096   1      25.015467000000001      24.770897999999999      22.934951999999999
  1097   1      24.407692999999998      23.780093000000001      23.910195999999999
  1098   8               20.916376      4.8700549999999998               26.159271
  1099   1      21.438480999999999                5.573366      26.552316000000001
  1100   1               20.896272      5.0828470000000001               25.222811
  1101   8      4.2251339999999997      15.253721000000001      30.393979000000002
  1102   1      3.4076019999999998               15.173135      30.890841000000002
  1103   1      4.7190019999999997               15.935521      30.856456000000001
  1104   8      5.9271919999999998               15.200063      19.365576000000001
  1105   1      6.0113659999999998      14.243895999999999               19.345952
  1106   1                4.989916      15.354018999999999      19.508590999999999
  1107   8      26.341183999999998      25.206538999999999      18.627161000000001
  1108   1      27.249151000000001      25.150912000000002      18.934121999999999
  1109   1      26.374998999999999               25.825747               17.893621
  1110   8      2.5548989999999998      40.467137999999998                29.83034
  1111   1      1.6138509999999999      40.650982999999997               29.878864
  1112   1                2.772637               40.581626               28.901833
  1113   8     0.80728100000000003      39.566654999999997      34.071449999999999
  1114   1     0.99485699999999999      40.004221999999999      34.905161999999997
  1115   1                1.574659      39.010143999999997      33.916311999999998
  1116   8      39.899906999999999      9.3073739999999994                3.079234
  1117   1      38.942852000000002      9.2998440000000002      3.0036390000000002
  1118   1      40.145592999999998      8.3788389999999993      3.0893709999999999
  1119   8      5.0068460000000004      26.594723999999999      16.809996000000002
  1120   1      5.7390270000000001      26.537099000000001      16.191679000000001
  1121   1      4.3481639999999997      25.991582999999999      16.456440000000001
  1122   8      24.925139000000001      3.7875510000000001      1.5298119999999999
  1123   1      24.038264999999999      4.1345689999999999                1.651297
  1124   1      25.173947999999999      4.0728390000000001     0.64700599999999997
  1125   8               15.300364               28.181241               23.258371
  1126   1      14.653707000000001      28.765035000000001               23.661787
  1127   1      15.334117000000001               27.421263               23.844832
  1128   8      21.659838000000001      6.1260630000000003      38.354610999999998
  1129   1               21.338507      6.4405549999999998               37.506338
  1130   1      21.354652999999999      6.7842799999999999      38.984099999999998
  1131   8      41.041626999999998      9.4035309999999992      39.548746000000001
  1132   1      41.952885000000002      9.5536220000000007      39.286437999999997
  1133   1      40.888221999999999      10.039279000000001      40.252260999999997
  1134   8                3.922968      14.877295999999999               23.028934
  1135   1      4.4659560000000003               15.651669               22.863902
  1136   1      4.1350610000000003      14.279284000000001               22.307796
  1137   8      34.119787000000002      34.634832000000003      28.754314000000001
  1138   1      34.778204000000002      33.936731000000002               28.724878
  1139   1      33.636333999999998               34.541539      27.929563999999999
  1140   8      30.783588999999999      39.317658999999999      24.863264000000001
  1141   1      31.097480000000001                38.46564      25.175129999999999
  1142   1      29.871998999999999      39.156652000000001      24.606901000000001
  1143   8                1.502284      4.4671950000000002               36.753822
  1144   1      1.0992930000000001      3.8663630000000002      37.384951000000001
  1145   1                1.987306      3.8938130000000002      36.154964999999997
  1146   8               13.336622      30.571221999999999     0.68478300000000003
  1147   1      13.279489999999999               31.489556     0.95887299999999998
  1148   1      14.010198000000001      30.568245000000001                       0
  1149   8               13.661218      1.4573309999999999      24.401762000000002
  1150   1               14.213402     0.69834799999999997      24.603663000000001
  1151   1      13.283568000000001                1.255457      23.541955000000002
  1152   8      3.5707599999999999               32.655192      33.602708999999997
  1153   1      3.7567940000000002      31.780025999999999      33.254572000000003
  1154   1                2.700183      32.868946999999999      33.257677999999999
  1155   8      28.912455999999999      4.1494669999999996      16.994278999999999
  1156   1      29.646768999999999      3.7779940000000001      16.499794000000001
  1157   1      28.218745999999999                 4.26525      16.340060000000001
  1158   8               29.599988               19.730846      11.476032999999999
  1159   1      29.227043999999999      19.314785000000001               10.695309
  1160   1      29.155498999999999      19.300595000000001      12.210850000000001
  1161   8      38.116902000000003     0.39330100000000001      10.928515000000001
  1162   1      39.038116000000002     0.35100199999999998      10.661492000000001
  1163   1      38.098832000000002      1.0623959999999999               11.617447
  1164   8      7.6825530000000004                2.579323      9.0898669999999999
  1165   1      7.5260819999999997      1.8089580000000001      9.6410300000000007
  1166   1      7.6824899999999996      2.2349399999999999      8.1931829999999994
  1167   8      14.662504999999999      15.518274999999999               15.203747
  1168   1               14.243077      15.009173000000001               15.901329
  1169   1               14.602007               14.954938      14.428096999999999
  1170   8                11.18634      9.0803899999999995               10.058856
  1171   1               11.181875                10.02209      10.245685999999999
  1172   1               10.266689      8.8162280000000006               10.143134
  1173   8      24.633182000000001      13.703430000000001      41.556023000000003
  1174   1      25.562197000000001               13.833916      41.351990999999998
  1175   1      24.266611000000001               13.312538      40.758857999999996
  1176   8               15.940495               20.897192      31.116942000000002
  1177   1      16.493193999999999      21.450202000000001      31.674102999999999
  1178   1               15.750487                21.44483               30.351022
  1179   8      4.8181989999999999      31.953600999999999      6.9784240000000004
  1180   1      4.2633729999999996      31.245017000000001      7.3127940000000002
  1181   1      4.2463810000000004      32.442633000000001      6.3813370000000003
  1182   8      10.572862000000001      5.3368209999999996      38.003343999999998
  1183   1      10.409615000000001      4.4496460000000004      37.674717999999999
  1184   1      11.156890000000001      5.2088979999999996      38.755135000000003
  1185   8      35.151183000000003      4.0628960000000003      10.272282000000001
  1186   1               35.961886                3.671697               10.606121
  1187   1      34.849190999999998      3.4477890000000002      9.5991649999999993
  1188   8               15.840899      34.824388999999996               12.633751
  1189   1               15.408401      35.583210999999999      13.032322000000001
  1190   1               16.128622               35.138849      11.772952999999999
  1191   8      14.024188000000001      7.3910900000000002      40.668123000000001
  1192   1               14.284252                 6.93987      41.474654000000001
  1193   1               14.810188      7.3655720000000002      40.116584000000003
  1194   8      30.000827999999998      19.239042000000001      41.919440999999999
  1195   1      29.161812999999999                18.77938                      42
  1196   1      29.898271000000001      19.787161999999999      41.137335999999998
  1197   8      7.1136249999999999      17.680471000000001      24.348168999999999
  1198   1      6.2872060000000003      17.192747000000001      24.377894999999999
  1199   1      6.9439950000000001      18.399847999999999               23.734683
  1200   8      7.1738530000000003      40.796132999999998      21.490269999999999
  1201   1                7.455514      39.962491999999997               21.106296
  1202   1      6.8073379999999997      41.287503000000001               20.750767
  1203   8      26.416875999999998      26.809256999999999      7.1319920000000003
  1204   1               27.124219      26.256281000000001      6.7919780000000003
  1205   1               26.751092               27.705382      7.0431090000000003
  1206   8      11.616841000000001      22.522559000000001      34.142572999999999
  1207   1      11.860506000000001      21.794637999999999      33.565958999999999
  1208   1               10.922518      22.983174999999999      33.664670999999998
  1209   8               12.827092      26.187387999999999               33.148477
  1210   1      12.035849000000001      26.451636000000001      32.673257999999997
  1211   1               12.506529      25.599032999999999      33.836750000000002
  1212   8      21.665811000000001               23.343906               28.367276
  1213   1      21.026102000000002      23.067347999999999      27.706962999999998
  1214   1      21.949999999999999      22.525200000000002                28.78152
  1215   8      35.294758999999999      6.7048620000000003      2.9895740000000002
  1216   1      34.376947999999999      6.9795340000000001                3.052041
  1217   1      35.626232000000002      7.1565260000000004      2.2093379999999998
  1218   8      5.8394919999999999      4.8209239999999998      3.9999560000000001
  1219   1      4.9300699999999997                4.783156      4.3053239999999997
  1220   1      6.3455849999999998      4.4128910000000001      4.7070790000000002
  1221   8      36.917023999999998      17.774360999999999      20.141673999999998
  1222   1      37.767709000000004               17.879355      20.574149999999999
  1223   1      36.276297999999997      18.025950000000002      20.811610999999999
  1224   8               15.531953      37.750644000000001      15.482734000000001
  1225   1      16.375848999999999      38.127118000000003               15.222289
  1226   1               14.992735      38.511209999999998      15.713874000000001
  1227   8      40.013302000000003      2.8381120000000002                5.101458
  1228   1      40.503539000000004      3.6577000000000002      5.1997819999999999
  1229   1      39.302621000000002                2.906825      5.7439939999999998
  1230   8      27.324992000000002      39.081451000000001      33.264508999999997
  1231   1      27.300879999999999      40.005378999999998      33.524315000000001
  1232   1               27.966016      39.051400999999998      32.549787000000002
  1233   8      39.998564000000002      33.342055000000002               30.930294
  1234   1               40.490468      32.701419000000001               30.411313
  1235   1      40.560791999999999      34.120758000000002      30.943024000000001
  1236   8               11.989163      17.760812000000001      4.5585579999999997
  1237   1               11.039405               17.635147      4.4961630000000001
  1238   1      12.337922000000001      17.338249999999999      3.7696019999999999
  1239   8      31.401091999999998      12.308635000000001      34.934786000000003
  1240   1      31.164753999999999               12.614525      34.055979000000001
  1241   1      32.228368000000003               12.756579               35.128701
  1242   8      34.328436000000004               23.570719      22.514569000000002
  1243   1               34.362378      22.611474999999999      22.535185999999999
  1244   1                33.73903               23.772786               21.783534
  1245   8      8.8713689999999996      41.380614999999999      35.424103000000002
  1246   1      7.9901119999999999               41.588172      35.743527999999998
  1247   1                9.016114                      42      34.704343999999999
  1248   8      1.7503919999999999      31.120329999999999      39.581761999999998
  1249   1      2.0268350000000002      32.023867000000003      39.751838999999997
  1250   1      2.2013150000000001               30.882247      38.767743000000003
  1251   8                13.35482               18.842668      36.232320999999999
  1252   1               13.030163                 18.7241      35.336629000000002
  1253   1               13.282067               19.787519      36.389183000000003
  1254   8      4.6534069999999996      31.506772000000002      27.309294999999999
  1255   1      5.4603950000000001      32.022602999999997               27.242856
  1256   1      4.1835469999999999      31.893775000000002      28.052330999999999
  1257   8                1.383097      2.9117929999999999      22.145178999999999
  1258   1      1.4320010000000001      3.8049469999999999      21.796454000000001
  1259   1                0.789883      2.9816850000000001      22.897411999999999
  1260   8      6.8286119999999997               21.743727      38.377628000000001
  1261   1      7.0429719999999998      22.657603000000002      38.176116999999998
  1262   1      7.3188139999999997      21.234795999999999      37.726987999999999
  1263   8      16.548106000000001                26.20937      16.923694000000001
  1264   1               16.067843                26.79196      17.516705000000002
  1265   1      16.703078000000001      26.742242000000001      16.139683000000002
  1266   8      4.3906720000000004               38.534948      41.399270000000001
  1267   1                3.637718      38.368661000000003      41.971226999999999
  1268   1                5.093515      38.795288999999997                      42
  1269   8      2.1888670000000001      40.649797999999997               15.348504
  1270   1      1.5474650000000001      39.991138999999997               15.625086
  1271   1      2.2110020000000001      40.573804000000003               14.391228
  1272   8      25.544675000000002      19.893218999999998      34.836612000000002
  1273   1      24.622368000000002      19.839041999999999      34.575575000000001
  1274   1               25.705192      19.076426999999999      35.315908999999998
  1275   8      2.9684020000000002      33.605607999999997      24.433803000000001
  1276   1      3.6828650000000001      34.172446000000001      24.733740999999998
  1277   1                2.172666      34.029318000000004      24.765339999999998
  1278   8      10.728374000000001                4.121397      25.580584999999999
  1279   1               10.831197      4.9526659999999998                25.11139
  1280   1      9.7920149999999992      3.9202759999999999               25.506936
  1281   8      7.5356420000000002      9.4568460000000005      36.875678999999998
  1282   1      8.1633390000000006      8.8651149999999994      36.454281000000002
  1283   1      6.9392560000000003      9.7148289999999999      36.168281999999998
  1284   8      35.854790999999999      34.675356999999998      2.9668109999999999
  1285   1      35.177253999999998      35.256456999999997      3.3203529999999999
  1286   1      35.458556999999999      33.800879999999999      2.9973200000000002
  1287   8      21.840018000000001      36.936793000000002               31.898543
  1288   1      21.968527999999999      37.853152000000001      32.154463999999997
  1289   1      22.473314999999999      36.796004000000003               31.190196
  1290   8      6.0817730000000001               33.967354               31.915571
  1291   1      6.6600159999999997      33.200964999999997      31.918337999999999
  1292   1      5.3731980000000004      33.733601999999998      32.520487000000003
  1293   8                16.08071      6.5825120000000004      28.907164999999999
  1294   1      15.896338999999999                 7.47424      29.211390999999999
  1295   1               15.522278      6.0238820000000004      29.453724999999999
  1296   8      20.547398999999999      17.389413999999999      26.792501000000001
  1297   1      21.156797999999998               16.770422      27.201409999999999
  1298   1      20.026782999999998               16.849978      26.191994000000001
  1299   8      27.519010999999999                29.29543      32.562486999999997
  1300   1      27.089829000000002      28.488061999999999               32.855207
  1301   1      26.964497000000001      29.613849999999999               31.845713
  1302   8               21.898975                      42      22.059041000000001
  1303   1      21.841204999999999      41.477654999999999               22.862499
  1304   1      21.208280999999999      41.645049999999998      21.493714000000001
  1305   8      35.541941000000001               10.114609      17.893557999999999
  1306   1      34.789361999999997               10.685915      17.723386000000001
  1307   1      35.180816999999998      9.2255520000000004      17.851013999999999
  1308   8               40.448124      15.299302000000001      5.7456329999999998
  1309   1      40.304554000000003               15.143673      6.6820579999999996
  1310   1      40.197251000000001      14.472816999999999      5.3253630000000003
  1311   8      30.755109999999998               33.739604      29.823574000000001
  1312   1               31.260842      33.165795000000003      30.403835999999998
  1313   1      30.522708000000002      33.180011999999998               29.078263
  1314   8      24.331475999999999      17.776721999999999      3.7597260000000001
  1315   1               23.722524      18.476451999999998      3.5121790000000002
  1316   1      23.890554000000002      17.321138999999999      4.4813029999999996
  1317   8      2.8456670000000002               11.794777      7.2123410000000003
  1318   1      1.9200870000000001               11.618522      7.3966250000000002
  1319   1                2.857342               12.070128      6.2921849999999999
  1320   8      13.743472000000001                13.37918      33.263322000000002
  1321   1      14.562241999999999      12.892212000000001                33.14414
  1322   1      13.961304999999999      14.278543000000001      33.005760000000002
  1323   8      9.7251639999999995      25.528531999999998      22.170660000000002
  1324   1      9.3619819999999994               24.718971      21.804006000000001
  1325   1      10.668494000000001      25.464842000000001      22.001208999999999
  1326   8      2.0228730000000001      11.505694999999999               29.146514
  1327   1                2.854457               11.668858      28.695323999999999
  1328   1      2.1072410000000001      10.611050000000001      29.485828000000001
  1329   8               14.929005      37.924509999999998      29.355257999999999
  1330   1      15.026808000000001      37.028677999999999               29.686384
  1331   1               14.657454               37.812362      28.440750999999999
  1332   8      17.112615999999999      25.593806000000001      34.074592000000003
  1333   1      16.425498999999999      26.234725999999998               34.271614
  1334   1      17.802402000000001               25.778682               34.716977
  1335   8      25.381920999999998      2.8516620000000001      30.434145999999998
  1336   1      25.854624000000001      2.0441470000000002      30.219211999999999
  1337   1      26.046482999999998      3.4173659999999999               30.835366
  1338   8      26.979040999999999      6.8991319999999998      6.1436080000000004
  1339   1               27.686425      6.4200780000000002      6.5816049999999997
  1340   1               26.641589      7.4947379999999999                6.817418
  1341   8               23.356966      15.926341000000001      40.366371000000001
  1342   1      22.544644000000002      15.759983999999999               40.850296
  1343   1      24.047999000000001      15.858845000000001      41.030116999999997
  1344   8      41.567113999999997      41.156703999999998      33.066543000000003
  1345   1      40.799019000000001      41.610937999999997      32.712386000000002
  1346   1      41.617156999999999      41.449568999999997      33.979981000000002
  1347   8      18.579941999999999      26.277965999999999      37.171295999999998
  1348   1      18.687664000000002      25.624379999999999               37.866239
  1349   1               19.465152      26.622527999999999      37.028744000000003
  1350   8                1.389195      24.395195999999999      29.946515999999999
  1351   1                1.650674      23.613645000000002      29.454039999999999
  1352   1      1.6744540000000001      25.129687000000001                29.39716
  1353   8      31.447779000000001      14.171117000000001      40.944550999999997
  1354   1      32.261020000000002               13.688079               40.780116
  1355   1      31.093962999999999               14.347344               40.069108
  1356   8      19.270205000000001      8.0053070000000002      16.556605999999999
  1357   1      18.426131999999999      7.9570679999999996      17.011510999999999
  1358   1      19.140073000000001      8.6778530000000007      15.883262999999999
  1359   8               26.639961               12.744567      22.172927000000001
  1360   1      26.614903999999999               13.697075      22.055347000000001
  1361   1               26.557938               12.619209      23.121715999999999
  1362   8      9.5326389999999996                 11.5784      30.091121999999999
  1363   1      9.2300959999999996      12.384251000000001      30.516324000000001
  1364   1      9.0711410000000008      10.875825000000001               30.555933
  1365   8      4.5329639999999998      4.2500679999999997               10.274464
  1366   1      4.6503059999999996      3.6215229999999998      9.5583030000000004
  1367   1      5.2890129999999997      4.8380869999999998               10.201896
  1368   8      31.154817000000001      32.231594000000001      23.932062999999999
  1369   1      31.011157000000001      32.935042000000003      24.569438999999999
  1370   1      30.271204999999998      31.929176999999999      23.707526999999999
  1371   8      17.862704999999998               24.214157      25.537669999999999
  1372   1               17.997394      23.290469999999999      25.313199999999998
  1373   1      18.747447000000001      24.552005999999999      25.698080999999998
  1374   8      41.620744000000002      24.250257999999999      22.081143000000001
  1375   1               41.999955               25.069796      21.755134999999999
  1376   1      40.914079999999998      24.531330000000001               22.667887
  1377   8      25.411716999999999      39.714680999999999      18.133770999999999
  1378   1               24.518718               39.770896      17.785751999999999
  1379   1               25.658763      38.794870000000003               18.009034
  1380   8      10.514214000000001      5.8184930000000001      5.6118589999999999
  1381   1               10.413719      4.9993730000000003      5.1212799999999996
  1382   1               10.913708      5.5509230000000001      6.4433949999999998
  1383   8      16.775441000000001               39.693852      24.305689999999998
  1384   1      17.670587999999999      39.352395999999999      24.367692000000002
  1385   1      16.795438000000001      40.508892000000003      24.813580000000002
  1386   8      21.365773999999998      33.666302000000002                 6.38523
  1387   1      20.769587000000001               34.398643      6.5583280000000004
  1388   1      21.941521999999999      33.987544999999997      5.6866899999999996
  1389   8      21.034248999999999      25.814523999999999      9.4586419999999993
  1390   1               21.061995               26.430228               10.194756
  1391   1      21.257521000000001               24.965816      9.8491370000000007
  1392   8      3.8975409999999999      1.9577519999999999      34.801884999999999
  1393   1      3.5911759999999999      2.8592759999999999               34.678922
  1394   1      4.6719030000000004      1.8900239999999999      34.237599000000003
  1395   8               13.088765               21.665896      6.8890339999999997
  1396   1               12.743898               21.553352      7.7779239999999996
  1397   1      13.276669999999999      20.772214000000002      6.5912639999999998
  1398   8      32.091501999999998      16.157592999999999      28.435956000000001
  1399   1      31.770582999999998               15.259547      28.325275999999999
  1400   1      32.341766999999997               16.208938               29.361901
  1401   8      27.490386000000001      4.0424259999999999                1.463668
  1402   1      27.278448000000001                3.439559     0.74717800000000001
  1403   1               27.039631      3.6730960000000001                2.227249
  1404   8      12.277169000000001      32.251607999999997      18.737286000000001
  1405   1      12.662888000000001               33.032674      18.333697999999998
  1406   1      11.573321999999999      32.593862999999999               19.294155
  1407   8      37.312865000000002      5.1966049999999999               19.499247
  1408   1      37.329782000000002      6.1343740000000002               19.294241
  1409   1      36.761547999999998      5.1338549999999996                20.28331
  1410   8      8.2862089999999995      6.3882899999999996      12.578112000000001
  1411   1      8.6692579999999992                5.601731      12.973489000000001
  1412   1      8.3341239999999992      6.2272610000000004      11.632376000000001
  1413   8      6.7698340000000004               14.882937      11.692239000000001
  1414   1      5.8896750000000004      14.582178000000001      11.930123999999999
  1415   1                 6.65503      15.812894999999999      11.480956000000001
  1416   8               19.094797      35.858046999999999               34.484921
  1417   1      18.687173000000001      35.322597000000002      33.800187999999999
  1418   1      18.444026999999998               36.538663      34.674401000000003
  1419   8     0.63253599999999999      37.789910999999996      36.806035000000001
  1420   1                1.125526      37.369776000000002      36.097394000000001
  1421   1     0.25010500000000002      38.571665000000003      36.399526999999999
  1422   8               28.232443      14.246411999999999      36.956870000000002
  1423   1               28.616743               13.373229      36.849221999999997
  1424   1      28.650981000000002      14.595247000000001      37.747933000000003
  1425   8               28.549305      37.225777999999998      23.883521999999999
  1426   1      27.804055000000002      36.961446000000002      24.428000000000001
  1427   1               28.182019      37.870218000000001      23.273243999999998
  1428   8      27.717842999999998      8.7920309999999997                       0
  1429   1      28.663271000000002      8.9202410000000008     0.10702399999999999
  1430   1      27.354880999999999      9.6813549999999999   0.0021090000000000002
  1431   8      3.2030409999999998      39.893146999999999               26.456042
  1432   1      2.9862350000000002      38.993464000000003      26.711563999999999
  1433   1                2.573537      40.101940999999997               25.761225
  1434   8               24.626009               11.135474               39.237313
  1435   1      25.405822000000001               10.892659      39.741948999999998
  1436   1      24.597826999999999      10.497146000000001      38.520107000000003
  1437   8               29.393003      20.747502000000001      2.5021149999999999
  1438   1                30.13541               20.605148      1.9102600000000001
  1439   1      28.722746999999998               21.157439      1.9495290000000001
  1440   8      1.4042870000000001      21.653058999999999      33.289622999999999
  1441   1      1.2731030000000001      21.552267000000001      34.235328000000003
  1442   1     0.73635799999999996      21.086967999999999      32.894585999999997
  1443   8      20.669633999999999      22.598286999999999      25.570906999999998
  1444   1      21.539888000000001      22.996251999999998               25.493402
  1445   1               20.160515      22.998218999999999      24.861333999999999
  1446   8      27.223572999999998      9.4459269999999993      8.4807539999999992
  1447   1      26.346105999999999      9.8353199999999994                8.468458
  1448   1      27.764251999999999               10.091059      8.9434769999999997
  1449   8               10.026849      8.8597730000000006     0.77832599999999996
  1450   1                9.134817      8.6011120000000005     0.53522599999999998
  1451   1      10.269602000000001      8.2491339999999997                 1.47892
  1452   8      38.937488999999999               31.203229               28.622422
  1453   1      38.947262000000002      31.419049000000001      29.557863000000001
  1454   1      39.776071999999999      31.535540000000001               28.292285
  1455   8               24.380993               36.275292      9.9553209999999996
  1456   1      23.955086000000001      36.646354000000002      10.731619999999999
  1457   1      25.240877000000001      35.985750000000003      10.270611000000001
  1458   8      27.573530000000002      37.049072000000002      34.394052000000002
  1459   1      26.910299999999999      36.966234999999998      33.704856999999997
  1460   1      28.410917999999999      37.007834000000003      33.925306999999997
  1461   8               12.708155               28.107927      14.586368999999999
  1462   1               12.005445      28.180219000000001      13.936216999999999
  1463   1               13.516012      28.207336999999999      14.076344000000001
  1464   8      26.059477999999999      33.313251000000001      15.030466000000001
  1465   1               25.452316      32.925843999999998               15.665286
  1466   1      26.059491999999999      34.250273999999997      15.241721999999999
  1467   8      36.111407999999997      13.771653000000001      39.284466999999999
  1468   1      36.966468999999996                13.92783      38.876784999999998
  1469   1      35.893250000000002      14.605757000000001               39.707929
  1470   8      27.785993999999999               11.967808      35.322425000000003
  1471   1               27.599836      11.089401000000001               35.662236
  1472   1      27.000392000000002               12.201058      34.821361000000003
  1473   8      31.685853999999999      7.0773520000000003      36.857196000000002
  1474   1      32.536982000000002      7.3618240000000004      37.198341999999997
  1475   1      31.078354000000001      7.7726420000000003      37.122070000000001
  1476   8      27.786290000000001      2.2086739999999998               13.503517
  1477   1      28.411228000000001                2.930342               13.605359
  1478   1               28.256034                1.438234      13.832765999999999
  1479   8      17.717369000000001      3.0030579999999998      5.6204729999999996
  1480   1      18.183184000000001      2.1637230000000001                5.604406
  1481   1      17.477506000000002      3.1250149999999999      6.5425550000000001
  1482   8               13.234195               12.811942               11.008545
  1483   1               13.612359      12.084922000000001      11.508705000000001
  1484   1               12.468634      13.081867000000001      11.522061000000001
  1485   8               14.545897      1.5339750000000001               13.208708
  1486   1               14.930481     0.87399400000000005               13.790296
  1487   1               13.600318      1.3720220000000001      13.256612000000001
  1488   8      5.7400409999999997      29.237584999999999      14.891698999999999
  1489   1      5.6294279999999999      28.705283000000001               15.682992
  1490   1      5.0672230000000003      29.918998999999999               14.966749
  1491   8      22.914988000000001      39.210416000000002      24.073364000000002
  1492   1               23.666041      39.805742000000002      24.016518000000001
  1493   1               22.867089      38.803381999999999               23.204646
  1494   8               22.428248      23.022801999999999      35.437041999999998
  1495   1      22.046061000000002      22.499711999999999      36.145586000000002
  1496   1      22.550605000000001               22.397444      34.718294999999998
  1497   8      1.3809260000000001      9.6037250000000007      24.133178999999998
  1498   1     0.49658600000000003      9.7961369999999999      23.812795000000001
  1499   1      1.3280190000000001      8.6984999999999992      24.450054999999999
  1500   8      36.731096999999998      32.904184999999998      28.442893999999999
  1501   1      36.447738999999999      32.101734999999998      28.887312000000001
  1502   1      37.284134999999999      32.594459999999998               27.721187
  1503   8      8.9377619999999993      29.073460000000001      3.6749179999999999
  1504   1      8.5905389999999997      28.254891000000001      4.0370039999999996
  1505   1      8.5353569999999994      29.139088999999998      2.8052030000000001
  1506   8               11.290016      29.493687000000001      6.7234949999999998
  1507   1               12.182658      29.249258000000001      6.4682110000000002
  1508   1      11.405625000000001      30.026344000000002      7.5144149999999996
  1509   8      7.1545480000000001               23.696811      22.316140000000001
  1510   1      6.9840109999999997      23.736284000000001               23.260113
  1511   1      6.2816510000000001      23.651495000000001      21.917843999999999
  1512   8      37.951104999999998      25.665151999999999      37.802349999999997
  1513   1      37.688685999999997      26.413851000000001      38.343007999999998
  1514   1      38.156064000000001               26.049474      36.946235999999999
  1515   8      39.738734999999998               15.201604      39.778145000000002
  1516   1               39.541857      14.617774000000001      40.514423000000001
  1517   1      39.072521000000002      14.988232999999999      39.119909999999997
  1518   8               27.959847      7.7448040000000002      30.996607999999998
  1519   1               27.775395      6.9758589999999998               31.541058
  1520   1      27.540714999999999      7.5472830000000002      30.155207000000001
  1521   8                 3.69618      21.574504999999998      3.9805190000000001
  1522   1      3.7068829999999999      22.456956000000002      4.3585289999999999
  1523   1      4.4868790000000001      21.538627000000002      3.4363229999999998
  1524   8      4.5699519999999998      18.695858000000001      4.3587170000000004
  1525   1      4.9661759999999999               19.026709      3.5492300000000001
  1526   1      4.8680409999999998      19.306978999999998      5.0371829999999997
  1527   8      29.273430000000001               16.380129      6.0039220000000002
  1528   1      29.483516999999999               15.607659      5.4739440000000004
  1529   1      29.497053000000001      17.124503000000001                5.439527
  1530   8               23.375204      19.237718000000001               22.091611
  1531   1      23.550415000000001      19.954530999999999      22.705781999999999
  1532   1               22.456312      19.007166000000002      22.250122999999999
  1533   8               26.451608                1.655608               11.639467
  1534   1               26.082476      2.3923969999999999      12.132020000000001
  1535   1               26.433049                1.947309      10.724475999999999
  1536   8      24.580884000000001      29.552278000000001      2.2337570000000002
  1537   1      24.782381000000001      28.870200000000001      2.8786550000000002
  1538   1               24.758616      29.138297000000001      1.3854219999999999
  1539   8               11.301969      3.4959609999999999               33.963994
  1540   1                12.13842      3.9476230000000001      33.829551000000002
  1541   1               11.424557      2.6385230000000002      33.548766000000001
  1542   8      32.685783999999998      31.919616999999999               26.634242
  1543   1      32.856811999999998      32.853107999999999               26.779391
  1544   1      33.307963999999998               31.667213      25.947344999999999
  1545   8      20.948277000000001               11.370948      3.8771979999999999
  1546   1               21.396217      10.555789000000001      4.1150840000000004
  1547   1      20.277063999999999               11.098806                3.246283
  1548   8      22.076930999999998      17.241264999999999      5.8173789999999999
  1549   1               21.480777      17.895620000000001      5.4457000000000004
  1550   1               21.633163      16.939686999999999      6.6140990000000004
  1551   8      41.555545000000002                1.126155      4.0702189999999998
  1552   1      41.999937000000003     0.32038899999999998      4.3440469999999998
  1553   1      41.958542999999999                1.814414      4.6055080000000004
  1554   8      21.171158999999999      1.3974880000000001      12.172288999999999
  1555   1               20.301022                1.789749      12.275817999999999
  1556   1               21.283617     0.85609199999999996      12.957710000000001
  1557   8               11.261151      34.028934999999997               16.525551
  1558   1               11.098518      34.973128000000003      16.464099999999998
  1559   1               10.745863      33.747210000000003                17.28565
  1560   8                9.702458      3.3783569999999998      35.828978999999997
  1561   1      9.0912889999999997      3.9830109999999999               35.401671
  1562   1      9.8323389999999993      2.6766730000000001      35.186006999999996
  1563   8      37.043404000000002      40.388722999999999      17.256087000000001
  1564   1      37.465522999999997      40.997866999999999      17.866402000000001
  1565   1      37.188172999999999      39.522604999999999      17.645347999999998
  1566   8      39.577320999999998               12.614563                14.10957
  1567   1      39.318981000000001               13.438376      13.689667999999999
  1568   1      38.780735999999997      12.313332000000001               14.553818
  1569   8               31.247705      40.965988000000003      41.225931000000003
  1570   1               32.145032      40.772905000000002      40.944420999999998
  1571   1      31.355599999999999      41.524394000000001                      42
  1572   8      4.9115489999999999      1.1214390000000001      39.047761000000001
  1573   1      5.4910019999999999     0.35738599999999998      39.094470000000001
  1574   1      5.2326180000000004      1.7067540000000001      39.738385999999998
  1575   8      26.899353999999999      17.755265999999999      19.413637999999999
  1576   1      26.882165000000001      16.795431000000001      19.401517999999999
  1577   1      27.032060999999999      17.979703000000001      20.338115999999999
  1578   8      31.230153999999999               23.288833      21.818819000000001
  1579   1      31.089040000000001               22.339226      21.811188000000001
  1580   1      31.878899000000001      23.439046999999999      21.126570999999998
  1581   8               15.955422      41.613236999999998      34.452497000000001
  1582   1               15.917714      40.805349999999997      34.969817999999997
  1583   1               16.507227               41.388399      33.699103999999998
  1584   8      20.583480000000002               14.408773               13.049567
  1585   1               21.513904               14.509516               12.835352
  1586   1      20.408546999999999      15.106275999999999      13.686379000000001
  1587   8      8.1943909999999995      19.934018999999999      24.759961000000001
  1588   1      8.4601480000000002      20.024010000000001               23.841811
  1589   1      9.0125580000000003      19.749037999999999               25.227964
  1590   8      36.461969000000003      28.577784999999999      40.927931000000001
  1591   1      36.033309000000003      29.299441999999999      41.393965000000001
  1592   1      36.033504000000001      27.787521000000002      41.266371999999997
  1593   8      24.902920000000002      35.216078000000003               34.759777
  1594   1               24.011578      34.986536999999998      34.486744999999999
  1595   1      25.124300999999999               34.560831      35.426324000000001
  1596   8               21.744249      27.610095000000001               15.453395
  1597   1      21.703320999999999               28.496433      15.086715999999999
  1598   1               21.606406      27.735303999999999      16.395713000000001
  1599   8               20.975254      33.885351999999997                2.343235
  1600   1      20.804725000000001      34.797291000000001      2.5902419999999999
  1601   1      20.112086000000001      33.537263000000003      2.1057139999999999
  1602   8      4.4984120000000001      32.321117999999998               39.098841
  1603   1      4.2848879999999996               33.228538      38.869231999999997
  1604   1      5.4066770000000002      32.208772000000003               38.807164
  1605   8      38.869169999999997      22.787832999999999      40.265062999999998
  1606   1      39.204161999999997      21.910330999999999      40.066327000000001
  1607   1      39.514854999999997      23.157617999999999      40.872509999999998
  1608   8               37.727981                13.13091      36.931381999999999
  1609   1      38.172612999999998      12.468146000000001      37.465021999999998
  1610   1      36.961618000000001      12.674844999999999      36.574544000000003
  1611   8      5.4384249999999996      30.492664000000001               40.896372
  1612   1      5.5461819999999999               31.385068      41.233609000000001
  1613   1      6.0772000000000004               30.429046      40.181835999999997
  1614   8      33.735140999999999      12.527958999999999      5.9463470000000003
  1615   1      34.017139999999998                12.39513      6.8543989999999999
  1616   1      34.469453000000001               12.989694      5.5337579999999997
  1617   8      28.923971000000002      19.100473999999998      39.281466000000002
  1618   1      28.446778999999999      19.877448000000001      38.980927000000001
  1619   1      28.355509000000001      18.716881999999998      39.954036000000002
  1620   8      23.611719999999998      6.0045149999999996      29.698274999999999
  1621   1               22.659046      6.0182479999999998      29.580166999999999
  1622   1      23.930101000000001      6.7279179999999998      29.152415000000001
  1623   8      29.292787000000001      8.3185789999999997      32.650258000000001
  1624   1               29.879548      9.0371400000000008      32.403060000000004
  1625   1      29.264009999999999      8.3535889999999995      33.609730999999996
  1626   8      17.143129999999999      38.596364999999999     0.56256600000000001
  1627   1      16.769871999999999      38.595331000000002                1.447101
  1628   1               16.422435      38.890917000000002                       0
  1629   8      40.166764999999998      1.1735960000000001      26.224796000000001
  1630   1      40.130223000000001                0.312473      25.801881000000002
  1631   1      40.564256999999998      1.7468509999999999               25.564477
  1632   8      23.625844000000001      35.011418999999997               15.172483
  1633   1      24.426072999999999      35.276077999999998               14.712795
  1634   1               23.371278               34.186104      14.752133000000001
  1635   8      2.1252239999999998      33.341636999999999                3.923759
  1636   1      1.5388170000000001      32.583540999999997      3.9798179999999999
  1637   1      2.7987980000000001      33.171615000000003      4.5871089999999999
  1638   8               12.091099      16.606805000000001               38.310454
  1639   1      11.333641999999999      16.945505000000001      38.793430000000001
  1640   1               12.658343      17.372426000000001      38.189202000000002
  1641   8               14.050659      33.156801999999999               11.591982
  1642   1               13.772784      32.510333000000003                12.24512
  1643   1      13.717116000000001      33.992893000000002               11.927156
  1644   8      4.4083969999999999      27.263076000000002      36.742209000000003
  1645   1      4.9756429999999998      27.192395000000001      37.513547000000003
  1646   1                4.669575      26.524995000000001      36.185735000000001
  1647   8      29.449674000000002      2.7860140000000002      41.288409999999999
  1648   1      29.447514999999999                3.653324      41.700105999999998
  1649   1      29.218295999999999      2.1837300000000002                      42
  1650   8      2.4182229999999998               31.235384      26.910617999999999
  1651   1      2.1716730000000002      30.323018999999999      27.079519000000001
  1652   1      2.2247270000000001      31.366084000000001      25.978888999999999
  1653   8      17.487103000000001      7.5645020000000001      32.944358999999999
  1654   1               17.515055      6.9727160000000001      33.699826999999999
  1655   1      18.386932999999999                7.890733      32.863610999999999
  1656   8      23.131589000000002      8.7479259999999996      38.723379000000001
  1657   1      22.181321000000001      8.8030360000000005      38.598163999999997
  1658   1               23.239193      8.1624029999999994      39.477187000000001
  1659   8      1.2034670000000001      29.913658999999999      36.826020999999997
  1660   1      1.0321039999999999               30.633678      36.214520999999998
  1661   1                 1.94977      29.446871000000002      36.441595999999997
  1662   8               40.283496      37.237070000000003      8.0226030000000002
  1663   1      40.208407000000001      38.075803000000001      8.4837050000000005
  1664   1      39.538533000000001      37.230787999999997                7.416277
  1665   8      37.105629999999998      26.866402999999998      18.937822000000001
  1666   1      37.649923000000001      27.650538999999998      19.040779000000001
  1667   1               36.561518               26.848257      19.729185000000001
  1668   8      18.292767000000001      2.1447560000000001      28.082132999999999
  1669   1      17.492001999999999                 2.04827               27.561373
  1670   1      18.647245999999999      2.9977109999999998                27.81859
  1671   8     0.25275700000000001      7.2612249999999996               38.061802
  1672   1     0.66139300000000001      6.4347159999999999               37.794176
  1673   1     0.75533899999999998      7.5371199999999998      38.832473999999998
  1674   8               12.546908      40.935253000000003      24.962997000000001
  1675   1      13.462108000000001      40.827021000000002                24.69389
  1676   1               12.585067      41.558852000000002      25.692592999999999
  1677   8      37.576832000000003      41.030194999999999               23.061304
  1678   1      38.261451000000001      41.665733000000003      22.839687999999999
  1679   1      36.760783000000004      41.535316999999999               23.021825
  1680   8      17.838083000000001      19.938517000000001               16.528765
  1681   1      18.091525000000001      20.826488000000001      16.791443999999998
  1682   1      18.473068000000001               19.700761                15.84839
  1683   8      36.006354999999999      6.4053370000000003               31.347538
  1684   1      35.396042999999999                5.670839      31.248764999999999
  1685   1               36.637245      6.1041840000000001      32.006270000000001
  1686   8               23.133388      26.834997000000001               26.583983
  1687   1               23.381138                26.71077      27.503174000000001
  1688   1      23.950749999999999      26.703510999999999      26.096876000000002
  1689   8      12.322857000000001      16.507280000000002                13.37893
  1690   1      11.899260999999999               15.649108      13.302568000000001
  1691   1      12.957877999999999      16.397196999999998                14.09116
  1692   8      6.1812750000000003      27.369928000000002      9.8078099999999999
  1693   1      6.6092899999999997      28.224775999999999      9.7196990000000003
  1694   1      6.5981439999999996      26.972670000000001      10.576606999999999
  1695   8      40.424810999999998      38.903889999999997      34.468485999999999
  1696   1      41.010834000000003      38.146009999999997      34.531094000000003
  1697   1      40.817574999999998      39.557848999999997      35.052196000000002
  1698   8      11.734999999999999      20.126422000000002      3.0189400000000002
  1699   1               11.992956      21.050885999999998      2.9954809999999998
  1700   1               12.230013      19.759381999999999      3.7557480000000001
  1701   8      29.225449999999999      35.012220999999997      8.0706129999999998
  1702   1               28.767291      34.227466999999997      7.7608129999999997
  1703   1      30.074422999999999      34.686203999999996      8.3798049999999993
  1704   8      33.724204999999998     0.40035199999999999      40.704838000000002
  1705   1      34.318430999999997      1.1368879999999999               40.543174
  1706   1               33.600085                       0      39.840572000000002
  1707   8      13.679042000000001      29.397134999999999      29.808392000000001
  1708   1      14.033174000000001      29.628527999999999      28.946549000000001
  1709   1               14.273721                29.82122      30.432210999999999
  1710   8      7.7375179999999997      25.340879000000001                2.979762
  1711   1      7.7222999999999997      25.534130000000001      2.0394709999999998
  1712   1      7.8780840000000003      26.194845999999998                3.396442
  1713   8      20.302534000000001      38.423794000000001      12.423258000000001
  1714   1      19.846071999999999      39.206229999999998      12.741315999999999
  1715   1               21.231811               38.666235                12.44079
  1716   8      16.533131999999998      41.973722000000002      9.2556290000000008
  1717   1      16.020320999999999      41.623586000000003      8.5234030000000001
  1718   1      15.913836999999999                      42      9.9894040000000004
  1719   8               14.920881               27.718159      40.120753000000001
  1720   1      14.870718999999999      28.674126999999999      40.047724000000002
  1721   1               14.361361      27.506762999999999      40.872345000000003
  1722   8                27.37968      5.4937800000000001      11.265193999999999
  1723   1      27.186468000000001      6.1839209999999998      10.626366000000001
  1724   1      26.939820000000001      4.7149200000000002      10.915134999999999
  1725   8      14.132028999999999      34.634903999999999               31.600921
  1726   1      13.882440000000001      34.481583000000001      32.515208999999999
  1727   1      13.934348999999999      33.806035000000001      31.157592000000001
  1728   8      41.035711999999997      23.722096000000001      26.082239999999999
  1729   1      40.931119000000002      22.776327999999999      26.209942999999999
  1730   1      41.899059000000001      23.918911000000001      26.454447999999999
  1731   8      17.048325999999999                15.44158      32.200499000000001
  1732   1      17.234110000000001               15.481802      33.141558000000003
  1733   1      17.620443999999999               14.742405      31.874189000000001
  1734   8     0.73507400000000001      15.779839000000001      21.202535999999998
  1735   1                       0               15.978291      21.787351000000001
  1736   1     0.43635499999999999      16.070322000000001      20.337071000000002
  1737   8      21.540368999999998      35.201627999999999      21.820651999999999
  1738   1      21.383873000000001      34.254902000000001      21.789916999999999
  1739   1               22.335725               35.294722               22.351108
  1740   8               16.334616      32.871101000000003      11.750033999999999
  1741   1               17.018753      32.330190000000002               12.151403
  1742   1      16.732209999999998      33.194291999999997      10.937563000000001
  1743   8               25.385797      10.849551999999999      35.614623999999999
  1744   1               25.119253      9.9281360000000003      35.573721999999997
  1745   1      24.758849000000001      11.252444000000001      36.220640000000003
  1746   8      8.1988140000000005      16.440415999999999      37.443711999999998
  1747   1      7.7855939999999997      16.356711000000001      38.306247999999997
  1748   1      7.5421060000000004      16.891950000000001      36.907527999999999
  1749   8                 7.35053      22.730360000000001      27.805098000000001
  1750   1      6.5816819999999998      22.264147999999999      28.141615999999999
  1751   1                7.161022      22.860724000000001      26.872502999999998
  1752   8      27.912929999999999      16.464085000000001      38.643886999999999
  1753   1      28.541941000000001      17.071798000000001      38.247962999999999
  1754   1      28.372544000000001      16.110606000000001      39.409686000000001
  1755   8      6.5246170000000001      3.7980130000000001      1.4073709999999999
  1756   1      6.0488989999999996      3.2874720000000002      2.0667390000000001
  1757   1      5.9289079999999998      4.5191080000000001                1.188752
  1758   8      7.0910320000000002      23.386824000000001      18.404185999999999
  1759   1      6.4950489999999999      23.456665999999998                19.15362
  1760   1      6.5576650000000001      23.650296000000001      17.650034000000002
  1761   8      14.061514000000001               34.642153      20.566794000000002
  1762   1               14.410052      33.759456999999998      20.712029999999999
  1763   1      13.344421000000001      34.515275000000003      19.940439000000001
  1764   8      16.322787000000002      12.576192000000001               29.614407
  1765   1      16.938991000000001      12.728282999999999      30.334744000000001
  1766   1      15.462020000000001               12.544972               30.039552
  1767   8      29.488060000000001      11.961798999999999               27.619315
  1768   1      29.330328000000002      11.469557999999999      28.428353000000001
  1769   1      28.744257999999999      12.566617000000001      27.559349000000001
  1770   8      22.876584999999999      28.036421000000001      3.2025610000000002
  1771   1               22.479574      28.251124000000001      2.3552059999999999
  1772   1      22.676850999999999      28.794022999999999                3.758248
  1773   8      16.580963000000001      6.0639269999999996      38.308520999999999
  1774   1               16.567397      6.8736309999999996      38.824195000000003
  1775   1      16.391770999999999      5.3715320000000002      38.946829999999999
  1776   8      32.250768000000001      22.575026999999999      5.3255980000000003
  1777   1      31.425720999999999               23.005741      5.0899960000000002
  1778   1      32.693187000000002      23.205176999999999                5.899896
  1779   8      15.053974999999999      38.014243999999998      3.3975949999999999
  1780   1               15.995372      37.841425999999998      3.4726400000000002
  1781   1               14.662775      37.523609999999998      4.1248370000000003
  1782   8      16.334990000000001               25.936919      28.397756999999999
  1783   1               15.916072               25.294591      27.820133999999999
  1784   1               17.138209      25.502078999999998      28.695070999999999
  1785   8                26.43824               15.364471      29.145423000000001
  1786   1      27.285882999999998               15.592146               28.756335
  1787   1               26.493682               15.692542      30.046499000000001
  1788   8      24.328271999999998               12.992915      37.562344000000003
  1789   1      24.883113999999999      13.640059000000001      37.120665000000002
  1790   1      24.129086000000001      13.390923000000001               38.413553
  1791   8      41.651601999999997               15.508647      9.0820240000000005
  1792   1                      42      14.765364999999999      9.5798950000000005
  1793   1      41.107919000000003               15.985324      9.7143449999999998
  1794   8      29.428557000000001     0.85574499999999998                2.060988
  1795   1               28.830074                0.423786                1.447022
  1796   1      30.299942999999999     0.71880599999999994                1.680758
  1797   8      19.952742000000001               35.168377      13.201128000000001
  1798   1      20.547239999999999      35.903153000000003               13.369659
  1799   1      20.242063000000002      34.816738999999998      12.355382000000001
  1800   8      1.0194700000000001      34.524380999999998      8.3992199999999997
  1801   1                1.032038      34.813265999999999                9.314705
  1802   1    0.092174000000000006      34.558748999999999      8.1510639999999999
  1803   8      8.5451280000000001      32.175682999999999      26.951108000000001
  1804   1      9.3207570000000004               31.763057      27.338232000000001
  1805   1      7.8075570000000001               31.662409      27.290490999999999
  1806   8               14.260173      8.7929820000000003      5.0932360000000001
  1807   1               15.217067                8.746677      5.0305140000000002
  1808   1               14.096468      9.4977520000000002      5.7250129999999997
  1809   8      3.9192390000000001               22.214143      32.692082999999997
  1810   1      3.6186539999999998               21.854861      33.530110000000001
  1811   1      4.7708700000000004      22.609843000000001      32.894041000000001
  1812   8               14.137219               16.636917                34.24736
  1813   1      14.510927000000001      17.103183000000001               34.998801
  1814   1               13.331336      16.241326999999998      34.588977999999997
  1815   8      24.974322000000001      15.816993999999999      22.138121000000002
  1816   1      25.518322000000001      15.465552000000001               22.846836
  1817   1      25.088270000000001      15.191954000000001      21.417715999999999
  1818   8      9.7810799999999993               10.780403      34.968147999999999
  1819   1      10.135984000000001      9.9918049999999994                35.38514
  1820   1      10.369130999999999               11.485104      35.251404999999998
  1821   8      35.108393999999997      28.677917999999998      18.173808000000001
  1822   1      34.541339999999998      29.335363000000001      18.583614000000001
  1823   1      35.803382999999997      28.526758999999998      18.819396000000001
  1824   8                6.455756      28.329166000000001      20.395838999999999
  1825   1      6.1245760000000002      28.832004999999999               19.648045
  1826   1      6.5502180000000001      27.434719999999999      20.058665000000001
  1827   8      6.9011060000000004               12.065654               17.929724
  1828   1      6.9282919999999999      12.535197999999999      17.092756000000001
  1829   1      7.7415669999999999      12.272188999999999      18.346388999999999
  1830   8      30.563317000000001      35.462924000000001      6.4784050000000004
  1831   1      29.755535999999999                 35.9754      6.3972670000000003
  1832   1               30.276049      34.550182999999997      6.3945949999999998
  1833   8      19.544226999999999               35.457836      10.351544000000001
  1834   1      20.294523999999999      36.022468000000003      10.151617999999999
  1835   1      19.016801999999998               35.469054      9.5488359999999997
  1836   8      35.152240999999997               12.775971      35.273580000000003
  1837   1               34.467292               12.990876      34.636094999999997
  1838   1      34.913654000000001               11.902668      35.594608999999998
  1839   8      17.721997999999999      20.355101999999999      34.185276999999999
  1840   1      18.067896999999999      19.673106000000001                34.76576
  1841   1      17.146550999999999               19.882469               33.578547
  1842   8      33.851882000000003      20.623519999999999               23.197295
  1843   1      34.690565999999997      20.749718999999999               23.647192
  1844   1      33.481135999999999      19.834665999999999               23.600904
  1845   8      16.666129000000002               10.962728      21.131602999999998
  1846   1               15.748749               10.836684      21.385083000000002
  1847   1      16.630783999999998               11.609278                20.42212
  1848   8      2.8592439999999999      17.590851000000001      12.307544999999999
  1849   1      2.1660469999999998      17.725028999999999      12.958081999999999
  1850   1      2.6348479999999999               16.756052                11.88874
  1851   8      23.356114000000002      33.262574000000001                2.659869
  1852   1               23.347659      32.589784999999999      1.9750270000000001
  1853   1                22.88908      32.859341000000001                3.396023
  1854   8      13.629613000000001      24.260384999999999      29.594598000000001
  1855   1               12.849864      24.819970000000001      29.618690999999998
  1856   1               14.284155               24.741304      30.107368000000001
  1857   8                4.032286      41.542158999999998      16.917922999999998
  1858   1      3.5640860000000001      41.210723999999999      17.687768999999999
  1859   1      4.7945250000000001                      42      17.281262999999999
  1860   8      36.963788999999998                15.13705      31.441994999999999
  1861   1      37.629344000000003               15.466834      30.833715000000002
  1862   1      36.949108000000003      15.783200000000001               32.152569
  1863   8               32.657477      35.428809000000001      32.033228999999999
  1864   1      32.955885000000002      35.987516999999997      32.754700999999997
  1865   1      33.464199000000001      35.047739999999997      31.677379999999999
  1866   8      2.5326279999999999               18.719555      27.716290000000001
  1867   1                1.680544      19.094826000000001      27.482089999999999
  1868   1      2.8681549999999998      19.300453999999998      28.403763000000001
  1869   8      20.427706000000001      16.916049000000001      41.412788999999997
  1870   1      19.774100000000001      17.413243000000001      41.910103999999997
  1871   1      19.918969000000001      16.236561999999999      40.963203999999998
  1872   8      22.006951000000001      31.688745999999998               22.862264
  1873   1               22.892982      31.498263999999999                22.54542
  1874   1      21.580774999999999      32.133785000000003      22.125409000000001
  1875   8      12.447423000000001      29.410862999999999      17.335498999999999
  1876   1      13.401509000000001               29.306362      17.358374000000001
  1877   1               12.312854      30.297364000000002      16.991043999999999
  1878   8      13.404170000000001     0.88556500000000005      8.6010039999999996
  1879   1               13.951767     0.75949999999999995      7.8225629999999997
  1880   1      12.504405999999999     0.79844599999999999                 8.27623
  1881   8      32.222625999999998      40.016618000000001      18.201609000000001
  1882   1      33.173985999999999      40.139648000000001               18.240385
  1883   1               32.092658      39.385568999999997      17.489198999999999
  1884   8      3.5905659999999999               14.733547      37.641834000000003
  1885   1                4.123354      13.948506999999999      37.788721000000002
  1886   1      3.4849540000000001               15.117049      38.516142000000002
  1887   8               20.552851               14.054397      6.3451849999999999
  1888   1      21.237946000000001               14.685278      6.1120359999999998
  1889   1      20.148236000000001               13.820784      5.5059279999999999
  1890   8               28.652953               12.146366      20.797765999999999
  1891   1               28.592592      11.203027000000001      20.629854999999999
  1892   1      27.969107999999999      12.531368000000001               20.243897
  1893   8      27.344263000000002      29.532938999999999      17.100615999999999
  1894   1               27.269344      30.459513000000001               16.860671
  1895   1      27.927029000000001      29.530740999999999      17.864173999999998
  1896   8      38.031854000000003      7.0646899999999997      3.7398440000000002
  1897   1                37.69453      6.1669609999999997      3.7847970000000002
  1898   1      37.756472000000002      7.3798589999999997      2.8752770000000001
  1899   8  0.00073800000000000005      2.2440410000000002      35.641469999999998
  1900   1                       0      3.1962980000000001      35.519283999999999
  1901   1     0.37740099999999999      1.8995420000000001      34.827781999999999
  1902   8      34.616010000000003      16.907063999999998                11.63294
  1903   1      33.879370000000002      17.420487999999999      11.972766999999999
  1904   1      34.904235999999997      17.390101999999999               10.854326
  1905   8      26.163533000000001      39.075073000000003      15.678337000000001
  1906   1      26.192568999999999      38.831454999999998                14.75015
  1907   1                25.40258      38.602530999999999      16.025176999999999
  1908   8      22.275134999999999               18.315659               13.226808
  1909   1               21.488878      17.958462999999998               12.807361
  1910   1      22.694863000000002      18.839455000000001               12.539707
  1911   8      14.674372999999999      35.304296000000001      27.373701000000001
  1912   1               13.792883      35.038921000000002      27.101164000000001
  1913   1      15.261768999999999      34.752949999999998      26.850608000000001
  1914   8      1.5238229999999999      17.067892000000001      36.303189000000003
  1915   1                2.342924               17.387936      35.917999000000002
  1916   1                1.345343               16.247605      35.836373999999999
  1917   8      27.571259999999999      3.0083709999999999      4.6945300000000003
  1918   1      27.223700999999998      2.3575529999999998      4.0802300000000002
  1919   1      28.363862000000001      2.5997949999999999      5.0515889999999999
  1920   8      9.7399730000000009      13.122479999999999                       0
  1921   1      9.8848909999999997      12.200839999999999     0.22650400000000001
  1922   1      10.434234999999999               13.594678     0.46655200000000002
  1923   8      37.851810999999998               15.447982      7.8258039999999998
  1924   1      38.609529000000002      16.019836999999999      7.9692280000000002
  1925   1      37.324793999999997               15.546097      8.6228409999999993
  1926   8      4.9019240000000002      41.171129000000001               14.605459
  1927   1      4.3095359999999996      41.924843000000003      14.553342000000001
  1928   1      4.3760690000000002      40.482827999999998      15.020621999999999
  1929   8               22.475838      26.169754000000001      39.124538000000001
  1930   1      22.675834999999999      26.895724000000001      39.720098999999998
  1931   1      22.707951999999999      26.504214000000001      38.254536999999999
  1932   8               18.469662                2.913958      40.041991000000003
  1933   1      18.884893999999999      2.9953259999999999      40.903782999999997
  1934   1               18.312638                3.820627      39.766424000000001
  1935   8               11.734724      18.044900999999999                7.134531
  1936   1               11.039797               17.422608      6.9074780000000002
  1937   1               12.530949               17.660577                 6.75908
  1938   8               19.658863      10.806865999999999      6.1013809999999999
  1939   1      19.792335000000001               11.161764      6.9833999999999996
  1940   1      19.346216999999999      11.555927000000001                5.587764
  1941   8               15.869085               13.608559               21.116716
  1942   1               15.711064               14.369914      20.553605999999998
  1943   1               15.149222      13.628617999999999      21.752355000000001
  1944   8      34.537748000000001      4.6552689999999997      33.826016000000003
  1945   1               34.692802      5.3775440000000003      34.439207000000003
  1946   1      33.673520000000003      4.3154450000000004      34.071517999999998
  1947   8      22.519774000000002      39.635092999999998      40.107849000000002
  1948   1      23.382446999999999      39.459468000000001      39.724867000000003
  1949   1      22.463885999999999               40.593463      40.140180999999998
  1950   8      23.803813999999999      16.284005000000001               12.627362
  1951   1      24.140771000000001      17.181774000000001               12.580511
  1952   1      23.281016000000001      16.267292000000001      13.432995999999999
  1953   8      6.0048539999999999      5.6344099999999999               20.209927
  1954   1      5.2740520000000002                6.194833      19.938673000000001
  1955   1      5.6410470000000004      5.0927119999999997      20.914802000000002
  1956   8      26.308513000000001      36.490971999999999      1.7551950000000001
  1957   1      25.946529999999999      35.719515999999999      2.1974040000000001
  1958   1      25.849257999999999               36.519886     0.91205099999999995
  1959   8      8.5770350000000004      10.700226000000001               15.913784
  1960   1      8.1043760000000002               10.666596      16.748760999999998
  1961   1      8.6600490000000008      9.7804710000000004      15.649582000000001
  1962   8               34.217171      9.9648909999999997      34.186594999999997
  1963   1      34.927182999999999      9.6136920000000003      34.729058000000002
  1964   1      34.587944999999998      9.9985940000000006      33.301138999999999
  1965   8      23.083473000000001      31.864394000000001      14.783181000000001
  1966   1               23.713721      31.310960000000001               14.316037
  1967   1      23.583964999999999      32.227536999999998      15.518216000000001
  1968   8      2.7736930000000002      2.4106010000000002      17.408474999999999
  1969   1      3.0613269999999999                1.512181      17.586894000000001
  1970   1      2.0744379999999998                2.568489               18.047815
  1971   8      11.571130999999999               22.471978      21.495139000000002
  1972   1               11.785935      22.670089000000001               20.580624
  1973   1               11.594526      23.325172999999999      21.935766999999998
  1974   8     0.94433299999999998               13.571869                3.626995
  1975   1                0.010609               13.716336      3.7973279999999998
  1976   1      1.3884860000000001      13.970871000000001      4.3794360000000001
  1977   8      40.963535999999998               26.145101      29.074203000000001
  1978   1               41.493938      25.617805000000001               29.676164
  1979   1               41.546436               26.316143                28.33015
  1980   8      37.448261000000002      20.177288000000001      6.2686659999999996
  1981   1      36.551217999999999      20.016082999999998      6.5704140000000004
  1982   1      37.352803999999999               20.840892                  5.5808
  1983   8      31.625737999999998               10.872873      7.2833220000000001
  1984   1      31.174313999999999      11.684749999999999      7.5258010000000004
  1985   1      32.385612999999999      10.838252000000001                7.869866
  1986   8      27.207947000000001               28.466037      25.104507000000002
  1987   1                 26.7164               27.693386               25.392806
  1988   1               26.699918      28.809671999999999               24.365275
  1989   8      13.339662000000001      9.2447940000000006      10.822927999999999
  1990   1               13.098791      9.7968980000000006      11.570517000000001
  1991   1      13.818232999999999      9.8348399999999998                10.23517
  1992   8      37.552495999999998      20.104172999999999      15.167529999999999
  1993   1               38.441879      19.824197000000002               14.938755
  1994   1      37.682034999999999      20.842849999999999               15.767712
  1995   8               35.591749      22.742636000000001      6.8284630000000002
  1996   1      35.939762999999999      21.871987000000001      7.0348170000000003
  1997   1      34.663792000000001      22.692198999999999      7.0713499999999998
  1998   8      3.0825870000000002               24.402089      38.177731000000001
  1999   1      2.5214699999999999      25.173501999999999      38.286337000000003
  2000   1                2.468807               23.682492      38.010112999999997
  2001   8                1.051857      33.644407999999999      30.555638999999999
  2002   1                1.552163                33.78595      31.362722999999999
  2003   1                0.863062      32.702603000000003      30.554214999999999
  2004   8               14.955204               17.235799      41.241160000000001
  2005   1               14.238642      17.873798000000001      41.276100999999997
  2006   1      15.289044000000001      17.301151999999998               40.342872
  2007   8               41.410069               14.451508      41.666811000000003
  2008   1                      42               15.140058      41.982415000000003
  2009   1      41.894621999999998               14.031779      40.951493999999997
  2010   8      39.011614999999999      38.205069999999999      3.8167140000000002
  2011   1      38.086739000000001      38.131860000000003      3.5697930000000002
  2012   1      39.116396999999999      37.578398999999997      4.5370929999999996
  2013   8                3.298019               27.710137               16.533776
  2014   1      3.4452980000000002               28.650903      16.411332999999999
  2015   1      2.6024530000000001      27.661694000000001      17.194444000000001
  2016   8               29.360837                1.598884      11.914899999999999
  2017   1      30.135041999999999                 1.83165      12.432733000000001
  2018   1      29.706617999999999      1.0625899999999999                11.19694
  2019   8               13.131537      17.746580000000002      8.8773520000000001
  2020   1               13.437873               18.609631      9.1654959999999992
  2021   1      13.112602000000001      17.219947000000001                9.680434
  2022   8               23.545296      14.710376999999999      18.155981000000001
  2023   1      24.350352999999998               15.116192      18.486014000000001
  2024   1               22.940752               15.446444      18.031984000000001
  2025   8      36.582174999999999      2.6889630000000002      27.730768000000001
  2026   1      36.532302999999999      1.7569680000000001      27.505773000000001
  2027   1      37.522112999999997      2.8866130000000001      27.721091999999999
  2028   8      18.516107000000002      4.9391959999999999      19.911657999999999
  2029   1      18.901240000000001      5.3900420000000002      19.156583999999999
  2030   1               17.790008      5.5064010000000003      20.183136999999999
  2031   8      24.311634000000002               19.825599      37.133816000000003
  2032   1      23.910337999999999               19.918612      38.001015000000002
  2033   1      23.584831999999999               19.956149      36.519522000000002
  2034   8     0.79655100000000001      26.447648000000001      1.1989559999999999
  2035   1      1.0503899999999999      25.522265000000001                1.168031
  2036   1                1.003641      26.721845999999999      2.0959340000000002
  2037   8      17.825617000000001      36.607494000000003                1.209562
  2038   1      18.458030999999998      37.191657999999997                 1.63445
  2039   1      17.144960999999999      36.469828999999997      1.8731869999999999
  2040   8      16.045943999999999      21.433810999999999      40.429861000000002
  2041   1               15.193794      20.992197999999998      40.406553000000002
  2042   1      16.391742000000001      21.238734000000001      41.304510000000001
  2043   8               25.422407      22.081538999999999      7.7935150000000002
  2044   1               24.584477      22.025639000000002      7.3282489999999996
  2045   1      25.967524000000001               22.642823      7.2363359999999997
  2046   8      24.897017999999999      38.006813999999999      40.698906999999998
  2047   1      25.460792999999999               37.246966      40.861736000000001
  2048   1               25.231026      38.683292000000002      41.293430999999998
  2049   8      29.280605999999999      19.291153000000001      4.9311889999999998
  2050   1               28.938817      18.835654000000002      4.1582559999999997
  2051   1      28.506931000000002               19.443455      5.4797079999999996
  2052   8      36.107472000000001               27.138741      35.087074000000001
  2053   1      36.909182999999999      26.629235999999999      35.226320000000001
  2054   1      35.685307000000002      26.717890000000001      34.333879000000003
  2055   8               15.054124      37.426164999999997                39.76399
  2056   1      14.697737999999999      36.934235000000001      39.020538999999999
  2057   1      15.977620999999999               37.164752      39.802168999999999
  2058   8      1.7289680000000001      5.6757210000000002      39.753024000000003
  2059   1      2.2810549999999998      5.1612910000000003      39.159486999999999
  2060   1      2.2733699999999999      5.8039509999999996      40.533937999999999
  2061   8      17.029133000000002      19.061534000000002      24.663744000000001
  2062   1      17.195050999999999               18.198252               25.049671
  2063   1               17.517982      19.051041999999999      23.836967999999999
  2064   8      27.592458000000001      32.426012999999998      40.576338999999997
  2065   1               26.746468      32.860474000000004      40.707759000000003
  2066   1      27.822690000000001      32.623153000000002               39.664873
  2067   8               23.927329               14.156506               26.498873
  2068   1      22.988427000000001                 14.1656                26.29861
  2069   1               24.128453               13.230651      26.656935000000001
  2070   8      30.328523000000001      9.5159590000000005               27.573501
  2071   1      29.985634000000001      9.3650140000000004               28.457452
  2072   1      29.908048999999998      8.8399830000000001               27.036006
  2073   8                38.35857      40.766511000000001      8.0095740000000006
  2074   1      38.005242000000003      39.887357999999999      7.8547320000000003
  2075   1      38.353651999999997               41.181438      7.1432859999999998
  2076   8               27.501566               11.007954               15.092831
  2077   1      27.667307999999998               11.318375      15.986079999999999
  2078   1      27.611585000000002               10.055285      15.147221999999999
  2079   8      7.0963010000000004      14.637105999999999      28.980830000000001
  2080   1      8.0405739999999994      14.700006999999999               29.142436
  2081   1      6.7357089999999999               15.443875      29.357313000000001
  2082   8      23.575697000000002               18.801752      6.2186560000000002
  2083   1      23.698160999999999               18.379279      7.0720289999999997
  2084   1               24.463134      19.045964999999999      5.9439640000000002
  2085   8      37.976011999999997      18.310735999999999                5.447317
  2086   1               37.019669      18.392043999999999      5.4701700000000004
  2087   1      38.261111999999997      19.014202000000001      4.8586780000000003
  2088   8      33.934275999999997      35.042543000000002      34.871968000000003
  2089   1      34.814821999999999      34.750017999999997      35.118529000000002
  2090   1      33.678801999999997      34.453727000000001      34.157355000000003
  2091   8               11.937419      29.129072000000001      3.0676320000000001
  2092   1      11.904826999999999      28.287790999999999      2.6062110000000001
  2093   1                 12.4887               29.685019      2.5111659999999998
  2094   8      2.1019070000000002      6.6623900000000003      22.674638999999999
  2095   1      2.5411730000000001      7.1603479999999999               23.368043
  2096   1                1.345343      7.2035869999999997      22.435141000000002
  2097   8               12.123248      8.9759220000000006               15.886593
  2098   1                11.81035      9.6014400000000002      16.544277000000001
  2099   1               11.841196      8.1198370000000004      16.218565999999999
  2100   8      39.480975000000001               25.356164      27.178190000000001
  2101   1      39.444059000000003                25.07732      28.096126999999999
  2102   1      39.026108999999998               24.659098      26.698775000000001
  2103   8      2.6028519999999999      34.028775000000003      14.403491000000001
  2104   1                3.246969      33.444386000000002      13.996885000000001
  2105   1      3.0770400000000002               34.435454               15.133148
  2106   8      32.717663000000002      17.965112000000001      18.704405000000001
  2107   1      32.667046999999997      17.979521999999999      17.745782999999999
  2108   1      32.551566000000001               17.048378               18.938184
  2109   8      26.365790000000001      11.184317999999999                29.46415
  2110   1      27.133282000000001      11.680484999999999               29.170043
  2111   1               26.149424               11.564537               30.319288
  2112   8               10.146817      30.757027999999998      9.6927050000000001
  2113   1                9.353961               31.297895      9.6688609999999997
  2114   1      9.9031389999999995               29.955852      9.2221960000000003
  2115   8      39.012439999999998      29.950023999999999      13.932933999999999
  2116   1      39.214317000000001               30.791698               14.348331
  2117   1      38.824108000000003               29.360626               14.667634
  2118   8      26.584333000000001      24.445900999999999      31.026465999999999
  2119   1               26.975026      25.289042999999999      30.785229999999999
  2120   1               25.723537               24.675943      31.385287999999999
  2121   8      38.462415999999997      29.783269000000001      27.226600999999999
  2122   1      38.233083999999998      28.888165000000001      27.487217999999999
  2123   1      37.776093000000003                30.03322      26.602800999999999
  2124   8      16.271712000000001               10.276759               33.081989
  2125   1               17.120614      9.9177330000000001      32.813305999999997
  2126   1                 16.4955      11.024940000000001      33.641261999999998
  2127   8                      42      9.4077009999999994               14.986699
  2128   1               41.582597                9.986186               14.344161
  2129   1      41.711672999999998      9.7485970000000002                15.83717
  2130   8      25.904510999999999               41.400627                14.13571
  2131   1               25.539714      40.535941000000001               13.933308
  2132   1      26.563901999999999      41.228709000000002               14.812681
  2133   8      7.3885319999999997      17.782367000000001      19.039888000000001
  2134   1      6.4597530000000001      17.549174000000001      18.971212999999999
  2135   1                7.778937      17.061599000000001      19.540607000000001
  2136   8               12.038221      39.350133999999997               30.084173
  2137   1      12.652499000000001      38.612506000000003      30.067081000000002
  2138   1               11.182774      38.952249999999999               29.903786
  2139   8      25.658273000000001      27.741775000000001      4.7335229999999999
  2140   1      25.149636000000001      27.167850999999999      5.3111259999999998
  2141   1      26.524902000000001      27.329726999999998                4.690944
  2142   8      34.837136000000001      19.670131999999999                8.810943
  2143   1      34.372849000000002      19.231408999999999      8.0942249999999998
  2144   1      35.501100999999998      20.207326999999999      8.3713820000000005
  2145   8               31.078118               15.750909                1.232769
  2146   1      31.657278999999999      16.348721999999999     0.75431599999999999
  2147   1               31.189484               15.997695      2.1543640000000002
  2148   8               25.931113               25.670171      10.309418000000001
  2149   1      25.706752000000002      26.583010999999999               10.114196
  2150   1               25.706875      25.562712999999999               11.237218
  2151   8      2.6126969999999998               12.948285               24.509007
  2152   1      2.5464199999999999                12.02159      24.266999999999999
  2153   1      2.4147850000000002      13.421537000000001      23.696906999999999
  2154   8               17.726429      9.5348009999999999               12.323675
  2155   1               17.456979      10.422788000000001               12.569848
  2156   1      18.340140999999999      9.6648879999999995      11.596298000000001
  2157   8      7.5401249999999997      10.522411999999999               27.519838
  2158   1      7.5652980000000003      10.261005000000001      26.596388999999999
  2159   1      8.1706760000000003      9.9392940000000003      27.949978999999999
  2160   8      31.817340000000002               25.911057      13.938383999999999
  2161   1      32.482430000000001      25.226023000000001               13.837844
  2162   1      31.214497999999999               25.562797      14.600153000000001
  2163   8      41.469222000000002      24.327355000000001      8.1339190000000006
  2164   1      41.373260999999999      25.082986999999999      7.5495070000000002
  2165   1               40.933411      24.548701999999999      8.8997879999999991
  2166   8               11.063336      35.658290999999998      10.497837000000001
  2167   1                10.41536      35.034348000000001               10.833318
  2168   1               11.352124      36.143171000000002               11.275098
  2169   8      25.007138999999999      16.794471000000001      9.6087229999999995
  2170   1      24.532319999999999               17.557807      9.2716919999999998
  2171   1      24.667256999999999      16.676397000000001                10.49933
  2172   8      14.582846999999999               14.899597               23.722683
  2173   1               14.019278               15.473894      24.246417999999998
  2174   1               14.273482      14.013006000000001      23.924900000000001
  2175   8      29.361933000000001      12.362925000000001               14.677697
  2176   1      28.604593000000001      12.691304000000001               14.187464
  2177   1      29.947285000000001               12.009062               14.003318
  2178   8      31.273451999999999               25.747432      3.4903309999999999
  2179   1      32.115884999999999      25.745397000000001      3.0298660000000002
  2180   1      31.242678000000002      26.602233999999999      3.9273760000000002
  2181   8      8.0445539999999998      12.181120999999999      8.2648539999999997
  2182   1      7.7609430000000001      13.064959999999999      8.0196620000000003
  2183   1      7.4477260000000003      11.927156999999999      8.9733309999999999
  2184   8      5.8742660000000004               20.518957               11.746611
  2185   1      6.0758720000000004      19.847636999999999      12.402666999999999
  2186   1      6.6904820000000003      20.620166999999999               11.250434
  2187   8      18.051283999999999      16.197998999999999      23.906269000000002
  2188   1      18.722366999999998      16.786055000000001      24.260618000000001
  2189   1      17.452836999999999      16.048048000000001               24.642488
  2190   8      16.146951999999999      27.684114000000001               37.229298
  2191   1               15.288489                28.11063      37.282691999999997
  2192   1      16.073094999999999      26.925574999999998      37.813940000000002
  2193   8      30.131464999999999      11.933711000000001               30.972199
  2194   1      29.345068000000001               12.429878      30.733191999999999
  2195   1      29.803909999999998               11.219075      31.524145999999998
  2196   8      4.3476090000000003               14.731553               25.377568
  2197   1      4.5731809999999999      14.867718999999999      26.300768999999999
  2198   1      5.0978700000000003               15.086354      24.893969999999999
  2199   8     0.31266100000000002      15.885063000000001      4.6992609999999999
  2200   1     0.43023899999999998               15.338899      5.4800339999999998
  2201   1     0.76248300000000002               16.706439      4.9129050000000003
  2202   8               27.808747      40.301336999999997                24.53378
  2203   1      27.364723999999999      39.836767000000002      23.820516999999999
  2204   1      27.101718999999999      40.755564999999997      24.998999999999999
  2205   8               22.815424      15.658341999999999      37.339509999999997
  2206   1      23.726112000000001               15.673983      37.035983000000002
  2207   1               22.350849               15.145457      36.673355999999998
  2208   8      18.518122000000002      26.747799000000001                1.711721
  2209   1      18.332339999999999      27.530034000000001      2.2364299999999999
  2210   1      19.094989000000002      27.062204999999999                1.010996
  2211   8      22.212485999999998      5.9077570000000001      1.9919849999999999
  2212   1      22.491724000000001      6.8239599999999996                 1.92624
  2213   1               22.064961      5.6375820000000001                1.082104
  2214   8               16.169404      5.7615540000000003      41.327435000000001
  2215   1      16.617222000000002      4.9287429999999999      41.161271999999997
  2216   1      16.880534999999998                6.386082      41.491442999999997
  2217   8   0.0074089999999999998      22.593523999999999      3.2208809999999999
  2218   1     0.42236899999999999      23.328551000000001      3.6783399999999999
  2219   1     0.71707399999999999      22.202522999999999      2.7049979999999998
  2220   8      7.5502000000000002                1.458715                1.496988
  2221   1      8.0925589999999996     0.72858100000000003                1.804357
  2222   1      7.0309900000000001      1.0849299999999999     0.78050600000000003
  2223   8      22.863645000000002      3.3134190000000001      38.864398999999999
  2224   1      22.275538999999998                4.068003      38.944768000000003
  2225   1               23.392374      3.5050759999999999      38.085711000000003
  2226   8      8.3775390000000005               40.476585               13.742082
  2227   1      9.1952499999999997      40.014311999999997      13.940518000000001
  2228   1      7.9755019999999996      39.959128999999997               13.039766
  2229   8      34.777926000000001      7.5577399999999999               10.695366
  2230   1      35.568601000000001      7.6594870000000004      10.160384000000001
  2231   1      34.616529999999997      8.4350719999999999                11.05157
  2232   8                15.75554      39.807098000000003      9.9111609999999999
  2233   1               15.675421      38.875869000000002      9.6918019999999991
  2234   1      16.463564999999999               39.839281               10.559471
  2235   8      9.4925680000000003      15.730328999999999      40.025939000000001
  2236   1      9.4960419999999992               16.356299               40.753864
  2237   1                10.41452               15.482355      39.920313999999998
  2238   8                5.358085      30.343381000000001      29.696815000000001
  2239   1      5.6169500000000001      30.898081000000001      30.436423999999999
  2240   1      5.1952439999999998               29.482308      30.090105999999999
  2241   8      18.543839999999999      23.721748000000002               28.301627
  2242   1               19.276218               24.340052               28.356824
  2243   1               18.687427      23.255303000000001      27.474309999999999
  2244   8               39.720996      17.210256000000001      14.319039999999999
  2245   1      39.227775000000001      17.928335000000001               14.722552
  2246   1      40.050742999999997      17.580314000000001      13.496261000000001
  2247   8      37.930504999999997                7.882091               31.731714
  2248   1      37.443775000000002      8.3965910000000008      32.379873000000003
  2249   1      38.546163999999997      7.3616630000000001      32.253979999999999
  2250   8      16.776392000000001               32.914192      24.784994000000001
  2251   1      16.211635000000001      33.529541000000002      24.311579999999999
  2252   1               17.635002               33.344414      24.803453000000001
  2253   8               13.224746      32.091712999999999      28.133773000000001
  2254   1               12.405503      32.342669000000001               28.566886
  2255   1      13.503691999999999      32.886617999999999      27.672298999999999
  2256   8      6.0318379999999996               29.406571               27.512739
  2257   1      5.2496479999999996      29.037583000000001               27.929575
  2258   1      6.7400409999999997      29.231577000000001      28.137613000000002
  2259   8      24.375299999999999      16.360825999999999      28.011672000000001
  2260   1      24.277771000000001               15.688013               28.689563
  2261   1               23.491757               16.722472      27.905813999999999
  2262   8      37.272201000000003      31.087942999999999      40.817407000000003
  2263   1      36.836751999999997               31.902922      41.078018999999998
  2264   1      38.209377000000003               31.294141      40.860143999999998
  2265   8               17.640829      1.6260790000000001      25.189392000000002
  2266   1               18.440483                1.207892      25.517109000000001
  2267   1      16.940684999999998      1.0058039999999999      25.407793999999999
  2268   8      33.952986000000003      7.0833940000000002      13.704885000000001
  2269   1      33.578167000000001      6.9582189999999997      14.579852000000001
  2270   1      33.192945999999999      7.0823929999999997               13.117535
  2271   8      26.426646000000002      8.4798969999999994               21.458503
  2272   1      26.561192999999999      7.7266719999999998      20.878613000000001
  2273   1               25.924668      8.1256810000000002      22.196874000000001
  2274   8      14.880388999999999      8.5587300000000006               17.088777
  2275   1      15.551849000000001      8.1509370000000008               16.536897
  2276   1               14.055066      8.1727880000000006               16.784585
  2277   8      2.1031550000000001               29.387394      7.1145319999999996
  2278   1                1.691282      30.252390999999999                7.176704
  2279   1                 1.61111      28.938199999999998      6.4226080000000003
  2280   8      40.153958000000003      3.8273429999999999      28.541132999999999
  2281   1      40.459899999999998                2.976153      28.863002999999999
  2282   1               39.599646                3.611815      27.786860999999998
  2283   8      14.007009999999999      11.976615000000001      3.6472850000000001
  2284   1      13.553304000000001      12.731115000000001      3.2643930000000001
  2285   1               14.822066               12.342416      4.0001519999999999
  2286   8      6.6977200000000003      27.455846000000001      7.6604210000000004
  2287   1      6.0495159999999997               28.104678                7.376563
  2288   1      7.4001440000000001      27.519515999999999                7.008356
  2289   8      9.2295599999999993      7.7069660000000004      19.948357999999999
  2290   1      8.6967800000000004                 7.89595               20.724345
  2291   1      9.2864100000000001      6.7483719999999998      19.925854999999999
  2292   8      22.949974000000001      1.1669579999999999      29.926438999999998
  2293   1      22.234283000000001      1.2369429999999999      29.290347000000001
  2294   1      23.484483000000001      1.9497679999999999               29.771037
  2295   8      32.995758000000002               41.277555      20.040655999999998
  2296   1      32.138564000000002      40.878931999999999      20.208117000000001
  2297   1      32.808760999999997      41.999712000000002      19.435542000000002
  2298   8      4.6617519999999999      21.993732000000001               19.048226
  2299   1      5.4857969999999998      21.513380999999999      18.938963999999999
  2300   1      3.9848940000000002               21.312331               19.034119
  2301   8      28.932511000000002      22.888598000000002               12.510952
  2302   1      28.362556999999999      22.616707000000002               13.234107
  2303   1      28.496791999999999      22.551290000000002               11.724178
  2304   8      39.771841999999999                40.35331      18.798808000000001
  2305   1      40.284916000000003      40.889335000000003               18.189581
  2306   1      39.700423000000001      39.499994999999998      18.363613000000001
  2307   8      26.232766000000002      11.421074000000001               19.256294
  2308   1      26.109708999999999      12.344787999999999      19.025352999999999
  2309   1      25.625979999999998      11.274971000000001      19.986436000000001
  2310   8     0.47486099999999998               13.765758      16.046275000000001
  2311   1                0.332459      13.035588000000001      15.439398000000001
  2312   1     0.39761099999999999               14.550367      15.497583000000001
  2313   8               28.661455      9.3542039999999993      24.255438000000002
  2314   1      29.329222000000001               10.032598      24.380317000000002
  2315   1               29.041027      8.7638719999999992      23.599637000000001
  2316   8      15.257720000000001      4.1004670000000001      31.622015000000001
  2317   1      14.883582000000001      4.7326839999999999               32.240116
  2318   1      14.505591000000001      3.7956729999999999               31.108162
  2319   8      32.415480000000002               10.751797               10.406888
  2320   1      31.578082999999999               10.925497      9.9706320000000002
  2321   1               32.872577      11.596448000000001      10.390506999999999
  2322   8      20.781034999999999      32.734549999999999      4.2998690000000002
  2323   1      19.993054000000001                33.21217      4.5694800000000004
  2324   1               20.845219      32.008214000000002      4.9251360000000002
  2325   8      32.150300999999999               15.601397               22.242815
  2326   1      32.515045000000001      16.485344999999999      22.328385999999998
  2327   1      31.402782999999999      15.592496000000001      22.845956999999999
  2328   8               17.192394      30.056584999999998               14.141779
  2329   1      16.406220000000001      30.496919999999999                14.47308
  2330   1      17.919841000000002                30.60069               14.453889
  2331   8                3.754861                15.73434      14.404317000000001
  2332   1      4.4921049999999996               15.855478               13.801389
  2333   1      2.9774090000000002               15.776429               13.841787
  2334   8               15.436581      28.660050999999999      16.539691999999999
  2335   1      16.212973000000002      29.011624999999999      16.097722000000001
  2336   1               14.793796               28.543239      15.835544000000001
  2337   8      32.161011000000002      8.4405549999999998                2.425656
  2338   1      31.721070000000001                 9.21312                2.788036
  2339   1      32.842751999999997      8.8010739999999998      1.8530329999999999
  2340   8               13.914361      15.658906999999999      7.8403980000000004
  2341   1      13.910392999999999               14.716542      8.0238569999999996
  2342   1               14.673961               15.786908      7.2665810000000004
  2343   8      26.020461000000001      34.724823999999998      4.9551280000000002
  2344   1      26.183046000000001      35.604804999999999      5.3028680000000001
  2345   1      26.636437000000001      34.640213000000003      4.2229679999999998
  2346   8      5.5211170000000003      22.428927999999999      8.1117969999999993
  2347   1      5.0538610000000004      22.445481000000001      8.9503210000000006
  2348   1      5.0869239999999998      21.734020999999998                7.610576
  2349   8      6.4564469999999998      27.680485000000001      40.163970999999997
  2350   1      5.7251450000000004      27.967320999999998      39.612022000000003
  2351   1                6.190372               27.919494      41.055441999999999
  2352   8               14.650145                  10.827      25.914891000000001
  2353   1      14.470433999999999      10.074445000000001                25.34648
  2354   1      14.167927000000001               11.552279               25.509826
  2355   8      3.9872540000000001      21.173967999999999               28.924854
  2356   1      4.3286829999999998      20.910872000000001               28.066989
  2357   1      3.9592209999999999      22.133327000000001      28.886310999999999
  2358   8                 1.20086      4.2962550000000004               10.570008
  2359   1     0.41928199999999999      4.8234899999999996               10.751346
  2360   1                1.466081      4.5595869999999996      9.6851599999999998
  2361   8      21.160906000000001      8.7822770000000006      22.403030000000001
  2362   1      21.083366000000002      8.1899390000000007      23.154592999999998
  2363   1      21.872423999999999      9.3809839999999998      22.643726000000001
  2364   8      21.170705000000002      37.013291000000002      22.762695999999998
  2365   1               20.683481      36.331418999999997               23.231085
  2366   1      20.571100999999999      37.301504999999999      22.069839999999999
  2367   8      36.575778999999997     0.84937700000000005               29.956111
  2368   1      35.802328000000003                1.062411      30.483478000000002
  2369   1      36.367074000000002                       0      29.559069000000001
  2370   8      17.937107999999998      6.5722509999999996      25.144691000000002
  2371   1      18.280861000000002      7.4442700000000004      25.352398000000001
  2372   1      16.985645999999999      6.6617920000000002      25.241354999999999
  2373   8      8.4526079999999997      13.412781000000001      1.9565170000000001
  2374   1      8.7637990000000006      13.406601999999999      2.8647279999999999
  2375   1      7.5621739999999997                13.76872      2.0119950000000002
  2376   8      24.717638999999998      5.1987220000000001      11.693410999999999
  2377   1      24.861861999999999      4.2694000000000001      11.500315000000001
  2378   1               24.512096      5.2182230000000001      12.631501999999999
  2379   8      39.690522000000001               14.825448      33.162373000000002
  2380   1      39.001206000000003      15.094580000000001      32.550705999999998
  2381   1      40.426614999999998               14.576706               32.597628
  2382   8      38.595027999999999      38.280313999999997      23.692769999999999
  2383   1      39.220412000000003      38.771472000000003      23.154827000000001
  2384   1      37.995604999999998               37.881259      23.057089000000001
  2385   8               23.323352      41.067478000000001      14.567818000000001
  2386   1      23.843371999999999      40.445301000000001      15.081822000000001
  2387   1      23.551338000000001      40.872160999999998               13.655395
  2388   8      32.058629000000003      16.722989999999999      26.113433000000001
  2389   1               31.875353      17.662254999999998      26.190345000000001
  2390   1               32.884746      16.680454999999998      25.625208000000001
  2391   8      14.302193000000001      9.9645060000000001      29.158878000000001
  2392   1               13.820883               10.569212      29.728435999999999
  2393   1               15.169375               10.366346      29.063154000000001
  2394   8      6.0411429999999999               23.669342      29.831596999999999
  2395   1      6.5151389999999996      24.504179000000001      29.841619000000001
  2396   1      5.8525229999999997      23.491137999999999      30.756426000000001
  2397   8      9.6888089999999991      36.794750999999998      35.007100000000001
  2398   1      8.9336970000000004      36.268236000000002      35.279704000000002
  2399   1      9.6601719999999993      36.773605000000003      34.047218000000001
  2400   8               15.665606      16.305789000000001      17.103891000000001
  2401   1               15.051314      16.900210000000001               17.540965
  2402   1               16.492611      16.793724000000001      17.078893999999998
  2403   8      15.052974000000001      41.076403999999997               19.303314
  2404   1               15.667963      41.528961000000002      18.721329000000001
  2405   1                14.20974      41.128768999999998      18.846305999999998
  2406   8      8.8360350000000007               11.762357      5.1798419999999998
  2407   1      8.3635029999999997      11.755589000000001      4.3441419999999997
  2408   1                9.468534               12.479692      5.0903090000000004
  2409   8      29.931754000000002      22.883054000000001      2.6784379999999999
  2410   1      29.687277000000002               23.449589      3.4139599999999999
  2411   1      29.454806999999999      23.247046999999998                1.928323
  2412   8      22.779682000000001     0.27370499999999998      4.2451749999999997
  2413   1      23.463712999999998                       0      4.8607319999999996
  2414   1      23.231166000000002     0.85909500000000005      3.6318860000000002
  2415   8      38.819659000000001      4.3257529999999997      34.487726000000002
  2416   1      38.885429999999999      3.5164059999999999      33.975518000000001
  2417   1      39.480069999999998                4.225422               35.177968
  2418   8               24.158628      17.369948999999998               30.427356
  2419   1               23.618302               18.118917      30.165019999999998
  2420   1               23.692788      16.990798999999999               31.176942
  2421   8      8.1757899999999992      6.5037510000000003                1.273169
  2422   1      9.0898129999999995      6.4400250000000003     0.98641800000000002
  2423   1                7.852862                5.599621                1.243047
  2424   8      1.8471040000000001                1.054799      20.426718000000001
  2425   1      1.8770119999999999     0.88838899999999998      21.371777999999999
  2426   1      2.7697050000000001                1.100851               20.163414
  2427   8               31.390936      38.771138000000001      40.430349999999997
  2428   1      31.440432999999999      38.469915999999998      41.340592000000001
  2429   1               30.863229      38.102558000000002               39.986314
  2430   8               12.238199      27.551266999999999               24.731005
  2431   1      12.970701999999999      27.003858000000001      24.438586000000001
  2432   1      12.501711999999999      28.445554000000001      24.499804000000001
  2433   8      37.540618000000002                5.581645      35.936419999999998
  2434   1      37.235329999999998      6.4917389999999999      35.920506000000003
  2435   1      37.132174999999997      5.2068279999999998      36.720847999999997
  2436   8      16.669318000000001               11.912143      1.6005039999999999
  2437   1               17.475735      12.419110999999999                1.720507
  2438   1               15.999316               12.415165      2.0702989999999999
  2439   8      11.469367999999999      8.6805479999999999      4.4198789999999999
  2440   1               11.582127      8.3476929999999996      3.5264489999999999
  2441   1               12.131338      8.2117159999999991      4.9343060000000003
  2442   8      41.245322000000002               38.867162               29.055318
  2443   1      41.999999000000003      38.645408000000003      29.605785000000001
  2444   1      41.079160000000002      38.069848999999998      28.546081000000001
  2445   8      27.682573999999999                      42                29.36298
  2446   1      28.415755999999998      41.821792000000002               29.956623
  2447   1      28.026160000000001      41.791716000000001      28.490507999999998
  2448   8      27.974326000000001               23.615043               17.597279
  2449   1      28.677614999999999      23.977633999999998               18.141005
  2450   1                28.43299               23.135164      16.903027000000002
  2451   8      4.4412580000000004      9.7137080000000005      32.572902999999997
  2452   1      4.7855809999999996      8.8193210000000004      32.515999000000001
  2453   1      3.4939450000000001      9.6127540000000007      32.450232999999997
  2454   8               12.897079      35.327297000000002      7.6346059999999998
  2455   1               12.305958      35.724960000000003                8.278162
  2456   1      12.398782000000001               34.587384      7.2784180000000003
  2457   8               13.600266               15.572312      11.849470999999999
  2458   1                14.02923      16.361142999999998               11.509677
  2459   1               14.316989               14.944274      11.969963999999999
  2460   8      12.492817000000001                22.80142               31.577385
  2461   1               13.067375      23.536646000000001      31.803329000000002
  2462   1               12.948513      22.354565000000001      30.859538000000001
  2463   8               15.350393      1.6259459999999999      31.559266999999998
  2464   1               14.790359      1.9465570000000001               32.270108
  2465   1               14.782461      1.6372679999999999      30.784690999999999
  2466   8      2.3849969999999998               27.628695      4.1913419999999997
  2467   1      2.8662649999999998      27.890277999999999      3.4028749999999999
  2468   1      3.0669059999999999               27.502039      4.8558719999999997
  2469   8                6.420426               24.799785      38.029896000000001
  2470   1      5.7435790000000004      25.342984999999999               38.440427
  2471   1      6.4535710000000002      25.107026000000001      37.120420000000003
  2472   8      17.354645999999999      32.063352999999999      22.510059999999999
  2473   1      17.686136999999999               31.903354      21.623359000000001
  2474   1               17.708015      31.337976000000001      23.031213000000001
  2475   8               24.228904      8.4807930000000002      8.0323849999999997
  2476   1      23.325054999999999      8.1594329999999999      8.0712440000000001
  2477   1      24.527042000000002                8.247814      7.1495050000000004
  2478   8      20.193221000000001                1.383094      38.457538999999997
  2479   1               20.771811     0.63506700000000005      38.291966000000002
  2480   1               19.328806      1.0858000000000001      38.162503999999998
  2481   8      17.009315999999998      21.213674000000001      23.267468000000001
  2482   1               16.389446      21.933274999999998               23.127253
  2483   1                17.87059      21.605070000000001      23.101161000000001
  2484   8      12.255718999999999      28.763812999999999      9.6498059999999999
  2485   1               12.877615      29.354939999999999      9.2190639999999995
  2486   1               11.808299      29.317315000000001      10.294859000000001
  2487   8      41.443911999999997      41.113064000000001      36.867617000000003
  2488   1      40.882534999999997      40.406725999999999               37.195743
  2489   1      40.957653999999998               41.478192      36.124060999999998
  2490   8      25.134592999999999      32.404165999999996                3.628161
  2491   1      24.896222999999999      33.060612999999996      4.2869339999999996
  2492   1               26.085113      32.500408999999998      3.5287139999999999
  2493   8      16.683402000000001      26.927372999999999      8.9579850000000008
  2494   1      15.950894999999999      26.663924000000002      8.3960650000000001
  2495   1      16.297854999999998               26.997788      9.8349320000000002
  2496   8      4.3115110000000003               27.327555               14.158754
  2497   1      4.2281219999999999      28.271965999999999      14.007561000000001
  2498   1                3.608044      26.938849000000001               13.632747
  2499   8      30.088429999999999               18.619256      34.569054999999999
  2500   1      29.908214000000001               17.745545      34.214266000000002
  2501   1      30.734836999999999               18.466186      35.262863000000003
  2502   8               39.819094      36.646968999999999      38.426951000000003
  2503   1      40.318621999999998      37.350306000000003      38.005626999999997
  2504   1      39.473672999999998      37.047229000000002      39.228897000000003
  2505   8      22.774916999999999               14.017229               24.082148
  2506   1               23.190009      13.177943000000001      24.294333000000002
  2507   1      23.417324000000001               14.467582               23.527949
  2508   8      17.419305000000001               30.281813     0.30996400000000002
  2509   1      17.372907999999999      30.351310999999999                1.266386
  2510   1      16.624417999999999      30.723082999999999                       0
  2511   8      24.656086999999999      29.764119999999998      29.512727999999999
  2512   1               25.365686      29.121749999999999      29.587260000000001
  2513   1      24.773116000000002      30.148520999999999      28.640270999999998
  2514   8      38.918458000000001      33.928328999999998               25.516717
  2515   1      39.606029999999997      34.086314000000002      26.167878000000002
  2516   1      38.492494000000001      33.119343999999998               25.811235
  2517   8      5.9325190000000001     0.90084500000000001      8.1886740000000007
  2518   1      5.2038039999999999     0.27706599999999998      8.2286719999999995
  2519   1      6.1047209999999996      1.0064299999999999      7.2496099999999997
  2520   8      35.005777999999999      31.208003000000001      34.003602999999998
  2521   1      34.763151999999998      31.998892999999999      34.490788999999999
  2522   1      34.735990999999999      30.484151000000001               34.574475
  2523   8      24.718540000000001               12.667652      10.127364999999999
  2524   1      23.811751999999998               12.374234               10.011754
  2525   1      25.085070000000002      12.059998999999999      10.774710000000001
  2526   8      6.8947659999999997      33.829194000000001      4.9497669999999996
  2527   1      6.4561909999999996      33.783079999999998      4.0969769999999999
  2528   1      6.9336099999999998      32.916803000000002      5.2475509999999996
  2529   8      40.785240000000002      20.443269999999998      20.518492999999999
  2530   1      41.155419000000002      19.772939999999998      19.939398000000001
  2531   1      40.837651000000001               20.055764      21.395838999999999
  2532   8      1.1767829999999999      3.0864479999999999               15.089335
  2533   1                1.914093                3.436842      14.584039000000001
  2534   1     0.42362300000000003      3.1659739999999998               14.498516
  2535   8                11.54987      11.892925999999999      3.8206630000000001
  2536   1      10.715529999999999      11.837813000000001      3.3488950000000002
  2537   1               11.520773               12.747916      4.2574560000000004
  2538   8               28.262297      26.355602000000001               24.620531
  2539   1      29.186340999999999               26.095761               24.601789
  2540   1      27.997882000000001      26.362853999999999      23.697127999999999
  2541   8      31.015402999999999      21.248453999999999               23.514163
  2542   1      30.672961999999998               20.418837               23.173289
  2543   1      31.687812999999998      20.986370999999998      24.148054999999999
  2544   8               14.262159                3.845361      18.710052999999998
  2545   1      13.411289999999999                 3.83331      18.265529000000001
  2546   1      14.101298999999999      4.3367000000000004      19.519590999999998
  2547   8      15.021064000000001      6.7945589999999996      12.573475999999999
  2548   1      15.504035999999999      6.3728350000000002      13.288047000000001
  2549   1      14.109735000000001      6.5228450000000002      12.708729999999999
  2550   8               31.111922      39.669026000000002               33.129258
  2551   1      30.556622000000001                39.42445      33.873266999999998
  2552   1      30.940643999999999      40.605513999999999      33.001601000000001
  2553   8      13.293922999999999      38.842277000000003      39.334918999999999
  2554   1               13.131458               38.621299               40.254973
  2555   1               12.691006      38.278111000000003      38.844155000000001
  2556   8               17.425093      40.523377000000004      39.419687000000003
  2557   1               17.103545      40.357545999999999      40.308973999999999
  2558   1      18.288042000000001      40.924869000000001      39.549174000000001
  2559   8      23.423169999999999      35.504646000000001      26.235230000000001
  2560   1      22.513470000000002               35.794266               26.133782
  2561   1      23.882197999999999      36.275925999999998      26.577373999999999
  2562   8      34.671728000000002               24.931918      2.5970059999999999
  2563   1      34.084941999999998      25.423583000000001      3.1763780000000001
  2564   1      35.353724999999997      24.591508999999999                3.181508
  2565   8      22.198022000000002      15.573290999999999      29.403884000000001
  2566   1      21.240853999999999               15.607647      29.337755999999999
  2567   1      22.368179000000001               14.872657      30.038550999999998
  2568   8                       0               15.999101      13.604679000000001
  2569   1     0.54342199999999996      16.408823000000002               14.281838
  2570   1     0.59372199999999997      15.887060999999999               12.857963
  2571   8      11.117768999999999                4.638255      18.861018999999999
  2572   1      11.285291000000001      4.4203900000000003      17.941130000000001
  2573   1               11.830945      5.2364439999999997               19.098067
  2574   8      36.863790000000002      17.203171000000001               25.030714
  2575   1      36.847377000000002               16.460708      25.639157999999998
  2576   1               36.462913      16.861937000000001      24.227284999999998
  2577   8      12.385263999999999                1.567731               27.106358
  2578   1               11.877692      2.3391679999999999      27.369001999999998
  2579   1      13.264182999999999                 1.91069               26.926019
  2580   8               38.073521      4.1369579999999999      7.7858840000000002
  2581   1      38.867865999999999                4.091386      8.3231579999999994
  2582   1      38.319161000000001      4.6954880000000001      7.0440300000000002
  2583   8      4.7282190000000002      32.146228000000001                 3.61944
  2584   1      5.1522379999999997      32.212995999999997      2.7606760000000001
  2585   1      5.2408109999999999      31.482271000000001      4.0874699999999997
  2586   8               12.414109      16.290949999999999      1.7880830000000001
  2587   1               11.656566      16.873833000000001      1.6980770000000001
  2588   1               12.749495               16.195905     0.89302800000000004
  2589   8      27.744371999999998      41.999957999999999               11.484612
  2590   1                27.04419      41.345542999999999               11.427942
  2591   1      28.175560999999998      41.815809000000002               12.322948
  2592   8               20.249627      38.800376999999997      6.3383950000000002
  2593   1      19.367173000000001      39.168292999999998      6.2509949999999996
  2594   1               20.593159               38.789099      5.4414559999999996
  2595   8      7.0970420000000001      33.213945000000002      36.742975000000001
  2596   1      7.3706240000000003      33.263122000000003      37.661920000000002
  2597   1      6.3930449999999999      32.560485999999997      36.738433999999998
  2598   8      40.438659999999999      20.809156999999999               32.434604
  2599   1      40.709361000000001      21.413512999999998      31.739477000000001
  2600   1      40.505552999999999      21.327432000000002      33.240555999999998
  2601   8               21.921391      38.782854999999998               26.112613
  2602   1               22.386623      38.097938999999997      26.598590999999999
  2603   1               21.485056      39.302878999999997      26.792193000000001
  2604   8               33.828263      38.590282999999999      27.934021000000001
  2605   1      33.224894999999997               39.246727      28.290044999999999
  2606   1      34.389031000000003      39.084280999999997      27.330573999999999
  2607   8      29.169668000000001      16.774678999999999                1.653537
  2608   1      28.457422999999999      17.287673000000002      2.0424699999999998
  2609   1      28.744675000000001               15.968524                1.349998
  2610   8      36.264091999999998      9.7340470000000003      9.8722919999999998
  2611   1      36.686945000000001      10.501568000000001      9.4800789999999999
  2612   1      36.292817999999997      9.9029539999999994      10.817430999999999
  2613   8      33.040649000000002      37.026462000000002      3.7949830000000002
  2614   1      33.126485000000002      37.221336000000001      2.8588309999999999
  2615   1      32.336286999999999      37.606237999999998      4.0956099999999998
  2616   8      28.988817999999998                8.024305      13.698309999999999
  2617   1      29.285613000000001      8.8701849999999993               14.042002
  2618   1      29.743545000000001      7.6878590000000004               13.208582
  2619   8      9.4894990000000004      9.4661829999999991      7.9758800000000001
  2620   1      9.0403230000000008      10.225286000000001      7.5967630000000002
  2621   1               10.414173      9.7248940000000008      8.0021389999999997
  2622   8      20.687366999999998      19.596367999999998      4.1783830000000002
  2623   1      20.432583000000001               20.171903      4.9033449999999998
  2624   1               21.558087               19.909212      3.9202789999999998
  2625   8               14.792842               18.638572      16.178712000000001
  2626   1               15.273287      18.008797000000001               15.636236
  2627   1      15.261366000000001      19.467642999999999               16.053141
  2628   8                      42      36.115402000000003      39.891539000000002
  2629   1      41.877754000000003               35.946503      40.828690999999999
  2630   1      41.609456000000002      36.981881000000001      39.752496000000001
  2631   8      5.2605050000000002      13.551932000000001      16.133227999999999
  2632   1      5.7131360000000004               14.281748                15.70402
  2633   1      5.0711760000000004               13.875747               17.017502
  2634   8      6.4012770000000003      21.610873999999999               34.569682
  2635   1      6.9003940000000004      22.399229999999999      34.343623999999998
  2636   1      6.5236980000000004      21.027111999999999      33.816769999999998
  2637   8      36.425454000000002               20.576238               19.127336
  2638   1      35.855204999999998      20.262951999999999      19.833304999999999
  2639   1      35.829790000000003               21.021901      18.519708999999999
  2640   8      29.420995000000001      25.545273999999999               20.365807
  2641   1      29.489409999999999      25.621742000000001      19.411239999999999
  2642   1      28.495021999999999      25.718824000000001      20.553146999999999
  2643   8               16.398781      35.367468000000002      16.305637999999998
  2644   1      15.514652999999999      35.484605000000002      16.661055999999999
  2645   1      16.256371999999999      35.125950000000003               15.386927
  2646   8               36.437897      34.824935000000004      32.669820000000001
  2647   1      36.553733999999999      35.483871000000001      33.358376999999997
  2648   1               35.623548      35.080905000000001      32.229413999999998
  2649   8                1.929997      33.831750999999997      11.354385000000001
  2650   1      1.4667250000000001      33.129705999999999      10.891527999999999
  2651   1      2.1359970000000001      33.455302000000003                12.21374
  2652   8      4.0000710000000002      36.028058999999999      20.645631000000002
  2653   1      4.9121930000000003                35.72851      20.640125999999999
  2654   1      3.5768819999999999      35.516387999999999               19.951552
  2655   8      31.760269000000001      32.405258000000003               10.978142
  2656   1      32.200043000000001      31.614733999999999      11.299696000000001
  2657   1               31.523657      32.194367999999997               10.071399
  2658   8      34.247396000000002      29.043044999999999               20.540378
  2659   1      33.293081999999998      29.086431999999999      20.635915000000001
  2660   1      34.488700000000001      28.201996999999999      20.936679000000002
  2661   8               14.097973                3.322111                6.630846
  2662   1               14.763885      2.6813069999999999      6.3707380000000002
  2663   1                14.60037      4.0468630000000001      7.0116009999999998
  2664   8                10.41752               18.898405      15.563636000000001
  2665   1      9.8147280000000006               19.391866      16.124760999999999
  2666   1      10.733980000000001      19.544640999999999               14.927339
  2667   8      28.256862999999999               23.662637               24.775762
  2668   1      27.866610999999999      24.333742000000001      24.210920000000002
  2669   1      28.578047999999999      24.150251999999998      25.538464000000001
  2670   8      7.3859069999999996      35.950724999999998      33.580558000000003
  2671   1      7.3339189999999999      36.865558999999998      33.867091000000002
  2672   1      7.9925230000000003      35.968176999999997      32.836008999999997
  2673   8               16.123459      33.168964000000003      4.3183439999999997
  2674   1               17.049336      33.023668999999998      4.5265880000000003
  2675   1      15.808484999999999      32.311534999999999      4.0212789999999998
  2676   8      24.360292000000001      35.641697000000001      32.158729000000001
  2677   1      24.897221999999999      36.155659999999997      32.766407000000001
  2678   1      24.996065999999999      35.233057000000002      31.565899999999999
  2679   8      38.141359000000001      21.480025999999999      8.7400380000000002
  2680   1               39.064594               21.540132      8.9964530000000007
  2681   1      38.132851000000002      20.833815999999999      8.0294170000000005
  2682   8               11.968973      37.294668000000001               32.811591
  2683   1      12.079883000000001      36.426805000000002      33.206862000000001
  2684   1               11.582805      37.116787000000002                31.95027
  2685   8      24.616126999999999      29.069656999999999               10.495179
  2686   1                23.84178               29.546256               10.187016
  2687   1               24.318147      28.160516000000001               10.580696
  2688   8               23.458734                18.89432                41.21978
  2689   1      23.670438999999998      19.050547999999999      40.296470999999997
  2690   1      22.700209000000001      19.458722999999999      41.389279999999999
  2691   8      9.0163709999999995               17.333285      16.505998000000002
  2692   1      8.1472840000000009      16.926404999999999      16.476648999999998
  2693   1      9.6134109999999993      16.642064999999999      16.208674999999999
  2694   8      19.214683999999998               13.222674      34.013651000000003
  2695   1      19.830138000000002               12.487817      33.959549000000003
  2696   1      18.535924000000001      13.013306999999999      33.367049999999999
  2697   8               33.903388               11.332589                1.729476
  2698   1      33.476404000000002      10.844347000000001      1.0216419999999999
  2699   1                34.39631               12.023173                1.279183
  2700   8      39.509537999999999      29.893281000000002      39.275756000000001
  2701   1      39.257218000000002      30.818138000000001      39.223793000000001
  2702   1      38.683270999999998      29.429145999999999      39.432290999999999
  2703   8      16.838494000000001               23.925808      2.2568039999999998
  2704   1      17.526271999999999      23.256451999999999      2.2822740000000001
  2705   1               16.716396      24.106739000000001      1.3213900000000001
  2706   8      24.933938000000001      8.7187160000000006      25.999925000000001
  2707   1               24.434828      8.0564420000000005      26.483668999999999
  2708   1               25.030199      8.3483000000000001               25.118921
  2709   8      2.9516260000000001               15.659162      3.8710819999999999
  2710   1                3.684552               15.772243      3.2613629999999998
  2711   1      2.1754090000000001               15.896483      3.3574600000000001
  2712   8      20.327006000000001      33.099943000000003               31.916003
  2713   1      19.689064999999999      32.392121000000003      32.033239000000002
  2714   1               20.943849      32.759281999999999      31.263242000000002
  2715   8      7.1787109999999998      32.941471999999997               12.110339
  2716   1      7.8207630000000004      33.640304999999998      11.964988999999999
  2717   1      7.7102750000000002      32.150405999999997      12.229900000000001
  2718   8      19.326948999999999      11.148638999999999      13.713414999999999
  2719   1      19.584530999999998               10.273717      13.413601999999999
  2720   1      20.021236999999999      11.404840999999999      14.325760000000001
  2721   8      36.718037000000002      37.074784000000001      6.6760440000000001
  2722   1      37.643099999999997      36.823467000000001      6.6229180000000003
  2723   1      36.716275000000003      37.863132999999998      7.2248099999999997
  2724   8      2.2272509999999999      38.820680000000003      17.720597000000001
  2725   1                3.052238      39.153827999999997      18.081337000000001
  2726   1      1.6772309999999999               38.660691      18.491651999999998
  2727   8      20.326796999999999      2.7145980000000001      14.387696999999999
  2728   1      21.273258999999999                2.560425               14.434239
  2729   1               20.042783      2.7327520000000001               15.305111
  2730   8               28.517391      17.810749000000001               15.234662
  2731   1      28.699484999999999      18.718921000000002               14.982096
  2732   1                28.39743      17.847587999999998      16.186972000000001
  2733   8               33.369591      23.299666999999999      3.2588620000000001
  2734   1               33.313623      23.490179999999999      2.3195549999999998
  2735   1      32.764007999999997      23.924672000000001      3.6654100000000001
  2736   8      32.357435000000002      20.250903000000001               12.724618
  2737   1      32.811051999999997      20.073944000000001               13.552049
  2738   1               31.559562               19.718128               12.771438
  2739   8      9.9741970000000002      17.981628000000001      2.3761760000000001
  2740   1      9.1918349999999993      17.770994000000002      2.8912179999999998
  2741   1      9.9087700000000005      18.926953999999999      2.2189489999999998
  2742   8               38.095782      39.499339999999997      5.8910030000000004
  2743   1      37.155982000000002      39.406897999999998                 5.71793
  2744   1      38.344723000000002      38.669227999999997                6.305231
  2745   8      24.299099999999999      22.791650000000001      9.5529849999999996
  2746   1      23.419855999999999      22.649657000000001      9.1945250000000005
  2747   1      24.240849999999998               22.477584      10.458861000000001
  2748   8      31.042075000000001               13.864969      9.4267559999999992
  2749   1      31.781324000000001      13.252421999999999      9.4315200000000008
  2750   1      30.310151000000001      13.358154000000001      9.7874049999999997
  2751   8      8.2592820000000007      23.403013000000001      3.9469159999999999
  2752   1      8.3940929999999998               22.456826      3.8559169999999998
  2753   1                8.682207      23.625050999999999      4.7802670000000003
  2754   8                5.662731      24.557168000000001      40.514302999999998
  2755   1      5.5697700000000001      23.731905000000001      40.032612999999998
  2756   1      4.9581790000000003               24.533096               41.166736
  2757   8      26.293749999999999      32.139597999999999      25.378067999999999
  2758   1      26.008451000000001      31.378346000000001      24.867356999999998
  2759   1                26.60557      31.767416999999998      26.206856999999999
  2760   8      28.602744999999999      6.0831609999999996               18.187351
  2761   1               28.142395      6.0517260000000004               19.029263
  2762   1      27.900753000000002                6.086239      17.531731000000001
  2763   8      15.484876999999999      2.1647270000000001      3.1037659999999998
  2764   1               16.350832      2.0517539999999999      2.7049120000000002
  2765   1                14.86838      1.9279310000000001      2.4062700000000001
  2766   8               24.005177      3.4241229999999998      40.747104999999998
  2767   1      23.607175999999999      4.2219110000000004      41.103271999999997
  2768   1      24.879283000000001      3.7010339999999999      40.460920000000002
  2769   8      24.175726000000001               10.992305      3.1147900000000002
  2770   1      23.557608999999999               10.262326      3.1971750000000001
  2771   1      23.726112000000001      11.622415999999999      2.5460639999999999
  2772   8               14.478418      24.599191999999999      1.0158450000000001
  2773   1      13.600174000000001                  24.363                1.323456
  2774   1               14.355423               25.438295     0.56482399999999999
  2775   8               19.956007               25.466068      15.086658999999999
  2776   1               19.361445               25.092972               14.431663
  2777   1      19.956333999999998               24.824341      15.801380999999999
  2778   8      33.626010000000001      23.642758000000001      30.226946000000002
  2779   1      34.219270999999999               22.981766               30.591438
  2780   1      33.515622999999998      23.383607000000001               29.308633
  2781   8      38.487642999999998      36.356220999999998      21.635967000000001
  2782   1      37.822104000000003      35.736856000000003      21.944465999999998
  2783   1      39.066840999999997      35.827275999999998      21.081541000000001
  2784   8      25.907481000000001      19.119399000000001               38.474708
  2785   1               26.216186      19.505859999999998      39.297553000000001
  2786   1      26.470645999999999               19.510064      37.801752999999998
  2787   8      41.686143999999999      26.682742999999999      8.7865169999999999
  2788   1      40.748987999999997      26.808095000000002      8.9531030000000005
  2789   1      41.884118000000001               27.290056      8.0691469999999992
  2790   8      34.140656999999997      29.056961000000001               32.986162
  2791   1      33.891134000000001               29.909105      32.621039000000003
  2792   1      33.854413999999998                28.42136      32.325315000000003
  2793   8      10.377345999999999               30.626531      4.3725079999999998
  2794   1               11.208356               30.972351      4.0385070000000001
  2795   1               10.134758      31.230122000000001      5.0792400000000004
  2796   8      23.749915000000001      12.520473000000001      17.870477999999999
  2797   1      22.847218999999999      12.696274000000001      17.594871999999999
  2798   1      23.657333000000001      12.022005999999999      18.686322000000001
  2799   8               11.628304               24.664158               14.776873
  2800   1               11.622209      24.030342999999998               14.055787
  2801   1               11.503218      25.514475999999998               14.347975
  2802   8                1.399618      6.8214810000000003      29.250012000000002
  2803   1     0.84017500000000001      6.0918729999999996               28.973568
  2804   1     0.81172999999999995                7.399057      29.743404000000002
  2805   8      3.6715810000000002               34.887259      2.4412449999999999
  2806   1      3.8400669999999999      33.977829999999997      2.6986849999999998
  2807   1      2.7612220000000001      34.883574000000003      2.1348549999999999
  2808   8      12.595655000000001               26.980456      8.3798130000000004
  2809   1               13.024397               27.225797      7.5565800000000003
  2810   1                13.31091                26.65915      8.9346239999999995
  2811   8      41.993099000000001      21.400770999999999      9.5301150000000003
  2812   1               41.959007               22.354937      9.4294670000000007
  2813   1      41.452568999999997      21.223185999999998      10.304023000000001
  2814   8      17.619675000000001      35.606965000000002      3.9816419999999999
  2815   1      16.931937999999999      35.079751000000002      3.5683769999999999
  2816   1      18.053128000000001      35.000712999999998      4.5876279999999996
  2817   8      1.8336889999999999      24.584485000000001      41.104157000000001
  2818   1      1.1862649999999999               25.268898      40.919370999999998
  2819   1      2.5721880000000001      24.792587000000001      40.526268000000002
  2820   8               30.713144      30.483927000000001      37.490450000000003
  2821   1               30.815134               30.416667                36.53819
  2822   1      31.495149999999999      30.960073000000001      37.780959000000003
  2823   8               16.795417               14.390209               13.496729
  2824   1      17.742871000000001      14.543563000000001               13.473551
  2825   1      16.486470000000001      14.675751999999999      12.633214000000001
  2826   8      32.770583999999999      25.659728999999999               31.634276
  2827   1      32.822926000000002      25.894010999999999      30.704706999999999
  2828   1               31.973989      25.127220999999999      31.701464999999999
  2829   8      3.7481429999999998      35.671311000000003      28.090928999999999
  2830   1      3.8238889999999999      34.820149999999998               27.653309
  2831   1      3.6292870000000002      35.452675999999997      29.018675000000002
  2832   8      7.2560310000000001      33.967661999999997      40.231923000000002
  2833   1      7.0130819999999998      33.066536999999997      40.457031999999998
  2834   1      6.5739299999999998      34.252338999999999      39.618459000000001
  2835   8      36.464181000000004      16.538799999999998      3.5585339999999999
  2836   1      37.028841999999997      16.015723999999999      2.9847100000000002
  2837   1      37.024968999999999      16.762112999999999      4.3057220000000003
  2838   8      22.617985000000001      2.5890499999999999      8.1212739999999997
  2839   1      21.935237000000001      3.1506310000000002      7.7468320000000004
  2840   1      22.133593000000001      1.9124410000000001      8.6010729999999995
  2841   8      22.587354000000001      29.063845000000001      32.242209000000003
  2842   1      23.520724999999999      29.100809000000002      32.020448000000002
  2843   1      22.145589999999999               29.443341      31.478356999999999
  2844   8               11.758315      41.795940000000002               12.619363
  2845   1               11.960903      41.055722000000003      12.042509000000001
  2846   1      11.194706999999999      41.420200000000001      13.300397999999999
  2847   8      33.379044999999998      27.507864999999999      8.2452220000000001
  2848   1                33.86589      27.130175000000001      8.9814679999999996
  2849   1      33.915084999999998               27.303238      7.4748770000000002
  2850   8      6.3725740000000002      8.3872730000000004      38.430200999999997
  2851   1      5.7213139999999996      8.0209349999999997      39.033011999999999
  2852   1      7.1969000000000003      8.3564579999999999               38.922317
  2853   8               23.734679      4.2304930000000001      9.1360390000000002
  2854   1      24.333307000000001      3.5638740000000002      9.4809859999999997
  2855   1      23.955608999999999      5.0261670000000001      9.6266870000000004
  2856   8      8.4868520000000007      13.823043999999999      20.079253999999999
  2857   1                7.713095      13.720390999999999      20.638259999999999
  2858   1      8.8717880000000005               12.943832      20.041122000000001
  2859   8               31.666387      15.625458999999999               35.057471
  2860   1               31.218518      16.329654000000001      35.532072999999997
  2861   1               32.334899               15.311622      35.671669999999999
  2862   8      3.9862660000000001               29.988398      5.1091030000000002
  2863   1      4.4551759999999998               29.162613      5.2502700000000004
  2864   1      3.3908330000000002      29.802617999999999      4.3786319999999996
  2865   8               10.193144      6.5298910000000001               35.557178
  2866   1      9.5865729999999996                6.180275               36.214115
  2867   1                9.709206      7.2501040000000003               35.145184
  2868   8                29.53201               35.266126      3.7906960000000001
  2869   1      28.725867999999998      34.809131999999998      4.0417269999999998
  2870   1      29.262865000000001               35.849615      3.0767329999999999
  2871   8      23.123228000000001      39.027222000000002               20.692705
  2872   1               22.497398      39.562747000000002               21.185934
  2873   1      23.091138999999998      38.167963999999998      21.120827999999999
  2874   8      8.0365009999999995               11.735994      35.991385999999999
  2875   1      8.4717990000000007               12.583686      35.874519999999997
  2876   1      7.3745760000000002      11.709967000000001      35.295814999999997
  2877   8               30.571762      16.284808000000002      20.761603999999998
  2878   1               30.889972      16.379460999999999      19.860766999999999
  2879   1      29.644656000000001      16.053350999999999      20.663903000000001
  2880   8      6.6329960000000003               25.136903      32.409784999999999
  2881   1      7.4465810000000001      24.716546999999998               32.698065
  2882   1      6.5289570000000001               25.886115      33.001815999999998
  2883   8      30.158798999999998      25.510411000000001      29.357037999999999
  2884   1      30.073972999999999      26.437415000000001      29.122105999999999
  2885   1               29.520802      25.384243000000001      30.063921000000001
  2886   8      14.188931999999999     0.28608099999999997      5.2854799999999997
  2887   1                13.26727     0.51247500000000001      5.1405310000000002
  2888   1               14.677042                1.028769      4.9210560000000001
  2889   8      16.581527000000001               10.505739      18.242823000000001
  2890   1               17.048689                9.788983               17.807226
  2891   1      16.082004999999999      10.927289999999999      17.538965999999999
  2892   8      5.7429430000000004      36.714131000000002      32.242600000000003
  2893   1      4.9730109999999996      36.274740999999999      31.873999999999999
  2894   1      5.7773240000000001      37.558267999999998               31.785553
  2895   8      40.546968999999997      24.996397999999999      3.2695120000000002
  2896   1      40.308073999999998      24.124632999999999                3.593054
  2897   1               41.431041               25.144765      3.6145420000000001
  2898   8      10.593795999999999               10.619484      19.304093999999999
  2899   1      11.272705999999999      10.457311000000001               18.644924
  2900   1      10.299442000000001               11.516593      19.127482000000001
  2901   8      20.702915000000001     0.80809299999999995      27.693193999999998
  2902   1      20.606787000000001      1.6011040000000001               27.160636
  2903   1               20.107751     0.94516900000000004      28.434564999999999
  2904   8      35.822035999999997      25.581831000000001      41.102187000000001
  2905   1      34.971406999999999      25.418914000000001      41.516449000000001
  2906   1               36.380049               25.894976      41.818570000000001
  2907   8                 2.65998               19.685478      20.274581999999999
  2908   1                2.401834      20.147632999999999      21.075517999999999
  2909   1                2.286632      18.806266000000001      20.375769999999999
  2910   8      38.540495999999997               16.173724      41.931001999999999
  2911   1      37.601148000000002               16.359707                      42
  2912   1      38.822502999999998      16.656922000000002      41.150212000000003
  2913   8               36.335158               30.933785      39.057229999999997
  2914   1      36.536327999999997      30.019521000000001      39.270251999999999
  2915   1      35.632944999999999      30.877507999999999      38.404259000000003
  2916   8     0.68220599999999998                 1.08382      16.903839000000001
  2917   1                0.356184      1.9814780000000001      16.805630000000001
  2918   1                       0     0.63652299999999995      17.410951000000001
  2919   8      21.630566000000002      41.204272000000003      30.157807999999999
  2920   1      21.210792999999999      41.940691999999999      30.608585000000001
  2921   1      21.130541999999998      40.434762999999997               30.441488
  2922   8      40.302836999999997               10.548206      21.879252999999999
  2923   1      40.803176999999998      10.541071000000001      21.059902999999998
  2924   1               40.954456      10.752451000000001      22.554766999999998
  2925   8      35.345973000000001                1.421135               18.327589
  2926   1      34.561065999999997                1.151877      17.844736999999999
  2927   1               36.028886      1.4862219999999999      17.655252000000001
  2928   8      10.097509000000001      21.449248000000001      5.3197910000000004
  2929   1               10.226376               22.332504                5.673311
  2930   1      10.919480999999999               21.252896      4.8632270000000002
  2931   8                23.94351               19.798886      27.995297000000001
  2932   1      24.666281000000001                 20.2286      28.458625000000001
  2933   1      24.086528000000001      18.861350000000002      28.147659999999998
  2934   8      22.232005999999998      25.247651999999999               15.402148
  2935   1      22.619738000000002      25.537034999999999      16.231393000000001
  2936   1      22.109680999999998      24.301459000000001               15.513493
  2937   8      34.531398000000003      13.762491000000001               26.307295
  2938   1      33.652738999999997                14.06521      26.066369000000002
  2939   1      34.707199000000003               13.036232      25.703735999999999
  2940   8               27.790409      1.5886929999999999      24.902446000000001
  2941   1               28.450097                2.266095      25.068764999999999
  2942   1      27.827525000000001                1.447732               23.953028
  2943   8               12.381394      22.997085999999999      24.734947999999999
  2944   1      11.439920000000001      22.838723000000002      24.633597000000002
  2945   1                12.56054      22.788509000000001      25.655297999999998
  2946   8      7.0945200000000002               24.940109      14.148510999999999
  2947   1      6.4469089999999998      25.597252000000001      14.414008000000001
  2948   1      6.6030280000000001      24.333459000000001               13.588998
  2949   8      22.803709999999999      41.800201000000001      24.938227000000001
  2950   1      22.390516999999999      41.999999000000003      25.781480999999999
  2951   1      23.718882000000001      41.610771999999997      25.160084000000001
  2952   8      25.387588999999998      24.148357000000001      20.543949000000001
  2953   1      24.874438999999999               24.478109      19.802555000000002
  2954   1                26.23659               23.913822      20.160761000000001
  2955   8      21.447724000000001                39.95637               10.614583
  2956   1      22.040552000000002      40.550851999999999      10.148887999999999
  2957   1      21.722784999999998      39.079101999999999               10.336402
  2958   8      35.213501999999998      37.921325000000003               17.616992
  2959   1      34.654778999999998      38.241857000000003      16.905083999999999
  2960   1               34.604025      37.748288000000002                18.33896
  2961   8               16.852238      5.2143940000000004      18.081199999999999
  2962   1      17.051704999999998      6.1490879999999999      18.172218999999998
  2963   1      16.107054999999999                5.071167      18.670124000000001
  2964   8      7.1769040000000004               29.816893      5.3274220000000003
  2965   1      7.2787030000000001      30.687238000000001      5.7196749999999996
  2966   1      6.8296159999999997               29.990468      4.4488409999999998
  2967   8      10.911467999999999      21.358184999999999      30.793157000000001
  2968   1               10.185216               20.981102      30.291070000000001
  2969   1                11.19023      20.649263000000001      31.378274000000001
  2970   8      40.757255999999998      8.9706539999999997      31.388155000000001
  2971   1               39.829456      8.8542319999999997      31.170535999999998
  2972   1      41.013303999999998      9.7698420000000006               30.920845
  2973   8               19.284143                28.29879      23.889286999999999
  2974   1      18.707491999999998      28.543261000000001               23.161666
  2975   1      18.684539000000001               28.108808      24.615251000000001
  2976   8      22.811882000000001      9.8779699999999995      6.5943529999999999
  2977   1               22.964993      9.5811349999999997      5.6942579999999996
  2978   1               23.651304               10.257526      6.8662890000000001
  2979   8      28.054431000000001               30.595945               13.726604
  2980   1      28.898257000000001      30.980353000000001               13.477779
  2981   1      27.735859000000001      31.159237000000001      14.436432999999999
  2982   8      17.532703999999999      4.0452060000000003                 25.0458
  2983   1               16.691851      4.4736330000000004      25.222270999999999
  2984   1      17.949888999999999      3.9744999999999999      25.908121999999999
  2985   8      34.267724999999999               14.593378      23.993563999999999
  2986   1      35.074438999999998      14.961923000000001      24.361139000000001
  2987   1      33.660868999999998      15.337040999999999      23.957046999999999
  2988   8      23.297768999999999      20.914729999999999      14.347054999999999
  2989   1               24.086174      20.399446999999999               14.160976
  2990   1      22.590972000000001      20.265184000000001               14.381266
  2991   8      3.7883200000000001      3.7953939999999999      21.737020999999999
  2992   1      3.6132849999999999      2.9400029999999999      22.136264000000001
  2993   1      4.0088739999999996      3.5919810000000001      20.824539999999999
  2994   8               21.668847               13.166128      41.478484999999999
  2995   1      21.401879000000001               12.291705      41.771464999999999
  2996   1      22.450866000000001      13.363891000000001                      42
  2997   8               13.645235      19.066604999999999      11.353675000000001
  2998   1      12.994217000000001      18.438801000000002      11.675796999999999
  2999   1      14.484849000000001      18.610151999999999      11.450321000000001
  3000   8      17.943480000000001      36.023949999999999               12.743169
  3001   1      17.430782000000001      36.762641000000002      13.079622000000001
  3002   1      18.440163999999999      36.393340999999999               12.008664
  3003   8      41.285040000000002               35.736691      32.479466000000002
  3004   1                      42      35.622579000000002      31.848960999999999
  3005   1      41.440364000000002      35.058231999999997      33.141441999999998
  3006   8               13.528209      36.674258999999999      10.925511999999999
  3007   1               14.432357               36.407615               10.743459
  3008   1               13.179395      36.934589000000003               10.069241
  3009   8               15.348905      12.906472000000001      15.233057000000001
  3010   1      16.055976999999999               13.529278      15.417142999999999
  3011   1               15.672444               12.391335               14.489687
  3012   8      33.727685000000001      3.5214289999999999      18.831613000000001
  3013   1      33.711486000000001      3.7117840000000002      17.890747000000001
  3014   1      34.632801999999998      3.7040709999999999      19.096277000000001
  3015   8      36.110300000000002               12.452073      19.960730000000002
  3016   1      35.382218999999999               12.016093               19.511792
  3017   1      35.791642000000003               13.343866      20.121362999999999
  3018   8               24.018407      5.5533869999999999      25.388511999999999
  3019   1      23.296558999999998      6.1720430000000004               25.522402
  3020   1      23.642610999999999      4.8648850000000001                24.83409
  3021   8      14.157209999999999      33.672876000000002               37.999077
  3022   1                 14.7631      33.938546000000002      37.303345999999998
  3023   1               14.007792      34.475850999999999      38.504595000000002
  3024   8      17.329167000000002      20.203838999999999      2.1624379999999999
  3025   1      17.032879999999999               20.403665      3.0535100000000002
  3026   1      17.297097999999998                21.04815                1.705543
  3027   8               15.876747      17.962364000000001               13.367255
  3028   1      16.650808999999999               17.606735               13.810065
  3029   1      15.392571999999999      17.186499999999999               13.073568
  3030   8      4.8788640000000001      40.346998999999997      31.390211999999998
  3031   1      5.0345360000000001      41.290170000000003      31.479206000000001
  3032   1                3.996696      40.216233000000003      31.747033999999999
  3033   8      5.3323590000000003      16.287908999999999      16.522888999999999
  3034   1                6.040038      16.457463000000001               15.896656
  3035   1      5.7792310000000002      15.942849000000001      17.299986000000001
  3036   8                35.31785               24.381069      19.109788000000002
  3037   1      34.524309000000002      24.726189000000002      19.525611000000001
  3038   1      35.661160000000002      25.120025999999999               18.601139
  3039   8      3.5707589999999998      24.715070999999998               30.537976
  3040   1                4.390695               25.146293      30.789923999999999
  3041   1      3.8219850000000002      24.123733999999999                29.82394
  3042   8      18.956209999999999      18.518090000000001                1.726558
  3043   1      18.161425999999999      18.505140999999998                1.188156
  3044   1      19.374224000000002      19.356501000000002                1.514489
  3045   8      33.083094000000003                20.01971      17.310852000000001
  3046   1      33.233758999999999      20.850625999999998      16.854120000000002
  3047   1      33.806646000000001      19.456119999999999      17.025404000000002
  3048   8      35.433871000000003      36.650300999999999      26.153079999999999
  3049   1               36.390791      36.719588000000002      26.188123999999998
  3050   1      35.246695000000003               35.766517               26.479474
  3051   8               23.114887               10.587173               15.680396
  3052   1      23.493040000000001                9.720288      15.515358000000001
  3053   1      23.167553999999999               11.035612               14.832592
  3054   8      20.375443000000001      4.5976480000000004      37.806099000000003
  3055   1      20.223023999999999      3.6814469999999999      38.049138999999997
  3056   1      20.635867000000001      4.5591239999999997      36.882336000000002
  3057   8      2.3595730000000001      4.0647019999999996      25.784013999999999
  3058   1                1.609253                 3.84165      26.339884999999999
  3059   1      2.0320490000000002      3.9581170000000001      24.887347999999999
  3060   8      11.245113999999999      17.034510000000001      25.403479999999998
  3061   1               12.084514      16.932306000000001                25.85811
  3062   1               10.806516      16.187854000000002               25.519441
  3063   8               10.969431               23.424578      9.0429860000000009
  3064   1               11.526424               23.348157      8.2647539999999999
  3065   1               10.450025      24.217476999999999                8.887518
  3066   8      12.094098000000001      19.574310000000001      28.784313999999998
  3067   1               11.639469      18.849972999999999      28.347996999999999
  3068   1               12.025993      20.305820000000001      28.165527000000001
  3069   8               12.330973      38.806663999999998      4.0071120000000002
  3070   1      12.534520000000001      39.719048000000001      4.2258550000000001
  3071   1               12.930638      38.594552999999998                3.287353
  3072   8      26.740497000000001      29.732921000000001      41.529347999999999
  3073   1      26.019539000000002      29.099761999999998      41.496886000000003
  3074   1               26.434355      30.470421000000002      40.995482000000003
  3075   8      41.423775999999997      21.337503999999999      17.493846000000001
  3076   1      41.881512000000001      20.646712000000001      17.009067000000002
  3077   1      41.989426000000002      21.512986000000001      18.250078999999999
  3078   8                30.22221               24.335348      27.168924000000001
  3079   1      30.301165000000001               25.291103      27.123930999999999
  3080   1      30.590288000000001      24.026285000000001      26.337275000000002
  3081   8      10.497097999999999      24.817392000000002               30.518279
  3082   1               10.132671      25.003730999999998               31.386723
  3083   1               10.857977               23.930653      30.596395000000001
  3084   8               30.083485      40.359862999999997      26.793690000000002
  3085   1               30.658946      40.389856999999999      27.561589999999999
  3086   1      29.735009999999999      39.464762999999998      26.791699999999999
  3087   8               12.639669      14.701942000000001               39.582262
  3088   1               13.531786               14.918448      39.301234000000001
  3089   1               12.215093               14.364874      38.789316999999997
  3090   8      10.182772999999999      34.150652000000001      29.394604999999999
  3091   1      9.8578130000000002      33.325432999999997      29.762219000000002
  3092   1      9.5084420000000005      34.411974000000001               28.762442
  3093   8      5.1404509999999997      36.021929999999998               18.431417
  3094   1      5.7838690000000001      35.392862000000001      18.096734999999999
  3095   1      4.3501810000000001      35.853907999999997      17.911913999999999
  3096   8      3.6803050000000002      5.8260189999999996      16.442229999999999
  3097   1                3.068241      6.4057000000000004      16.901655999999999
  3098   1      4.1019310000000004      6.3924200000000004               15.791029
  3099   8      9.0623860000000001      17.686585999999998               21.635358
  3100   1      9.2894199999999998      16.767707000000001      21.474602999999998
  3101   1      8.1020640000000004      17.700994000000001               21.620701
  3102   8      40.903002999999998      28.258334999999999      4.6030879999999996
  3103   1      40.594034000000001      27.383576000000001      4.3559830000000002
  3104   1      41.858817999999999      28.171444999999999      4.6419360000000003
  3105   8      23.764945000000001      5.8279059999999996      37.643580999999998
  3106   1      24.079115999999999      6.7171969999999996      37.822978999999997
  3107   1               24.147917      5.6072410000000001      36.790773000000002
  3108   8               11.521837               27.102477               19.707849
  3109   1               12.376104               26.684137                19.83802
  3110   1               10.888242      26.387951999999999      19.811063999999998
  3111   8      36.789005000000003      11.497274000000001      6.5993149999999998
  3112   1      37.240113000000001               11.370222      7.4372189999999998
  3113   1               36.290267               12.309593      6.7178040000000001
  3114   8      33.487034999999999      32.000878999999998               30.472286
  3115   1      33.450650000000003      32.955274000000003      30.374652000000001
  3116   1               32.929057      31.817513000000002               31.232339
  3117   8      40.828150999999998      29.666775999999999      41.455426000000003
  3118   1      40.129762999999997      29.022777999999999      41.316696999999998
  3119   1      41.639104000000003      29.176770999999999      41.297651000000002
  3120   8               21.962208               25.203688      22.361989999999999
  3121   1      21.547775000000001      24.444883999999998               21.944633
  3122   1      22.397220999999998      24.841052000000001      23.137813000000001
  3123   8      21.650812999999999                3.717346               22.548886
  3124   1               21.135102      4.4796079999999998      22.822241000000002
  3125   1      22.229769999999998                4.055415      21.861018999999999
  3126   8      24.106608999999999      23.302769000000001      39.940162000000001
  3127   1      24.192267999999999      24.257667000000001      39.990738999999998
  3128   1      24.918375000000001               22.969535      40.330843999999999
  3129   8      34.638036999999997               20.724266      5.4356640000000001
  3130   1      34.942467999999998      21.599533000000001      5.1847560000000001
  3131   1      34.172656000000003      20.862210999999999      6.2645390000000001
  3132   8               39.545665      13.601960999999999               28.409208
  3133   1      40.342948999999997      13.275315000000001               27.985692
  3134   1      39.538826999999998                13.17226      29.268249000000001
  3135   8      2.5132970000000001      22.581168000000002      1.1627110000000001
  3136   1                2.808081      22.541619000000001      2.0755430000000001
  3137   1      2.3015460000000001      23.507214999999999                1.020445
  3138   8      41.981177000000002      28.243905999999999      10.662324999999999
  3139   1      41.072639000000002               28.196424               10.355684
  3140   1      42.005040999999999               27.664251      11.427879000000001
  3141   8      35.812036999999997      10.350116999999999                 3.93513
  3142   1      35.398116999999999      9.6831250000000004      3.3823940000000001
  3143   1      35.952032000000003      11.095211000000001      3.3453189999999999
  3144   8                20.63364               18.275696      35.609943999999999
  3145   1      20.063776000000001      18.379176000000001      34.844259999999998
  3146   1               20.761633      17.326713999999999      35.685392999999998
  3147   8      30.972975999999999      9.9912550000000007      41.435856999999999
  3148   1               30.825367               10.753935                      42
  3149   1      31.480094000000001      9.3852879999999992      41.982004000000003
  3150   8      9.8624860000000005               14.989608      18.736263999999998
  3151   1                 10.5214               14.391672      19.096861000000001
  3152   1                10.33038      15.475765000000001      18.052620000000001
  3153   8                24.80902      14.523778999999999      8.3256300000000003
  3154   1      25.538315999999998               14.780699      8.8947040000000008
  3155   1               24.742455               15.237641                7.686401
  3156   8      28.866403999999999      33.840761000000001      23.080138000000002
  3157   1      28.108402000000002      33.811700999999999               22.491654
  3158   1      29.600442000000001      34.086669999999998      22.511492000000001
  3159   8      39.128402000000001      39.177379999999999               26.975911
  3160   1      38.682383000000002      38.730685999999999      26.252545999999999
  3161   1      39.134461999999999      40.102454000000002               26.717371
  3162   8      40.166162999999997      23.558465000000002      32.321033999999997
  3163   1      40.132674999999999               23.517443      31.362431000000001
  3164   1      41.099060999999999               23.467865      32.531115999999997
  3165   8      16.446141000000001               26.006757      20.362176000000002
  3166   1      15.646819000000001      26.505555999999999      20.546593000000001
  3167   1      16.336978999999999      25.190256999999999      20.856193999999999
  3168   8                19.99945     0.92551499999999998               10.216763
  3169   1      19.082447999999999     0.96021400000000001      9.9345800000000004
  3170   1               20.149936                       0      10.425134999999999
  3171   8      2.8965689999999999      1.6343620000000001                5.907864
  3172   1      1.9705109999999999                1.881548      5.9630020000000004
  3173   1      3.1494680000000002                1.856446      5.0082180000000003
  3174   8               30.743126      2.4521660000000001      18.420950999999999
  3175   1      30.353418999999999                1.856495      19.065179000000001
  3176   1               31.661666      2.5280580000000001               18.691443
  3177   8      25.491721999999999      5.9288780000000001      21.883005000000001
  3178   1      24.896405000000001      5.3273020000000004               22.336247
  3179   1      25.067582999999999      6.0914539999999997      21.036650000000002
  3180   8      27.483426999999999     0.61950700000000003                6.955743
  3181   1      27.921264999999998                1.429948      6.6851729999999998
  3182   1      26.789110999999998     0.91120900000000005      7.5519619999999996
  3183   8               34.300297                34.90072               38.814532
  3184   1               34.463721      35.804519999999997      39.094107999999999
  3185   1      33.381362000000003      34.742319000000002      39.044989000000001
  3186   8      30.057130999999998      40.405459999999998      3.5660020000000001
  3187   1      30.814647999999998      40.904291000000001      3.2512629999999998
  3188   1      30.370778000000001      39.498685000000002      3.6110380000000002
  3189   8      29.006146999999999      27.700842000000002      34.613739000000002
  3190   1      29.684235000000001      27.095829999999999      34.923388000000003
  3191   1      28.578506000000001      27.231138000000001      33.893222999999999
  3192   8      24.196090000000002      27.612597000000001      18.639002999999999
  3193   1      24.937408000000001      28.219059000000001      18.572845999999998
  3194   1      24.407519000000001      26.909179999999999      18.020016999999999
  3195   8      22.766985999999999                31.23875      33.704349000000001
  3196   1               23.646936      30.923974000000001                33.48451
  3197   1               22.288041      31.208186999999999      32.872292000000002
  3198   8      40.537525000000002                19.86984               13.036709
  3199   1      41.437215999999999      19.556736000000001      13.156071000000001
  3200   1      40.162221000000002      19.859563999999999               13.920838
  3201   8      41.505239000000003               11.814352      32.027870999999998
  3202   1      41.534379000000001                12.13973               32.930647
  3203   1      41.021635000000003               12.490269      31.546306000000001
  3204   8      2.7251289999999999               19.267287      34.407739999999997
  3205   1                3.380585               19.943731      34.593550999999998
  3206   1      2.2012770000000002               19.633447      33.690697999999998
  3207   8                3.151265      5.0680050000000003      2.4073760000000002
  3208   1      2.4429129999999999      4.4581340000000003      2.1882440000000001
  3209   1      3.9517579999999999      4.5438099999999997      2.3232689999999998
  3210   8      20.201004999999999               26.367839                3.111497
  3211   1      20.480046000000002      25.939935999999999      2.2986249999999999
  3212   1      21.000796999999999      26.418392999999998                3.641041
  3213   8      4.3141910000000001                8.544689      16.175405999999999
  3214   1      4.4505189999999999      8.1619840000000003      17.045276999999999
  3215   1      5.1664329999999996      8.4585249999999998               15.740779
  3216   8               10.408419      33.293779000000001      36.037255999999999
  3217   1      10.999057000000001      32.729660000000003      35.532635999999997
  3218   1      9.7177349999999993      33.533647000000002      35.414310999999998
  3219   8      12.494528000000001               15.575808      32.596516000000001
  3220   1      11.788607000000001      14.972676999999999               32.840716
  3221   1               12.044202               16.398612      32.389533999999998
  3222   8      8.4165949999999992      7.8095100000000004      22.939340999999999
  3223   1      9.1284100000000006      8.3780380000000001      22.636320999999999
  3224   1      8.2282969999999995                8.117127      23.829598000000001
  3225   8      6.9077479999999998      38.283054999999997      4.0257209999999999
  3226   1      6.0961059999999998      38.711160999999997      3.7434289999999999
  3227   1      6.6422309999999998      37.734563000000001      4.7682159999999998
  3228   8      8.1047619999999991      32.647111000000002               14.617901
  3229   1      8.6673539999999996      32.750534000000002               15.388951
  3230   1                8.213775      33.468107000000003      14.131358000000001
  3231   8      20.764721999999999      24.592061000000001      36.482819999999997
  3232   1      21.130769999999998               25.438074      36.214500000000001
  3233   1      20.629245000000001               24.680398               37.429648
  3234   8               24.943531      12.398023999999999      7.6532850000000003
  3235   1               25.271701               12.082748      6.8079270000000003
  3236   1      24.908809999999999               11.611694      8.2038510000000002
  3237   8      3.4337650000000002                19.74155     0.86791600000000002
  3238   1      3.2820960000000001      20.464303999999998      1.4813879999999999
  3239   1      3.3290410000000001      20.139541000000001                       0
  3240   8      38.016356000000002      32.250897999999999      37.581133000000001
  3241   1      38.973880000000001               32.192453      37.542974999999998
  3242   1               37.710912      31.483163000000001      37.091306000000003
  3243   8                1.380387      15.686680000000001               40.233787
  3244   1      2.2598069999999999               15.343565      40.408763999999998
  3245   1                1.509757      16.325686000000001      39.528396000000001
  3246   8      31.359988000000001      21.510187999999999      33.479852000000001
  3247   1      32.178610999999997      21.899798000000001               33.163964
  3248   1               31.283721      21.818017999999999      34.386530999999998
  3249   8      26.317800999999999      32.401347999999999               28.269012
  3250   1      25.415448999999999      32.279499000000001      27.964645000000001
  3251   1      26.512502999999999               31.601554      28.764050999999998
  3252   8      12.629079000000001      38.049805999999997      6.0527540000000002
  3253   1      12.839814000000001      37.116779999999999      5.9704189999999997
  3254   1                11.99394      38.088194999999999      6.7723139999999997
  3255   8      17.538509000000001      35.094330999999997               23.393856
  3256   1      17.634329000000001      34.389471999999998      22.749095000000001
  3257   1      16.642679000000001      35.415807999999998               23.264312
  3258   8      9.4251629999999995               11.053613      21.021353000000001
  3259   1      10.243086999999999               11.526555      21.191794000000002
  3260   1      9.1072710000000008      10.805224000000001      21.893070000000002
  3261   8      34.382649999999998               23.550297      17.356394000000002
  3262   1      33.692095999999999      24.104980000000001      17.726780999999999
  3263   1      34.474153000000001      22.830919999999999      17.986287999999998
  3264   8               15.811693      30.621725000000001      28.086725999999999
  3265   1      15.118180000000001      31.110779999999998      27.637737999999999
  3266   1               15.934256      31.089441999999998      28.916702999999998
  3267   8      23.380687000000002      8.5603979999999993      20.064305000000001
  3268   1      22.781576999999999      9.0122879999999999      19.465482999999999
  3269   1      22.854441000000001      8.3993920000000006      20.851569000000001
  3270   8      37.573112000000002                13.48898      17.647791999999999
  3271   1      38.298197999999999               13.253264      17.064343000000001
  3272   1      37.569986999999998               12.798275      18.315294000000002
  3273   8      29.560631999999998      2.1356099999999998               27.389878
  3274   1      29.039964999999999                1.390012      27.082121999999998
  3275   1      29.010376999999998                2.901745      27.208501999999999
  3276   8      22.601237000000001      27.205722000000002      5.7289820000000002
  3277   1               21.844887      27.395008000000001      5.1687760000000003
  3278   1      22.374237000000001               27.597068                6.576308
  3279   8      28.343962000000001      21.574930999999999                4.569045
  3280   1               28.914126      22.242713999999999      4.9572500000000002
  3281   1      27.816991000000002      22.055935000000002      3.9259439999999999
  3282   8      2.6530339999999999               15.345454               17.400074
  3283   1      3.5650539999999999               15.536545               17.631221
  3284   1      2.7171219999999998               14.718271               16.675383
  3285   8      33.848916000000003      18.767243000000001      2.1706530000000002
  3286   1      33.724029999999999      18.700392000000001      3.1202100000000002
  3287   1               34.075322      19.689171999999999                2.024267
  3288   8      39.262655000000002               12.855354      7.0064060000000001
  3289   1      39.851436999999997               12.737342      6.2573169999999996
  3290   1      38.391567999999999      12.948897000000001      6.6125790000000002
  3291   8               19.904021      8.8853539999999995      25.981483999999998
  3292   1      19.219933000000001      9.5132899999999996               25.737669
  3293   1      20.195948999999999      8.5140860000000007      25.145074999999999
  3294   8      37.478954000000002      28.724606999999999      37.023490000000002
  3295   1      36.702554999999997      29.254542000000001      37.218674999999998
  3296   1               37.442003      28.588463000000001      36.073363000000001
  3297   8               29.654995      4.6259059999999996      37.522409000000003
  3298   1      30.523540000000001      4.8936989999999998      37.213146999999999
  3299   1      29.706932999999999      4.7064120000000003      38.478161999999998
  3300   8                20.04569      17.540569000000001      9.5077660000000002
  3301   1      20.321245999999999      17.674696000000001      10.417604000000001
  3302   1      20.819610999999998               17.771386      8.9877540000000007
  3303   8               21.952413      13.759983999999999      14.867834999999999
  3304   1      22.859273999999999               13.533681               15.087183
  3305   1               21.462899               12.945459      15.007714999999999
  3306   8               27.821261                1.685694      34.415599999999998
  3307   1      27.376843999999998      2.4985400000000002      34.667591999999999
  3308   1      28.441517999999999      1.9547239999999999      33.733291000000001
  3309   8      11.032370999999999      25.501245000000001      24.699881000000001
  3310   1               11.613953      25.076509000000001      24.064989000000001
  3311   1               10.148265               25.326086               24.367739
  3312   8      8.7515669999999997               30.672767     0.82605300000000004
  3313   1      8.9879069999999999               31.371744     0.21180599999999999
  3314   1      9.1829000000000001      30.921323999999998      1.6475230000000001
  3315   8      30.134840000000001               27.175203      41.252426999999997
  3316   1      30.718900000000001      27.493438999999999      41.944758999999998
  3317   1      29.439630999999999               27.836278               41.204411
  3318   8      12.393668999999999                3.532089      8.0150860000000002
  3319   1               11.852451      2.8133530000000002      7.6800850000000001
  3320   1               13.019368      3.1043780000000001      8.6051760000000002
  3321   8               18.452012      20.998332000000001      18.956468999999998
  3322   1      19.341594000000001      20.883458000000001      18.614163000000001
  3323   1      18.553017000000001      21.625005999999999      19.677385000000001
  3324   8      40.766671000000002      34.308593000000002               17.635565
  3325   1               39.921453      34.040863000000002               18.003874
  3326   1      40.541212000000002      34.973303000000001      16.979842999999999
  3327   8      20.281583999999999               26.154802               24.913926
  3328   1               21.128809      26.510366999999999      24.635522999999999
  3329   1      20.037068999999999               25.544991      24.213222999999999
  3330   8      23.750530000000001                40.95382               32.667983
  3331   1                24.27018      40.792116999999998      33.458894000000001
  3332   1      23.067527999999999      40.278767999999999      32.689293999999997
  3333   8      39.155878999999999      6.4858739999999999      21.319579999999998
  3334   1      38.842078000000001      5.5820230000000004               21.240157
  3335   1               40.102387      6.4238239999999998      21.168202000000001
  3336   8      18.963761999999999               11.624544      36.054903000000003
  3337   1      18.619154000000002      11.481813000000001               36.939549
  3338   1      19.272608999999999               10.758588      35.776738999999999
  3339   8      38.717807000000001      35.157882999999998      3.4399839999999999
  3340   1      38.720778000000003      34.441960999999999      2.8003179999999999
  3341   1      38.948469000000003      34.735734999999998      4.2713859999999997
  3342   8               31.711627      22.220922000000002               13.256738
  3343   1               30.951179      21.670839000000001               13.458859
  3344   1               31.332946      23.036114999999999               12.918061
  3345   8      6.0569199999999999     0.60158900000000004      28.045940999999999
  3346   1      6.3486419999999999      1.1805639999999999               27.337837
  3347   1      5.1086309999999999     0.74591700000000005      28.096547000000001
  3348   8                30.82723               30.666995      29.862680000000001
  3349   1      30.140795000000001      31.277799000000002               30.140978
  3350   1               31.244007      31.101590999999999      29.114305000000002
  3351   8      4.7435289999999997      22.496932000000001               16.116768
  3352   1      5.5747020000000003      22.617083000000001      15.651536999999999
  3353   1      4.7477410000000004      23.179479000000001               16.792603
  3354   8               37.397447               39.827264      34.122894000000002
  3355   1      36.933024000000003      39.061368999999999               33.777293
  3356   1      37.035502000000001      39.947836000000002               35.004427
  3357   8               15.934652      24.208704999999998               18.903502
  3358   1                15.52436      24.794464999999999      18.262979000000001
  3359   1      16.780401000000001      23.979842999999999      18.509834999999999
  3360   8      33.848941000000003               30.084958      1.7378640000000001
  3361   1      34.804761999999997      30.174883000000001                1.744599
  3362   1               33.524988      30.987224000000001                1.677775
  3363   8               11.671294               14.706267      7.8915680000000004
  3364   1      11.710805000000001               15.268723      7.1145170000000002
  3365   1      11.518763999999999               15.314838      8.6189040000000006
  3366   8                33.28154      35.201608999999998      24.030784000000001
  3367   1      32.845396999999998      35.702120000000001      23.337247999999999
  3368   1      32.672395999999999      34.485303000000002      24.226973000000001
  3369   8               12.453213                7.136323      21.390160999999999
  3370   1      11.553186999999999                6.806476               21.443814
  3371   1               12.872729      6.5782939999999996      20.730423999999999
  3372   8      19.108371000000002      34.186892999999998      19.824594999999999
  3373   1      18.283529000000001      34.040792000000003      20.293652999999999
  3374   1               18.853303      34.682774000000002      19.042491999999999
  3375   8      31.159970999999999      5.7059730000000002               27.944875
  3376   1      30.933153000000001      6.5165240000000004      28.406701999999999
  3377   1      32.033569999999997      5.4803069999999998               28.274334
  3378   8      36.881301000000001               13.376847      25.611650999999998
  3379   1      36.822611000000002                12.43113               25.766244
  3380   1                37.71217      13.633971000000001      26.019310999999998
  3381   8      39.156348000000001      34.475143000000003      9.9722580000000001
  3382   1      39.597211999999999      35.290410999999999      9.7218540000000004
  3383   1      38.398453000000003      34.762512000000001               10.487676
  3384   8      28.623232000000002      23.986803999999999      31.776651999999999
  3385   1      28.184543999999999      23.169972999999999      32.025778000000003
  3386   1      28.303173999999999      24.632591000000001      32.411603999999997
  3387   8      6.4845240000000004      8.4284610000000004      17.659901999999999
  3388   1      6.8865090000000002      7.5613599999999996      17.568971000000001
  3389   1      6.7568630000000001      8.9015909999999998      16.869572000000002
  3390   8      22.906207999999999      21.484763999999998               16.694896
  3391   1      22.959471000000001      22.235545999999999      16.098898999999999
  3392   1      23.699677999999999      20.976237999999999      16.509291000000001
  3393   8               12.927063      39.067418000000004      35.404653000000003
  3394   1      12.139127999999999      39.353118000000002      35.872903999999998
  3395   1      12.598451000000001      38.472751000000002      34.725662999999997
  3396   8      8.9356360000000006      19.186267000000001                       0
  3397   1      9.4275260000000003      20.010749000000001  9.3999999999999994e-05
  3398   1      8.1853099999999994               19.356209     0.57512799999999997
  3399   8      6.5364740000000001               10.356106      22.537745000000001
  3400   1      5.7816090000000004                9.833933      22.819240000000001
  3401   1      7.2322620000000004      9.7101150000000001               22.392087
  3402   8      40.601539000000002      40.437260000000002               22.274155
  3403   1               41.219144      40.451675999999999      23.009056999999999
  3404   1      40.478600999999998      41.362628999999998      22.047834999999999
  3405   8      3.5804019999999999      4.1641269999999997      6.5344119999999997
  3406   1      4.1648680000000002                3.610843      6.0109599999999999
  3407   1      3.7855819999999998                3.933945                7.444115
  3408   8      1.5263869999999999               28.294421      38.283518000000001
  3409   1                1.359313               27.660294      37.582307999999998
  3410   1                1.210907      27.858613999999999               39.079248
  3411   8      2.0452080000000001      18.929708000000002      5.2291889999999999
  3412   1      2.6837439999999999      18.233737999999999      5.4013020000000003
  3413   1                1.473428      18.565708999999998      4.5485899999999999
  3414   8      4.0250019999999997      20.542760000000001               15.585932
  3415   1      4.6875619999999998      20.521153000000002      14.891474000000001
  3416   1      3.4156260000000001               21.233152               15.312688
  3417   8      8.2406570000000006      9.6205870000000004      18.497554000000001
  3418   1      7.7804099999999998      9.7554239999999997      19.329249000000001
  3419   1      8.3194929999999996      8.6663789999999992               18.420648
  3420   8      9.6613930000000003      35.301403999999998      13.320467000000001
  3421   1      8.7488299999999999      35.596457999999998      13.276922000000001
  3422   1      9.6694189999999995      34.477533000000001      12.826689999999999
  3423   8                6.074128      1.3226910000000001               20.065441
  3424   1      6.2856750000000003      2.0407660000000001      20.666557999999998
  3425   1      5.1243920000000003      1.3899790000000001      19.938489000000001
  3426   8      33.335362000000003               35.640476      1.2545470000000001
  3427   1      34.288049000000001      35.759224000000003                1.250985
  3428   1      33.212452999999996      34.695289000000002      1.1355660000000001
  3429   8      36.731250000000003      5.5878430000000003      8.8547480000000007
  3430   1      37.190618999999998      6.2898779999999999      8.3880029999999994
  3431   1      36.152470000000001      5.2006309999999996      8.1931419999999999
  3432   8               19.639011      3.6408469999999999      7.2749170000000003
  3433   1      19.900093999999999      3.3875579999999998      6.3864320000000001
  3434   1      20.019456000000002      4.5145860000000004      7.3952660000000003
  3435   8      33.333029000000003      16.725974000000001      32.853245999999999
  3436   1      33.265148000000003      16.150628000000001               33.618814
  3437   1               33.353113      17.612556000000001      33.222312000000002
  3438   8      39.710636999999998      3.4505650000000001      39.663124000000003
  3439   1      40.092125000000003                3.920172      38.917696999999997
  3440   1      39.973413999999998      3.9663650000000001      40.429636000000002
  3441   8      29.591308000000001               26.650426      14.175103999999999
  3442   1               29.748217      27.494116999999999               13.744652
  3443   1               29.560095      26.016894000000001               13.453782
  3444   8      33.505330999999998      6.9287489999999998      29.702231000000001
  3445   1      32.773724999999999      6.4649979999999996      30.116250999999998
  3446   1      33.084781999999997      7.5912680000000003      29.148292000000001
  3447   8               36.771901      1.9041170000000001      8.2688819999999996
  3448   1               36.757196                2.711481      8.7881820000000008
  3449   1               37.353192                2.105639      7.5312299999999999
  3450   8                 2.02867               26.807776      31.317796000000001
  3451   1      2.9716870000000002      26.792743000000002      31.138307000000001
  3452   1                1.945516               27.342378      32.111476000000003
  3453   8      13.541517000000001      5.9292259999999999               16.010144
  3454   1               13.920486      5.1872660000000002      16.487221000000002
  3455   1               13.750572      5.7525110000000002               15.089433
  3456   8               22.765473                 2.19617                24.33456
  3457   1      22.144607000000001      1.7820279999999999               23.730625
  3458   1      22.288437999999999      2.9524900000000001      24.685358999999998
  3459   8      37.336728999999998      37.155183000000001      14.064823000000001
  3460   1      37.364485000000002      36.695033000000002               13.222673
  3461   1               37.078049      36.479917999999998      14.697075999999999
  3462   8      33.167867000000001                1.826457                2.255134
  3463   1      33.832965000000002      2.4752070000000002      2.4969869999999998
  3464   1               33.480843                1.462998      1.4229160000000001
  3465   8      21.340617000000002      41.486753999999998      6.4782580000000003
  3466   1      21.006910000000001      41.280741999999996      5.6019449999999997
  3467   1      21.218606999999999      40.674841999999998      6.9768109999999997
  3468   8               19.907325      6.1915769999999997                4.969773
  3469   1      20.228307000000001      6.6046760000000004      4.1647610000000004
  3470   1               19.807496      6.9198690000000003      5.5880510000000001
  3471   8      36.402365000000003      9.9059749999999998      13.489997000000001
  3472   1               36.899884      10.504842999999999               14.051741
  3473   1      37.052542000000003      9.5641529999999992                12.87107
  3474   8      33.615200999999999      36.801178999999998      41.529691999999997
  3475   1               33.027766      36.069814000000001               41.325364
  3476   1               34.430076               36.588746               41.067639
  3477   8      10.051736999999999               17.353624      23.575289000000001
  3478   1      9.6817840000000004      16.468893000000001      23.621245999999999
  3479   1      9.3898279999999996      17.910807999999999      23.992498999999999
  3480   8      35.653153000000003      35.976633999999997      29.582640999999999
  3481   1      36.007401999999999      36.749352000000002      29.136389000000001
  3482   1      35.050203000000003      36.335613000000002               30.238557
  3483   8      6.8083280000000004                1.405348      4.2635930000000002
  3484   1      6.3226259999999996     0.89632999999999996                 4.91683
  3485   1      6.6245529999999997     0.96236699999999997      3.4313449999999999
  3486   8      13.521540999999999               22.561076               22.801765
  3487   1               14.408151      22.904558999999999      22.934681000000001
  3488   1               13.617084      21.923591999999999      22.089635999999999
  3489   8      11.968496999999999      19.689903999999999               20.667171
  3490   1      11.787701999999999               18.768473      20.467165000000001
  3491   1               12.696007               19.659606      21.293631999999999
  3492   8               14.644879      18.601251000000001      27.443300000000001
  3493   1      14.408905000000001      17.734425000000002      27.781905999999999
  3494   1               14.231232               18.639626               26.577237
  3495   8      41.203896999999998      13.617502999999999               12.520448
  3496   1      41.095413000000001      13.682225000000001                11.56873
  3497   1      41.711458999999998      12.812105000000001      12.648343000000001
  3498   8      18.755821999999998      24.310759999999998               19.533154
  3499   1      19.251450999999999      25.039331000000001               19.914285
  3500   1               18.165668      24.029827000000001      20.237027000000001
  3501   8      27.390695000000001      38.624752000000001               40.169874
  3502   1      27.711003999999999      38.525877999999999      41.069513999999998
  3503   1      26.947175000000001      39.476764000000003      40.166980000000002
  3504   8      38.709654999999998      41.116148000000003      31.622782000000001
  3505   1      38.382945999999997               41.938834               31.251064
  3506   1      38.222340000000003      41.015613000000002      32.444400999999999
  3507   8      31.012502000000001      4.7634619999999996      7.5630439999999997
  3508   1               31.833264      5.2047509999999999      7.3320939999999997
  3509   1               30.566143      4.6349109999999998      6.7222819999999999
  3510   8      35.822693000000001      40.308456999999997      9.2870969999999993
  3511   1      36.622613000000001      40.513362999999998      9.7768599999999992
  3512   1      36.127448999999999      39.787289999999999      8.5400019999999994
  3513   8                1.414569      9.7280449999999998      36.553113000000003
  3514   1      2.3038500000000002      9.8390109999999993      36.208741000000003
  3515   1     0.90886900000000004      9.3987029999999994      35.805821999999999
  3516   8      29.104687999999999      31.257252000000001      32.589067999999997
  3517   1      28.682808000000001      30.985949999999999      31.770448999999999
  3518   1      28.375133000000002      31.505922000000002               33.162264
  3519   8      40.541924999999999      27.949529999999999      35.630541999999998
  3520   1      39.779663999999997                28.25299      35.131948000000001
  3521   1      40.280513999999997      27.087814000000002      35.964834000000003
  3522   8               19.530763      41.572125999999997      34.655549999999998
  3523   1               18.636015      41.324632000000001      34.410806999999998
  3524   1      19.672097000000001      41.146234999999997      35.504834000000002
  3525   8      39.807439000000002      8.9293750000000003               15.100444
  3526   1      39.084479000000002      8.3961089999999992               15.439092
  3527   1      39.379474999999999      9.5868339999999996      14.546155000000001
  3528   8               31.356876      13.394346000000001               12.173584
  3529   1               31.369384      13.805130999999999               13.041238
  3530   1               30.430743      13.191800000000001      12.019004000000001
  3531   8                8.733276      4.0571809999999999      11.210737999999999
  3532   1      7.8139329999999996      3.8117529999999999      11.083068000000001
  3533   1      9.2189899999999998      3.4795410000000002               10.616552
  3534   8      6.6871049999999999      25.065615000000001      26.896536999999999
  3535   1      5.9219689999999998               24.667928      26.474475000000002
  3536   1      6.3558089999999998      25.383005000000001      27.740425999999999
  3537   8               32.922539      10.428637999999999                12.61111
  3538   1               33.736615      9.9242030000000003               12.678578
  3539   1      33.094450999999999      11.227415000000001               13.116128
  3540   8               14.293237      19.350380000000001      14.076707000000001
  3541   1               13.677847      18.669578000000001      13.794696999999999
  3542   1      14.456504000000001               19.867459               13.283854
  3543   8                4.578265      16.760767999999999      6.8487439999999999
  3544   1      5.0632900000000003               16.777704      6.0203790000000001
  3545   1      4.1885269999999997      17.636202999999998      6.9147809999999996
  3546   8      4.7864779999999998      34.203167999999998      35.735393999999999
  3547   1      4.9811959999999997      33.373024000000001      35.294178000000002
  3548   1      4.6757590000000002      33.962254999999999      36.658619000000002
  3549   8      33.286330999999997      39.943992000000001               25.545817
  3550   1      33.521433999999999      39.060966999999998      25.251338000000001
  3551   1      33.390115000000002      40.491717999999999      24.763598000000002
  3552   8               30.894285               27.330759      1.9308190000000001
  3553   1      31.722449000000001      27.727370000000001      2.2111200000000002
  3554   1      30.218920000000001               27.851253      2.3730959999999999
  3555   8      21.599146000000001      9.7080490000000008     0.99435499999999999
  3556   1      22.429068000000001                9.373246      1.3420049999999999
  3557   1      21.519280999999999      10.587123999999999                1.373157
  3558   8      4.8454269999999999      39.449883999999997      19.480941000000001
  3559   1      4.8948159999999996      38.586426000000003      19.064136999999999
  3560   1      5.7556589999999996      39.658451999999997      19.705926999999999
  3561   8      21.442056000000001               17.191018      32.078282999999999
  3562   1      21.002382000000001               16.398609               31.761267
  3563   1      22.004301999999999      16.881945999999999      32.793123000000001
  3564   8      15.132502000000001      24.446314999999998               24.754894
  3565   1               14.899718      25.359515999999999               24.938198
  3566   1      15.214975000000001      24.042515000000002      25.622526000000001
  3567   8      30.105719000000001      16.937764999999999      27.897981999999999
  3568   1      29.604369999999999      16.321097999999999               28.436588
  3569   1      30.082674000000001      17.760383000000001      28.393370999999998
  3570   8      9.7843420000000005               19.216286      19.002870999999999
  3571   1      9.4329640000000001               19.801492      18.327746999999999
  3572   1      9.6077659999999998               18.333316      18.668465999999999
  3573   8      4.9027789999999998      5.5040259999999996               35.854785
  3574   1      5.5239419999999999      4.8165889999999996      36.106405000000002
  3575   1      4.1939609999999998      5.0333709999999998      35.409022999999998
  3576   8      34.015273000000001      27.663582999999999                3.475028
  3577   1      33.115225000000002                27.42014                3.703881
  3578   1      33.917071999999997      28.283021999999999      2.7475019999999999
  3579   8      41.806353000000001      31.762467000000001               40.269244
  3580   1               41.383108      31.047986999999999      39.787469000000002
  3581   1               41.316941               31.816654      41.093975999999998
  3582   8      18.222207999999998      32.669308999999998      36.172977000000003
  3583   1      18.380597999999999      32.156325000000002      35.377059000000003
  3584   1               17.592679      33.342148999999999      35.901645000000002
  3585   8      7.8805379999999996                26.87218      29.061057999999999
  3586   1      8.0674030000000005      25.930765999999998               29.037675
  3587   1      8.5721129999999999      27.238779000000001      29.617809000000001
  3588   8      6.1533300000000004      27.857493000000002                4.285145
  3589   1      6.1212059999999999               27.657722      5.2236459999999996
  3590   1      5.7762200000000004               27.081394      3.8631259999999998
  3591   8      7.4903019999999998                6.397208      41.026136999999999
  3592   1      6.8295940000000002      6.9665239999999997      40.624800999999998
  3593   1      8.3056750000000008      6.9018480000000002      40.970038000000002
  3594   8      8.2862489999999998               29.461402               11.324626
  3595   1      8.4581949999999999      28.586493999999998               10.968683
  3596   1      7.7208709999999998      29.878420999999999                10.66958
  3597   8      7.7761519999999997      22.206745999999999      32.109881000000001
  3598   1      8.0644159999999996      21.335387000000001               31.828166
  3599   1      8.4283540000000006      22.474267000000001      32.762343000000001
  3600   8      5.6569700000000003               41.471674      34.659945999999998
  3601   1      6.3763009999999998                      42      34.306165999999997
  3602   1      5.3054230000000002      41.999921999999998      35.381062999999997
  3603   8      29.679120999999999      36.664042999999999      41.156171000000001
  3604   1      29.306671999999999      36.397660999999999                      42
  3605   1      30.268758999999999               35.944184               40.917904
  3606   8               13.771808      25.231926000000001      36.064877000000003
  3607   1               14.208643      26.033083000000001      35.766469000000001
  3608   1      14.214410000000001      24.526554000000001      35.586132999999997
  3609   8      2.2792490000000001      18.132597000000001      2.4957639999999999
  3610   1                 3.17767      17.967085000000001      2.7910089999999999
  3611   1      2.1464400000000001      17.510643999999999      1.7759180000000001
  3612   8      9.6238039999999998      40.172629000000001      28.791371000000002
  3613   1      8.7640600000000006                39.77028               28.935181
  3614   1                10.05965      39.587080999999998      28.167020000000001
  3615   8      9.5291510000000006      5.7396209999999996      23.233135000000001
  3616   1               10.276645      5.3208010000000003               22.800044
  3617   1      9.1531559999999992      5.0471190000000004      23.782416999999999
  3618   8      32.484687000000001                3.453173      31.627845000000001
  3619   1      32.530940999999999      4.3756300000000001               31.365817
  3620   1      32.298748000000003      3.4819059999999999      32.569780999999999
  3621   8      9.4670740000000002      27.988209999999999      21.983298000000001
  3622   1      9.8162719999999997      28.831022999999998      22.282382999999999
  3623   1      9.8013879999999993      27.895963999999999      21.087548999999999
  3624   8                3.082697      3.4242279999999998               11.929174
  3625   1      2.7894199999999998      2.8953880000000001      11.183491999999999
  3626   1                2.918974      2.8680370000000002      12.694998999999999
  3627   8               11.097638      1.8849279999999999      24.817834000000001
  3628   1               11.555313                2.576111      24.333556999999999
  3629   1      11.800046999999999      1.3146990000000001               25.140483
  3630   8               17.226243      20.431260000000002      39.164242999999999
  3631   1      16.897434000000001      20.175782999999999               38.299177
  3632   1      17.624576000000001      19.630241000000002      39.514015999999998
  3633   8      7.5816140000000001      4.8791270000000004               18.845799
  3634   1      8.3780850000000004      5.0620909999999997      19.349668000000001
  3635   1      7.3932200000000003                3.954456      19.025054999999998
  3636   8               31.095402      16.541644999999999               32.744259
  3637   1               31.275734      17.456348999999999      32.515084000000002
  3638   1               30.179572      16.407610999999999      32.487482999999997
  3639   8               22.639205      37.263750999999999      2.7604760000000002
  3640   1      22.940732000000001      38.152382000000003      2.9633090000000002
  3641   1      22.036052000000002      37.047476000000003      3.4760689999999999
  3642   8      5.7286799999999998      28.143460000000001      22.560072999999999
  3643   1      5.2927559999999998      27.450475999999998      22.058606999999999
  3644   1      5.9224889999999997      27.737667999999999      23.408844999999999
  3645   8      38.667081000000003                18.50985      27.269787999999998
  3646   1      38.678040000000003      17.564682000000001               27.437904
  3647   1      38.075167999999998      18.611847999999998               26.520204
  3648   8               19.034378      12.960122999999999               18.770954
  3649   1      18.730782000000001               12.087826      18.508938000000001
  3650   1               18.913014               13.500513      17.986166999999998
  3651   8      17.843572999999999      15.522106000000001      3.5452210000000002
  3652   1      17.338871000000001      16.297636000000001      3.8012579999999998
  3653   1      18.421600999999999               15.834443      2.8445279999999999
  3654   8      18.448363000000001      5.0485889999999998      16.176597000000001
  3655   1                18.45215      4.1059450000000002      15.994573000000001
  3656   1               18.881815      5.4403870000000003               15.414196
  3657   8               14.154232               15.269269      31.051583999999998
  3658   1      14.699452000000001               14.482161      30.981432999999999
  3659   1      14.632887999999999               15.837382      31.660499000000002
  3660   8               19.810271                1.016721      40.607143000000001
  3661   1      19.989457999999999    0.083041000000000004      40.473509999999997
  3662   1      19.859715000000001      1.1351329999999999      41.559075999999997
  3663   8      24.232275000000001               27.037944      13.394994000000001
  3664   1      24.230692999999999      26.151171000000001               13.027087
  3665   1      23.312550999999999               27.206509      13.614845000000001
  3666   8                38.85548      20.764382999999999               24.601405
  3667   1      38.004852999999997      20.469270999999999               24.268138
  3668   1      38.693216999999997      21.659483000000002      24.909804000000001
  3669   8               20.408265               15.711074      4.1346559999999997
  3670   1      21.261285000000001      16.145676000000002      4.0625169999999997
  3671   1                19.85031               16.353479      4.5803510000000003
  3672   8      9.2312910000000006               11.278411               24.837042
  3673   1      9.4660980000000006      10.523744000000001               25.382082
  3674   1      8.6254080000000002      10.920882000000001               24.183038
  3675   8      24.878315000000001      24.037261999999998               14.689582
  3676   1               25.435699      24.739474000000001               14.346147
  3677   1      24.342535999999999      24.465451999999999               15.362067
  3678   8      37.728560999999999      1.0310140000000001      25.580463000000002
  3679   1      37.100955999999996     0.54249599999999998      25.042701000000001
  3680   1      37.940367000000002     0.43329400000000001      26.301926999999999
  3681   8      29.814651999999999      30.048401999999999               15.065006
  3682   1      30.411968000000002      29.612235999999999               15.677132
  3683   1               29.565946      29.359878999999999               14.443135
  3684   8      19.623055000000001      13.068198000000001      23.942174999999999
  3685   1               20.344365      12.439515999999999      24.020887999999999
  3686   1               19.200536               12.843268      23.109393000000001
  3687   8      7.8270850000000003      34.867947999999998               30.919857
  3688   1      8.0074760000000005      35.647022999999997      30.388608000000001
  3689   1      7.8638199999999996      34.139454000000001      30.294886000000002
  3690   8      6.9296899999999999               14.771779      22.472899999999999
  3691   1      7.2289050000000001               15.680168      22.556723000000002
  3692   1      6.2175770000000004               14.813706      21.829643999999998
  3693   8      15.025555000000001      9.0677020000000006     0.19226099999999999
  3694   1               15.479685      9.7902690000000003     0.63202000000000003
  3695   1               14.300945      8.8468699999999991     0.78286699999999998
  3696   8               10.502865      34.322508999999997      8.6861709999999999
  3697   1      9.5936679999999992      34.053978000000001      8.8377520000000001
  3698   1      11.025840000000001               33.577717      8.9934569999999994
  3699   8      22.571452000000001      30.793890000000001      7.1594340000000001
  3700   1      21.797353000000001      31.002541000000001      6.6312660000000001
  3701   1               22.518646               29.844452      7.2951579999999998
  3702   8               18.151342      31.710007000000001      18.421015000000001
  3703   1      18.115469999999998               32.063336               19.312977
  3704   1      17.257885999999999      31.818532999999999      18.085457000000002
  3705   8      9.7775040000000004                0.483821      9.4657579999999992
  3706   1      8.9196340000000003                0.169569      9.1707509999999992
  3707   1               10.084038                 1.04691      8.7504899999999992
  3708   8      27.421583999999999      17.851824000000001      23.394566000000001
  3709   1      26.814879999999999      17.124345000000002      23.550802999999998
  3710   1               27.088155      18.273613999999998      22.598600999999999
  3711   8                9.426221      26.898288999999998      13.560727999999999
  3712   1      9.2867899999999999      27.803920000000002               13.847287
  3713   1               10.141703      26.957598999999998               12.922597
  3714   8      39.558650999999998                30.75751      35.871991000000001
  3715   1      38.840864000000003      30.205017000000002      35.553778999999999
  3716   1      40.351467999999997      30.343658999999999               35.521549
  3717   8      12.880672000000001      6.7576710000000002      1.2799100000000001
  3718   1               12.724563      5.8127760000000004                1.347199
  3719   1               13.544672      6.9379590000000002      1.9501660000000001
  3720   8      4.6685359999999996      19.316106000000001      20.221772999999999
  3721   1      5.4004919999999998               18.848219      20.630486999999999
  3722   1      4.4296319999999998      18.772237000000001               19.466939
  3723   8      25.379733000000002      39.624191000000003      26.347542000000001
  3724   1      24.442969000000002      39.773428000000003      26.199470000000002
  3725   1      25.643864000000001      39.039233000000003      25.632909000000001
  3726   8      22.198913000000001      4.6273280000000003      4.6961079999999997
  3727   1      22.129481999999999                5.451416      4.2084770000000002
  3728   1      21.350971000000001      4.5400980000000004      5.1388559999999996
  3729   8      36.056986000000002               22.927951               21.421785
  3730   1      36.576785999999998      23.635121000000002               21.032629
  3731   1      35.837119000000001      22.357966999999999      20.680555999999999
  3732   8               20.129424      29.779046000000001               16.439657
  3733   1      20.053626000000001               30.326891               17.224415
  3734   1      19.857483999999999      30.354310000000002               15.720101
  3735   8      29.814834000000001      39.591523000000002      22.451419000000001
  3736   1      29.724022999999999      39.322163000000003      21.534400000000002
  3737   1      30.754622999999999      39.758490999999999      22.558931999999999
  3738   8      12.228827000000001      22.812605000000001      28.664767000000001
  3739   1               12.598815      22.429984000000001               27.865745
  3740   1      11.282228999999999      22.673594999999999               28.579497
  3741   8      17.336819999999999      33.394540999999997               29.515162
  3742   1               16.646334               33.398505               28.848125
  3743   1      17.531203999999999      32.463819000000001      29.651586999999999
  3744   8      6.3850449999999999      16.185814000000001      26.343786999999999
  3745   1      7.0398509999999996      16.879847000000002               26.449963
  3746   1      6.4101049999999997               15.705176      27.175052000000001
  3747   8      40.486255999999997      18.115266999999999      16.449172999999998
  3748   1               41.089523      17.415213999999999      16.709402999999998
  3749   1      40.900846000000001      18.919440999999999      16.771761000000001
  3750   8      7.7354060000000002               20.115468               19.691506
  3751   1      7.4426930000000002               19.652455      20.479963000000001
  3752   1      7.0401210000000001      19.954599999999999      19.048590000000001
  3753   8      32.444307999999999               14.059623      7.3718880000000002
  3754   1      32.984872000000003      14.665979999999999      7.8835980000000001
  3755   1               32.234102               14.545755                6.570557
  3756   8      40.509718999999997               36.762394      26.908899000000002
  3757   1      40.956349000000003               36.586174      26.077518999999999
  3758   1      40.627634999999998               35.956674      27.418362999999999
  3759   8      25.594996999999999      27.289142999999999               16.132787
  3760   1               25.884698               28.188748      16.301638000000001
  3761   1      25.909611999999999               27.099974      15.245164000000001
  3762   8                1.019814      19.973472000000001               23.021846
  3763   1                1.442609               20.497411      23.706285999999999
  3764   1     0.16242500000000001      19.746597999999999               23.390701
  3765   8      1.7307159999999999     0.87212900000000004      14.981389999999999
  3766   1      2.5408599999999999     0.83309999999999995               15.495072
  3767   1                2.005134                1.220785               14.129465
  3768   8      10.690689000000001      39.585386999999997      34.233367999999999
  3769   1               10.623246      38.746445000000001      33.771467999999999
  3770   1      9.9796460000000007      39.560111999999997      34.878675999999999
  3771   8      7.2850510000000002      30.568214999999999      32.007682000000003
  3772   1      7.9704090000000001               31.059818               31.549059
  3773   1      7.3192079999999997      30.896498999999999      32.909737999999997
  3774   8      37.140483000000003      23.031216000000001      32.935917000000003
  3775   1      38.014994000000002      23.133911999999999      32.553282000000003
  3776   1      37.068637000000003      23.754360999999999      33.564042999999998
  3777   8      28.006813000000001      19.973572000000001               25.013406
  3778   1      28.631519000000001      19.482496000000001      24.474599999999999
  3779   1               27.152065      19.787918000000001      24.616441999999999
  3780   8      7.5981629999999996      21.580840999999999      21.527563000000001
  3781   1      7.0466579999999999      21.886068000000002      20.803405000000001
  3782   1      6.9944819999999996               21.503072                22.27064
  3783   8      12.227767999999999      12.090135999999999      36.773212000000001
  3784   1               12.024846               11.151793      36.780951000000002
  3785   1               12.450868                12.29336      37.685116000000001
  3786   8               28.741128      41.348502000000003      34.608351999999996
  3787   1      27.939126999999999      41.511643999999997      35.110252000000003
  3788   1      29.365445000000001      41.999704000000001      34.938209000000001
  3789   8      8.3403390000000002      38.570284999999998      37.351033000000001
  3790   1                7.410774      38.361586000000003      37.469684999999998
  3791   1      8.3680730000000008      39.530135000000001               37.327365
  3792   8      7.4242749999999997      36.079954999999998      16.411933999999999
  3793   1      7.8570469999999997      35.638806000000002               17.146659
  3794   1                6.808128      35.426656000000001      16.071044000000001
  3795   8               13.530199      36.304360000000003      21.857151000000002
  3796   1               14.428262      36.582599999999999      22.051549999999999
  3797   1      12.996672999999999      36.732632000000002      22.531372999999999
  3798   8      37.101438999999999      5.4241919999999997               11.475189
  3799   1      36.323723000000001      5.7954189999999999               11.052019
  3800   1      37.829372999999997      5.6808370000000004               10.903449
  3801   8               15.231439      30.235233000000001      1.7993539999999999
  3802   1      15.438726000000001      31.071007000000002                  2.2239
  3803   1               15.634143      29.573160999999999      2.3669199999999999
  3804   8      9.5668220000000002      21.811900999999999      17.442167999999999
  3805   1      9.7649190000000008      22.536425000000001      16.844215999999999
  3806   1      8.9513540000000003      22.187840000000001      18.076606000000002
  3807   8      7.4721109999999999      7.6093169999999999      31.216563000000001
  3808   1      7.7003890000000004      8.2612679999999994      30.549800000000001
  3809   1                6.583329      7.8495160000000004      31.490449000000002
  3810   8               25.392208      22.943519999999999      16.520900000000001
  3811   1      26.252956999999999               22.807115      16.118120999999999
  3812   1      25.590181000000001      23.283874000000001      17.397031999999999
  3813   8               27.083205      32.805073999999998               10.409969
  3814   1      26.773755999999999               31.897316               10.365897
  3815   1      26.814201000000001      33.189633999999998      9.5718809999999994
  3816   8      37.179276000000002                6.922561               13.084175
  3817   1      36.500481999999998      7.5072660000000004               13.429261
  3818   1      37.760677999999999      7.5010789999999998               12.584244
  3819   8      27.873916999999999               14.169487      4.6118569999999997
  3820   1      27.205103999999999               13.693265                4.114236
  3821   1      28.038385999999999      13.616607999999999                5.379918
  3822   8                7.157394      31.183986999999998               16.095326
  3823   1      6.5473309999999998      30.529973999999999      16.444344000000001
  3824   1      8.0194890000000001               30.765781      16.162687999999999
  3825   8      27.220642000000002      18.321708000000001      26.476154000000001
  3826   1               27.979115      17.736305000000002      26.414943999999998
  3827   1      26.482026999999999      17.787403000000001               26.173486
  3828   8      31.670822999999999      33.959243999999998      36.816276000000002
  3829   1      32.585515000000001      33.973529999999997      37.107581000000003
  3830   1      31.356470999999999      33.085042999999999      37.060398999999997
  3831   8      36.952910000000003      40.272165000000001      26.361584000000001
  3832   1      36.281047999999998      40.639707000000001      25.782585999999998
  3833   1      36.829644999999999      40.735346999999997      27.193995999999999
  3834   8      41.783437999999997      38.321832000000001      13.613530000000001
  3835   1      41.457690999999997               39.220081               13.519923
  3836   1      41.250931000000001      37.947491999999997               14.319893
  3837   8      23.527170999999999      37.444828000000001      4.9434800000000001
  3838   1      22.957263000000001      37.241067000000001                5.688739
  3839   1               24.388735      37.601779999999998      5.3380879999999999
  3840   8      24.287797999999999      2.7634690000000002      3.9431530000000001
  3841   1      23.952877999999998      3.6510750000000001                3.795811
  3842   1      25.127071000000001      2.7447650000000001      3.4763410000000001
  3843   8      39.166485000000002      36.738100000000003      34.358302999999999
  3844   1      38.878993999999999               37.471314      33.809238999999998
  3845   1      39.337935999999999               36.026958      33.735788999999997
  3846   8               15.511186      4.0348899999999999      4.3435680000000003
  3847   1               16.417361                4.019692      4.0267999999999997
  3848   1      15.534091999999999      4.6218360000000001      5.1035760000000003
  3849   8     0.41713499999999998      6.4245349999999997               12.330505
  3850   1                       0      7.0652119999999998               11.749767
  3851   1     0.71623300000000001      6.9429670000000003      13.081777000000001
  3852   8      17.353491999999999      36.450845000000001      29.624894000000001
  3853   1      16.962278000000001      35.584507000000002      29.490228999999999
  3854   1      17.673044000000001      36.430002999999999      30.530484999999999
  3855   8                5.497198      25.420259999999999      19.056903999999999
  3856   1      5.6532499999999999      25.416775999999999      20.004194999999999
  3857   1                6.356789      25.613679000000001      18.674365000000002
  3858   8      35.979446000000003               25.696517      4.7366890000000001
  3859   1      36.656919000000002      25.903767999999999                4.088768
  3860   1      35.262113999999997      26.302209999999999      4.5336800000000004
  3861   8               13.732213      13.474959999999999      29.000952999999999
  3862   1      12.851777999999999      13.521402999999999      29.380956000000001
  3863   1               13.711874      14.103230999999999      28.274657999999999
  3864   8      1.1531070000000001               23.466417               16.997944
  3865   1      1.8275399999999999      23.243321999999999      17.643771999999998
  3866   1      1.6329640000000001      23.915769000000001      16.297613999999999
  3867   8               12.424512               10.937125      5.6792660000000001
  3868   1               12.344249               11.805061      6.0817220000000001
  3869   1      11.550611999999999      10.549448999999999      5.7722629999999997
  3870   8               17.179088                1.305404      35.227276000000003
  3871   1      17.055865000000001                1.731873      34.376002999999997
  3872   1      18.128004000000001                1.334508      35.373401000000001
  3873   8               13.507254      30.835363999999998      33.897302000000003
  3874   1      13.124002000000001      31.656846000000002      34.213545000000003
  3875   1               14.255554               31.111794      33.362254999999998
  3876   8      41.034897999999998               15.052583      26.801528000000001
  3877   1      40.172584000000001      15.409162999999999               27.027338
  3878   1      41.201895999999998               15.377129      25.913032999999999
  3879   8      20.322565999999998      33.053196999999997      35.056320999999997
  3880   1               19.795423      33.855514999999997      35.067802999999998
  3881   1               20.414956      32.841934999999999      34.123865000000002
  3882   8      13.373284999999999      20.806529999999999               15.928188
  3883   1               13.415213      21.719553000000001      15.634323999999999
  3884   1               12.714731               20.402393               15.357555
  3885   8      7.9274490000000002               20.613647      8.1818620000000006
  3886   1      8.3483070000000001      20.196304999999999      8.9371290000000005
  3887   1      7.0909329999999997      20.938510000000001      8.5244219999999995
  3888   8               18.107789                9.394774      6.8939859999999999
  3889   1      17.867439999999998      8.6819649999999999      6.2974449999999997
  3890   1               18.546184      8.9548590000000008      7.6267389999999997
  3891   8      37.839030999999999               34.935409      27.249797000000001
  3892   1      37.169215999999999      34.703974000000002                 26.6021
  3893   1      38.226210999999999      35.747267000000001      26.912721000000001
  3894   8               30.601523      18.096298000000001               18.347939
  3895   1      30.479493999999999               17.313571      17.805561999999998
  3896   1      29.750844000000001      18.541436999999998      18.318981999999998
  3897   8      30.942540999999999     0.71995799999999999      39.690581000000002
  3898   1               31.416819                1.057267      38.927031999999997
  3899   1      30.378782999999999    0.028452000000000002      39.334716999999998
  3900   8                32.01397      9.6054490000000001      35.922986000000002
  3901   1      32.410179999999997      10.415202000000001      35.592768999999997
  3902   1      31.960982000000001      9.0344449999999998      35.152410000000003
  3903   8      34.297921000000002               19.590591      10.735397000000001
  3904   1      35.144888000000002      20.041899999999998               10.761702
  3905   1      33.700102999999999      20.177942999999999                11.20473
  3906   8      27.052617999999999      17.097840000000001      41.351109999999998
  3907   1               27.608359      16.324293000000001      41.471532000000003
  3908   1      26.642420999999999      16.965430999999999               40.492711
  3909   8               19.090968      21.625558000000002               40.610225
  3910   1               19.016275      21.069583999999999      39.831097999999997
  3911   1      19.995826000000001      21.947075999999999      40.587850000000003
  3912   8               14.125256      1.9487030000000001      34.857871000000003
  3913   1               14.985255      1.6060049999999999      35.112202000000003
  3914   1      13.830163000000001                1.358258      34.160063000000001
  3915   8      40.214467999999997      35.866539000000003      29.624400999999999
  3916   1      41.172910999999999      35.921098999999998      29.636085000000001
  3917   1      39.922460000000001               36.747971      29.870267999999999
  3918   8               31.829017      19.977785999999998      9.1121169999999996
  3919   1      31.068059000000002               19.823995      8.5473020000000002
  3920   1               32.574227      20.002832999999999      8.5065779999999993
  3921   8      8.0547520000000006      18.389330000000001      4.6588890000000003
  3922   1      7.3724790000000002      18.294039999999999      3.9901979999999999
  3923   1                7.693632      19.028203000000001      5.2786270000000002
  3924   8      33.132734999999997      14.017080999999999      1.3553710000000001
  3925   1      33.049455000000002      14.618361999999999     0.61156299999999997
  3926   1                32.24044      13.943042999999999      1.7031780000000001
  3927   8      34.870657000000001               41.296771      32.252853000000002
  3928   1      34.569307000000002      41.121622000000002      31.358294000000001
  3929   1      34.184978000000001      41.853243999999997      32.630774000000002
  3930   8               23.502768               24.522551      25.866755999999999
  3931   1      22.779558999999999      24.825234999999999               25.312611
  3932   1               23.110315               24.423337      26.737836000000001
  3933   8                3.810022               26.648114     0.29083599999999998
  3934   1                4.004759      27.542103000000001                       0
  3935   1      2.8912420000000001      26.682642000000001     0.56885200000000002
  3936   8      34.716126000000003               38.428331      37.745131000000001
  3937   1      34.264145999999997      37.582782000000002      37.794991000000003
  3938   1      34.018714000000003               39.060578      37.554023999999998
  3939   8               29.872643      32.379818999999998      41.707382000000003
  3940   1      29.012243000000002      32.012602999999999               41.923226
  3941   1      29.732095000000001                32.84572      40.879237000000003
  3942   8      33.846111999999998                1.860241               13.682001
  3943   1      34.539281000000003      1.3669199999999999      14.126834000000001
  3944   1      34.278264999999998      2.6659540000000002               13.387534
  3945   8      35.902898999999998               10.917249      37.721290000000003
  3946   1                36.37932               10.119909      37.478400000000001
  3947   1      36.425699999999999      11.300850000000001      38.429931000000003
  3948   8               31.610377      37.516502000000003      18.175782999999999
  3949   1      30.969650999999999      36.893335999999998      17.825271000000001
  3950   1               31.834457      37.166378000000002      19.041717999999999
  3951   8               16.374813               12.224259      8.6881629999999994
  3952   1               15.550153               11.929209      9.0813640000000007
  3953   1      17.046707000000001               11.680522      9.1071500000000007
  3954   8               39.024265      28.019871999999999      24.859024999999999
  3955   1      38.238650999999997      28.159922000000002               24.325243
  3956   1               39.078353               27.065973      24.957985999999998
  3957   8               11.193991      37.287224000000002      37.057059000000002
  3958   1               11.194179                36.45505      36.578297999999997
  3959   1      10.271203999999999      37.553460000000001      37.072057999999998
  3960   8               15.199221      33.463531000000003               14.371675
  3961   1      15.131360000000001      32.595633999999997               14.776489
  3962   1      14.310795000000001      33.650426000000003               14.057967
  3963   8      38.530394000000001               10.845195      29.968883000000002
  3964   1      38.350060999999997      9.9102519999999998               29.846059
  3965   1      38.936159000000004               10.897599      30.837935000000002
  3966   8      2.3773140000000001      6.2398420000000003               20.513112
  3967   1      3.1671049999999998      5.7653150000000002               20.782888
  3968   1                1.781989      5.5538020000000001               20.200737
  3969   8      21.038554999999999               32.613149      28.196515000000002
  3970   1      21.029997000000002               32.163798      29.044886999999999
  3971   1               20.407892      32.124564999999997      27.661546999999999
  3972   8      26.818187000000002      19.514696000000001      32.845005999999998
  3973   1      27.371518999999999      19.596202999999999      33.625329999999998
  3974   1      27.405533999999999      19.721302999999999      32.113582999999998
  3975   8      2.5969509999999998      23.866267000000001      8.0035159999999994
  3976   1      2.8740760000000001      23.432842000000001      8.8141149999999993
  3977   1                2.365974      23.144016000000001      7.4139010000000001
  3978   8      2.8041589999999998      37.485505000000003      31.799160000000001
  3979   1      3.6041650000000001               38.011125      31.725414000000001
  3980   1      2.7174010000000002      37.061720999999999      30.941534000000001
  3981   8      35.857660000000003               11.008632      24.134270999999998
  3982   1               35.100209               10.758932               23.599815
  3983   1      36.469814999999997      10.274725999999999               24.037889
  3984   8                3.123974      18.392496999999999      38.124374000000003
  3985   1      3.0009890000000001      17.440850000000001      38.093255999999997
  3986   1      2.2408380000000001               18.742521      38.266488000000003
  3987   8      26.435265999999999      24.519628999999998               39.961717
  3988   1      26.687840000000001      24.637032999999999      39.042941999999996
  3989   1               27.152797               24.919922               40.459266
  3990   8      36.462325999999997      28.103432000000002                2.549887
  3991   1      37.249369999999999               28.144928                3.098125
  3992   1      35.901203000000002      28.807528000000001      2.8845990000000001
  3993   8      41.903109000000001      13.224189000000001      36.438771000000003
  3994   1      40.974178000000002               13.339423      36.652158999999997
  3995   1      41.975510999999997               13.512667      35.525436999999997
  3996   8      3.7195390000000002               13.184122                3.376938
  3997   1      4.4865899999999996      13.638866999999999      3.0211800000000002
  3998   1                2.985576      13.503259999999999      2.8458160000000001
  3999   8               22.491315      34.656458999999998      39.979905000000002
  4000   1      21.902602999999999      33.904404999999997      40.077665000000003
  4001   1      23.140540999999999      34.543461000000001      40.678747000000001
  4002   8      22.326084000000002               21.605255      6.8745640000000003
  4003   1      21.821266999999999      21.210736000000001      7.5895739999999998
  4004   1      22.692063000000001      20.855243999999999      6.3989750000000001
  4005   8      27.035105999999999      12.445042000000001      39.151713999999998
  4006   1               26.219521      12.660176999999999               38.693168
  4007   1      26.821118999999999               12.552484      40.081932999999999
  4008   8      27.862362999999998      24.548905999999999      2.7088899999999998
  4009   1      27.497088000000002      24.310210999999999                1.853715
  4010   1                27.26606      24.144521999999998      3.3441369999999999
  4011   8      22.587554999999998                2.212421      5.2842500000000001
  4012   1                22.10247                1.616671      5.8600089999999998
  4013   1      23.222784000000001      2.6399319999999999      5.8642159999999999
  4014   8      34.957644999999999               14.903055      6.7017579999999999
  4015   1      35.402484000000001               15.002141      5.8567580000000001
  4016   1      35.530253999999999               15.354486      7.3270340000000003
  4017   8      12.176050999999999      6.1382659999999998      3.4757370000000001
  4018   1      12.342453000000001      5.9003969999999999      4.3908620000000003
  4019   1      11.218363999999999      6.1646850000000004                3.406606
  4020   8      35.618144999999998               39.100873                24.35689
  4021   1      35.425114000000001      38.186990999999999      24.578890999999999
  4022   1      36.228453000000002      39.042813000000002      23.617433999999999
  4023   8      24.050218999999998      28.218541999999999               15.260876
  4024   1               24.493029      28.974066000000001               14.867395
  4025   1      23.502911999999998      28.597086000000001      15.953552999999999
  4026   8      35.650148999999999      4.5736470000000002      3.4649420000000002
  4027   1      34.774771999999999      4.4013859999999996      3.1103070000000002
  4028   1      35.758598999999997                3.919896      4.1602769999999998
  4029   8      24.504166999999999      31.864184999999999      7.2773320000000004
  4030   1               25.070929      32.108690000000003      6.5419929999999997
  4031   1      24.950033999999999      31.116744000000001      7.6837520000000001
  4032   8      24.331555999999999      35.339221000000002      20.846827999999999
  4033   1      24.602309999999999      34.790866999999999      20.106743000000002
  4034   1      23.468789000000001      35.675417000000003               20.591393
  4035   8      32.089100999999999      13.955709000000001               20.744895
  4036   1      31.161128000000001               13.878565      20.511140000000001
  4037   1      32.211626000000003      13.314386000000001      21.449404999999999
  4038   8      8.1213460000000008      27.434912000000001      35.498499000000002
  4039   1      7.3133239999999997               27.296478      34.998837999999999
  4040   1      8.2886360000000003               26.588462      35.920611000000001
  4041   8               12.980568      22.065190999999999      40.704676999999997
  4042   1      13.203151999999999      22.656351999999998      39.981690999999998
  4043   1      12.312025999999999      22.540690999999999      41.204270000000001
  4044   8               33.863619      20.619130999999999      26.655145999999998
  4045   1      34.219262999999998               21.444906      26.318487999999999
  4046   1               33.169221      20.888304000000002               27.261775
  4047   8      33.858530999999999      26.975470000000001      37.603088999999997
  4048   1      34.050741000000002      26.044347999999999      37.469701000000001
  4049   1      34.447619000000003      27.241109000000002      38.313760000000002
  4050   8      18.572323000000001      6.9438769999999996      40.129269000000001
  4051   1      18.399709000000001      6.0566800000000001      39.805523999999998
  4052   1      19.507871999999999      6.9404430000000001      40.346933999999997
  4053   8               18.304945               10.374915      29.535371999999999
  4054   1      17.386247999999998                10.40075      29.257785999999999
  4055   1      18.372623999999998      11.064852999999999      30.200237000000001
  4056   8               20.997515               33.712612               37.474961
  4057   1      21.576688000000001      34.022875999999997               36.774946
  4058   1      20.144397999999999      34.103119999999997      37.269204000000002
  4059   8      27.442229999999999      12.732506000000001      8.5093049999999995
  4060   1               26.636018               12.803493      9.0257439999999995
  4061   1               27.237648               12.078044      7.8366480000000003
  4062   8      32.321421000000001      34.241694000000003      10.272278999999999
  4063   1               33.130502      33.824098999999997      9.9677679999999995
  4064   1      32.044047999999997      34.790525000000002      9.5343830000000001
  4065   8               10.217551      18.132608000000001      13.280545999999999
  4066   1      9.7196020000000001      18.924831999999999      13.065713000000001
  4067   1               11.000021      18.185072999999999               12.725902
  4068   8      2.6598950000000001      27.804594999999999               25.982211
  4069   1      3.0413079999999999      28.654554999999998               25.750228
  4070   1      2.2031809999999998      27.966581999999999      26.811557000000001
  4071   8               10.392999                1.795059      11.465813000000001
  4072   1      11.307456999999999      1.6025180000000001                11.24577
  4073   1      10.029057999999999                0.947855               11.734949
  4074   8      35.757415000000002      39.252096999999999      30.235990000000001
  4075   1      34.949691999999999               38.815261      29.955843000000002
  4076   1      36.322572999999998      38.536893999999997      30.538848000000002
  4077   8               11.430539      6.3428899999999997               13.495139
  4078   1               11.822917      5.6114569999999997      13.977600000000001
  4079   1      10.537255999999999      6.4058320000000002      13.842594999999999
  4080   8      12.091385000000001               20.705662      17.736934999999999
  4081   1               11.889906      21.633531999999999      17.594851999999999
  4082   1      11.530239999999999      20.449878999999999      18.473368000000001
  4083   8      27.615355000000001               20.015148      18.890864000000001
  4084   1      26.675557999999999      20.081486000000002      18.706181999999998
  4085   1               27.660238      19.809419999999999      19.828043000000001
  4086   8      26.287140000000001      26.218451999999999                0.018411
  4087   1      27.013584000000002      26.825358000000001     0.17863000000000001
  4088   1               26.038439      25.908142000000002     0.89276699999999998
  4089   8      23.902788999999999      36.606782000000003               24.167907
  4090   1      23.919032999999999      36.836708999999999               23.235923
  4091   1      23.593478000000001      37.404291000000001               24.604882
  4092   8      37.804085000000001      34.990023999999998      39.216546000000001
  4093   1      37.765372999999997      35.724088999999999      38.598990999999998
  4094   1      38.308706999999998      35.330055999999999      39.959766999999999
  4095   8      28.925142000000001               10.874948                1.199209
  4096   1                28.65522                11.65564     0.70993799999999996
  4097   1      28.527502999999999               10.987662      2.0662850000000001
  4098   8      4.7009930000000004               14.916046      33.475963999999998
  4099   1      5.5949359999999997      15.217890000000001      33.298538999999998
  4100   1      4.1455669999999998      15.487254999999999      32.939435000000003
  4101   8      3.9841199999999999      25.230312000000001      33.834921999999999
  4102   1      3.2053090000000002      24.784694999999999      34.176394000000002
  4103   1      3.6730040000000002      25.684646000000001      33.047884000000003
  4104   8      20.715510999999999      37.315223000000003      24.988209999999999
  4105   1               20.835576      36.392446999999997               25.224415
  4106   1      20.152743999999998      37.667718999999998               25.682243
  4107   8      6.8951440000000002               36.930211      7.0902070000000004
  4108   1                7.445208      36.872590000000002      7.8749580000000003
  4109   1                6.762664      37.872700999999999      6.9605750000000004
  4110   8      35.855043999999999      33.368380000000002     0.80286500000000005
  4111   1      35.161996000000002      32.775021000000002      1.1017520000000001
  4112   1      35.495176999999998               33.775506    0.010788000000000001
  4113   8      5.8986130000000001                2.952623      11.945538000000001
  4114   1      5.1022550000000004      2.6529470000000002                12.39021
  4115   1      6.6160430000000003      2.6061139999999998      12.482070999999999
  4116   8      39.606400000000001                5.621575      19.386956000000001
  4117   1      39.551569999999998      4.6683659999999998                 19.2864
  4118   1      40.543083000000003      5.8167710000000001      19.302302000000001
  4119   8      4.5267049999999998      32.517068999999999      22.013082000000001
  4120   1      4.3080129999999999      33.401446999999997               22.316025
  4121   1      5.2105309999999996               32.653616      21.352492999999999
  4122   8      27.744212000000001      27.616226999999999               14.031915
  4123   1      27.730118000000001               28.276574                13.33516
  4124   1      27.645630000000001      28.122479999999999      14.842244000000001
  4125   8      11.793400999999999      33.127954000000003               14.586592
  4126   1                12.17679      32.880839999999999                 13.7418
  4127   1               11.004076      33.623607999999997      14.354354000000001
  4128   8      37.249738000000001      15.238372999999999      19.612608000000002
  4129   1      37.882976999999997               15.951235      19.500533000000001
  4130   1      36.715190999999997               15.510076               20.362994
  4131   8               15.451504      17.299143999999998      4.3918809999999997
  4132   1               14.539622      17.017389999999999      4.2878999999999996
  4133   1               15.453818      18.213124000000001      4.0964539999999996
  4134   8      2.8025820000000001      15.761381999999999                20.45083
  4135   1      2.5419589999999999      15.920534999999999               19.540626
  4136   1      3.0754739999999998      14.840502000000001      20.463163999999999
  4137   8      8.6668310000000002      30.826592000000002      35.430475999999999
  4138   1      8.3285129999999992      30.128547999999999      34.864789999999999
  4139   1      8.9129009999999997      30.376944000000002      36.242823000000001
  4140   8               25.565956               19.792997      21.838042999999999
  4141   1      26.407592000000001               20.251631      21.893070999999999
  4142   1      25.081102000000001      20.265402000000002      21.156579000000001
  4143   8      20.223693000000001      14.208403000000001      25.725691999999999
  4144   1      20.462340000000001               14.809903      25.016487999999999
  4145   1      19.542335999999999               14.675758      26.215564000000001
  4146   8      21.199839000000001      5.5187879999999998      9.7204350000000002
  4147   1      21.601673999999999      4.9721409999999997      9.0411479999999997
  4148   1      20.261555000000001      5.5024790000000001      9.5154979999999991
  4149   8               16.274296      19.918171000000001      10.940253999999999
  4150   1               15.500702               20.485522               10.902963
  4151   1               16.966984      20.482386000000002                11.29308
  4152   8               34.194868               30.983514      28.078662000000001
  4153   1      34.052435000000003      31.895309999999998      28.343361000000002
  4154   1      34.889847000000003      31.032979000000001               27.417451
  4155   8      9.4343459999999997      21.225912999999998               12.628643
  4156   1      8.5354159999999997               20.906032      12.522227000000001
  4157   1      9.6701329999999999               21.567131      11.762261000000001
  4158   8                3.975657      8.3365050000000007      19.365898999999999
  4159   1      4.6111769999999996      9.0191970000000001      19.138369000000001
  4160   1      3.5487090000000001      8.6638540000000006      20.161636999999999
  4161   8      6.9746240000000004      28.944054999999999      37.811469000000002
  4162   1      7.0876109999999999      27.991737000000001      37.766196000000001
  4163   1      7.7764559999999996               29.259373      38.236063999999999
  4164   8      27.623598000000001      3.7383190000000002      28.716934999999999
  4165   1      27.508279999999999      4.3283449999999997      29.465464000000001
  4166   1      27.570519000000001      2.8577780000000002                29.09703
  4167   8                11.59592      8.3009430000000002      40.051330999999998
  4168   1               11.171738      7.6263009999999998      39.515931999999999
  4169   1      11.372287999999999      9.1270070000000008      39.615155000000001
  4170   8      33.373384000000001      20.511901999999999      3.8997120000000001
  4171   1      32.583272999999998               20.899701      4.2831970000000004
  4172   1               33.709114      21.190360999999999                3.308424
  4173   8      22.424403999999999      16.085761999999999      8.5013760000000005
  4174   1      23.074086999999999               15.840239      9.1642150000000004
  4175   1               22.382372               15.325621      7.9156620000000002
  4176   8      4.3121520000000002      30.260169000000001      21.465935000000002
  4177   1      4.2448430000000004      29.303243999999999      21.427365000000002
  4178   1      5.2241869999999997               30.425062               21.718214
  4179   8      16.674776000000001      10.307506999999999      3.1116030000000001
  4180   1      15.746333999999999      10.477726000000001      3.2869470000000001
  4181   1                17.04102               10.076998                3.969141
  4182   8      39.068379999999998      12.977664000000001      20.336545999999998
  4183   1      39.100408999999999      12.092719000000001      20.707453999999998
  4184   1      38.142798999999997               13.227577      20.395579000000001
  4185   8      36.952671000000002      22.933721999999999               37.834097
  4186   1               37.745016      22.398430999999999      37.748201000000002
  4187   1      36.865687999999999      23.080932000000001      38.779297999999997
  4188   8      18.271291999999999      28.581043000000001               20.192698
  4189   1      18.092016000000001      29.494001000000001               19.955862
  4190   1               17.697761               28.068448      19.617415000000001
  4191   8               21.996807      5.0365520000000004               15.215166
  4192   1      22.176985999999999                4.189578               15.629769
  4193   1               21.203336      4.8837999999999999               14.695827
  4194   8      17.763742000000001      8.2795249999999996      20.387059000000001
  4195   1      18.113050999999999      7.8121559999999999      19.624645000000001
  4196   1      18.335778999999999      9.0455640000000006      20.479794999999999
  4197   8      38.740048999999999                35.34599                7.406377
  4198   1      38.092154000000001      34.637889000000001      7.3829650000000004
  4199   1      39.566862999999998      34.905718999999998      7.6189400000000003
  4200   8      4.6154409999999997      35.647742000000001               14.598582
  4201   1      5.3206870000000004      36.084220000000002      14.115011000000001
  4202   1      4.5248150000000003      36.162536000000003      15.404445000000001
  4203   8      15.027642999999999      38.814450000000001               12.610339
  4204   1      14.455246000000001      38.285997000000002               13.171431
  4205   1      14.590268999999999      38.813355999999999      11.755152000000001
  4206   8               33.843266               29.011094               35.954304
  4207   1               34.135973      28.434867000000001      35.244366999999997
  4208   1      34.616677000000003      29.110092000000002      36.515264000000002
  4209   8      8.8974390000000003      6.2738300000000002      4.0984090000000002
  4210   1      8.0263939999999998      5.9552040000000002      4.3463649999999996
  4211   1      8.7315280000000008      6.8814890000000002                3.373243
  4212   8                14.29472      25.000920000000001               14.988979
  4213   1      14.912546000000001      25.555537000000001               15.471074
  4214   1      14.683047999999999      24.123166999999999      15.026293000000001
  4215   8      27.666695000000001     0.71386000000000005               20.318921
  4216   1      28.244018000000001     0.96913099999999996      21.042287000000002
  4217   1               27.188008                1.517577               20.100887
  4218   8      7.1193580000000001               15.001858      39.791572000000002
  4219   1      6.3976749999999996               15.570255      39.512604000000003
  4220   1                7.120158               15.070378               40.749668
  4221   8      31.723399000000001      19.001225999999999      21.026911999999999
  4222   1      31.992747000000001      19.779492999999999      21.520344000000001
  4223   1      31.600881000000001      19.318944999999999      20.128755000000002
  4224   8      3.8600400000000001      40.675654999999999      40.889270000000003
  4225   1      4.0770379999999999      41.471936999999997      41.379750999999999
  4226   1      4.1526360000000002      40.860379999999999      39.993220000000001
  4227   8      1.6377200000000001      11.110443999999999      31.737158000000001
  4228   1      2.5377390000000002               11.441729      31.693089000000001
  4229   1                 1.51335      10.880297000000001      32.661391000000002
  4230   8      20.249130999999998      27.914383999999998               13.193455
  4231   1                19.41037               27.490461      13.389652999999999
  4232   1               20.009722      28.691227000000001      12.681751999999999
  4233   8      32.094602000000002      5.5356449999999997               10.891468
  4234   1      31.689427999999999      5.9100549999999998      10.105734999999999
  4235   1      31.903531000000001      6.1724209999999999      11.584758000000001
  4236   8               12.882538      40.422764999999998               15.654852
  4237   1      12.547160999999999      41.291438999999997               15.888631
  4238   1               13.702546      40.601567000000003               15.187671
  4239   8      27.668527999999998               23.833765      21.555873999999999
  4240   1               27.190683      24.112825999999998      22.340420999999999
  4241   1               28.585061               24.049747               21.745511
  4242   8      27.860375999999999               14.588445               13.357421
  4243   1      28.328368000000001               14.934186               12.593764
  4244   1      27.813368000000001               15.331213               13.964651
  4245   8      20.694137999999999      23.732220000000002      4.5178880000000001
  4246   1      19.871783000000001      24.181775999999999      4.3096670000000001
  4247   1      21.294737999999999      24.438292000000001      4.7696490000000002
  4248   8      2.5382769999999999      25.502790000000001      10.874352999999999
  4249   1      3.2521239999999998      25.161024000000001      10.330897999999999
  4250   1      1.7447379999999999      25.114235000000001               10.497574
  4251   8      32.854902000000003      5.1624109999999996               26.196106
  4252   1      32.231876999999997      5.5037010000000004      25.550284000000001
  4253   1      33.616852999999999      4.8966960000000004      25.675077999999999
  4254   8               12.649701      30.748242999999999      31.643156000000001
  4255   1      12.982343999999999               29.904491      31.958044999999998
  4256   1               13.435248      31.291876999999999      31.543047999999999
  4257   8               15.407871      31.853093000000001      8.2858769999999993
  4258   1      15.009945999999999               31.130488      8.7770209999999995
  4259   1               15.764543      32.433641000000001      8.9629220000000007
  4260   8      9.7173850000000002      4.2518390000000004                2.018805
  4261   1      9.7292109999999994      4.6040469999999996      2.9118529999999998
  4262   1               10.407157      4.7391069999999997                1.561175
  4263   8      28.210070999999999      4.6327850000000002      7.7823960000000003
  4264   1                28.97634                4.379988      8.3026359999999997
  4265   1               27.901083                3.808913      7.3971640000000001
  4266   8      33.510002999999998               20.029252      19.892053000000001
  4267   1      34.033923999999999      20.032782999999998      20.696552000000001
  4268   1      34.063670999999999               19.579279               19.248922
  4269   8      7.4279260000000003      31.436775000000001      2.8801489999999998
  4270   1      7.7741939999999996      32.291567000000001      3.1468950000000002
  4271   1      7.1101619999999999      31.577159000000002      1.9846269999999999
  4272   8               41.935772      34.632071000000003               12.955859
  4273   1      41.043692999999998      34.723368000000001               13.298764
  4274   1               41.922255      33.801011000000003      12.474403000000001
  4275   8      10.614343999999999               27.373307      16.244116000000002
  4276   1      10.890788000000001      27.650099000000001      17.120865999999999
  4277   1               10.670849      28.171752000000001               15.713141
  4278   8               12.378511      5.9267690000000002               40.444924
  4279   1               13.078293      5.2983570000000002      40.637616000000001
  4280   1      11.976993999999999      6.1057899999999998      41.298960000000001
  4281   8      25.181388999999999      39.360782999999998      2.2772220000000001
  4282   1      25.805344000000002      39.592554999999997                1.585351
  4283   1      25.256046999999999      38.406365000000001                2.355683
  4284   8      28.124410000000001      34.806241999999997      1.3407070000000001
  4285   1               28.861601      34.510907000000003     0.80121600000000004
  4286   1      27.587592999999998               35.332926     0.74314999999999998
  4287   8      35.854359000000002      40.096032000000001      4.1024149999999997
  4288   1      35.732740999999997      40.998891999999998      4.4053659999999999
  4289   1               36.435876      40.175950999999998      3.3420899999999998
  4290   8      22.799589000000001      23.214956000000001               20.104004
  4291   1               22.834025      24.172629000000001      20.162323000000001
  4292   1      23.315467000000002      22.911625999999998      20.855339000000001
  4293   8               16.525081               13.682496      34.617834999999999
  4294   1      16.204629000000001      13.870195000000001      33.732506999999998
  4295   1      16.472460999999999               12.726324      34.692720999999999
  4296   8      2.9778769999999999               12.497076      34.422932000000003
  4297   1      3.5988609999999999      13.211444999999999      34.262366999999998
  4298   1      2.4911020000000001               12.775098      35.202928999999997
  4299   8      19.042300999999998      36.930506000000001      5.7941690000000001
  4300   1      18.440643999999999      36.415115999999998      6.3364849999999997
  4301   1               18.477774      37.336198000000003      5.1313230000000001
  4302   8      4.7277639999999996      33.455938000000003      18.559401000000001
  4303   1      5.3921479999999997      33.600816999999999      19.237138999999999
  4304   1      4.5680500000000004      32.509005000000002               18.580638
  4305   8      8.7486949999999997      15.561465999999999      1.1175790000000001
  4306   1      8.7841260000000005      16.385514000000001     0.62623899999999999
  4307   1      8.9041289999999993               14.882574     0.45607599999999998
  4308   8      25.797250999999999      22.336314000000002      13.181865999999999
  4309   1      25.689360000000001      21.387153999999999      13.086055999999999
  4310   1      26.454872999999999               22.432734                13.87532
  4311   8               26.507911      20.429542000000001      3.9855689999999999
  4312   1      25.563390999999999               20.272171                3.915994
  4313   1      26.909019000000001      19.612981000000001      3.6773769999999999
  4314   8                5.464772      9.7258340000000008               13.148923
  4315   1                4.963851               10.531613      13.002216000000001
  4316   1                4.888204      9.1821459999999995               13.691708
  4317   8      5.2206089999999996      8.3293119999999998      8.4859899999999993
  4318   1      5.4695270000000002      9.2407660000000007                8.315645
  4319   1      5.9713640000000003      7.8155210000000004      8.1777239999999995
  4320   8      5.4800269999999998               12.148875      24.841660000000001
  4321   1      5.5880380000000001               12.906554               25.421298
  4322   1      4.8149639999999998      11.609049000000001      25.276309999999999
  4323   8      9.6740940000000002               32.148989      33.697763999999999
  4324   1               10.228852      31.401198999999998      33.931812000000001
  4325   1      9.5369259999999993               32.057178      32.751508999999999
  4326   8               10.866612      11.616993000000001      39.339872999999997
  4327   1               10.389692               10.943792      38.848882000000003
  4328   1               10.763945      11.359089000000001      40.259430999999999
  4329   8      25.568812999999999               18.326957     0.47969000000000001
  4330   1               25.282114      19.242242999999998     0.52187799999999995
  4331   1               25.009608      17.872426000000001                1.114776
  4332   8      10.556029000000001      30.699363999999999      12.294187000000001
  4333   1      9.7134599999999995               31.138351      12.156014000000001
  4334   1               10.319331      29.817118000000001               12.591269
  4335   8      39.922744999999999      16.893208999999999      19.415735000000002
  4336   1      40.605680999999997      17.553858999999999      19.553087000000001
  4337   1      40.025106999999998      16.631889000000001      18.497108000000001
  4338   8               15.157643               15.072041      35.600358999999997
  4339   1               15.365617               14.296884                36.12724
  4340   1      16.013387999999999      15.455495000000001      35.392257000000001
  4341   8                1.451646      41.314798000000003                18.40381
  4342   1     0.83576799999999996      40.676763000000001      18.035937000000001
  4343   1      1.9126939999999999                40.83081      19.093616000000001
  4344   8               17.051703      4.8507259999999999      7.9195440000000001
  4345   1               16.167569      4.9291010000000002      8.2854539999999997
  4346   1      17.584955000000001      4.5297859999999996                8.651173
  4347   8      39.629058000000001      18.785254999999999      39.831251000000002
  4348   1                39.85013      19.411100999999999      39.137587000000003
  4349   1      39.243411000000002      19.325369999999999      40.525652999999998
  4350   8      9.8201000000000001      19.288817999999999      6.7833690000000004
  4351   1      9.9087069999999997      20.138186000000001      7.2220570000000004
  4352   1      10.378069999999999               19.363101      6.0050420000000004
  4353   8      30.450566999999999      26.212599999999998      9.1669180000000008
  4354   1      29.806933000000001      26.924655999999999      9.1878139999999995
  4355   1      30.094889999999999      25.588332999999999      8.5294019999999993
  4356   8      37.250360999999998      24.841449999999998      6.1751750000000003
  4357   1      38.083195000000003      25.196591000000002      5.8558209999999997
  4358   1      37.466551000000003      23.952148000000001      6.4668000000000001
  4359   8               23.031088      36.052866999999999      8.1318900000000003
  4360   1      22.380341999999999      35.569318000000003      7.6176570000000003
  4361   1      22.513173999999999      36.523679999999999      8.7897210000000001
  4362   8      28.626262000000001      25.536522999999999               37.530535
  4363   1               29.412004      25.530674999999999      36.978900000000003
  4364   1      28.782430999999999      26.244672000000001      38.160437999999999
  4365   8      28.010777000000001      39.295262999999998      28.532322000000001
  4366   1      27.733208999999999      39.651294999999998               27.685019
  4367   1      27.319088000000001      39.564272000000003      29.142109999999999
  4368   8      13.332293999999999      36.220619999999997      2.1786020000000001
  4369   1               12.473234      36.518087999999999      2.4872320000000001
  4370   1               13.141297      35.430585000000001      1.6667350000000001
  4371   8      7.8017320000000003                22.98442               15.382301
  4372   1      8.1557359999999992      23.774177000000002                15.79786
  4373   1      8.3799639999999993      22.830787999999998      14.630845000000001
  4374   8               18.910207                13.71781               11.792299
  4375   1      18.503675000000001      12.905685999999999      12.103604000000001
  4376   1      18.272380999999999      14.081576999999999      11.173030000000001
  4377   8      16.488956000000002      23.729375999999998                4.528435
  4378   1      16.495802000000001      22.778790999999998      4.6628420000000004
  4379   1      17.332353999999999      24.025925000000001      4.8796889999999999
  4380   8      27.637007000000001      21.085650000000001      16.627116000000001
  4381   1      27.503513000000002      21.467531000000001      17.497789000000001
  4382   1               28.438074      20.563155999999999      16.716194999999999
  4383   8      37.190052999999999      36.376869999999997      36.541370999999998
  4384   1      36.941673999999999      36.290329999999997      35.618037999999999
  4385   1      37.981645999999998      36.920715000000001      36.525373999999999
  4386   8               36.612482                12.27285      15.791257999999999
  4387   1      36.594741999999997      13.225365999999999      15.672415000000001
  4388   1      36.155774000000001               12.127893      16.623753000000001
  4389   8      25.417940000000002      40.610863000000002      31.030927999999999
  4390   1      25.588570000000001      39.815941000000002      30.520330000000001
  4391   1      25.921171999999999      40.487340000000003      31.839718000000001
  4392   8      5.3625160000000003               27.287879      1.7122550000000001
  4393   1                5.767633               28.055097      1.3011809999999999
  4394   1      5.8453819999999999      26.540590000000002                1.350257
  4395   8               14.070921      2.6975340000000001                      42
  4396   1      13.881470999999999                1.875759      41.541173999999998
  4397   1               13.888342      3.3809749999999998      41.350219000000003
  4398   8               25.615859               14.675367      11.215846000000001
  4399   1      26.044419000000001               13.886609      11.556317999999999
  4400   1               26.333364               15.301767               11.091535
  4401   8               32.754655               16.085939               16.734579
  4402   1      33.598515999999996               16.514142               16.572512
  4403   1               32.927453      15.487603999999999      17.465865000000001
  4404   8               30.766776      35.731597999999998               23.632558
  4405   1      30.617256999999999      36.655785999999999      23.419848000000002
  4406   1      30.096226999999999               35.526519               24.289026
  4407   8      6.6602690000000004      20.476393000000002      26.735195999999998
  4408   1      5.7812010000000003      20.100169000000001               26.649061
  4409   1      6.8325440000000004               20.878124      25.879874000000001
  4410   8      40.194235999999997                1.852948      37.890828999999997
  4411   1               39.914451     0.96848800000000002      37.643492000000002
  4412   1      40.927638999999999      1.7109049999999999      38.494638000000002
  4413   8               12.409608                3.138595      2.5977299999999999
  4414   1      11.455754000000001      3.0296780000000001                2.592797
  4415   1               12.610911                3.516286                1.737806
  4416   8      16.185576000000001      38.889512000000003      6.4122599999999998
  4417   1      16.082104000000001      37.943058000000001      6.5357240000000001
  4418   1      15.660246000000001      39.087119000000001      5.6327590000000001
  4419   8               11.944832      2.2003490000000001      21.062982999999999
  4420   1               11.789831      1.9638180000000001      21.980454000000002
  4421   1      11.956058000000001                1.359583      20.598624000000001
  4422   8      25.471962999999999      35.689107999999997               17.072958
  4423   1      25.105626999999998      36.433162000000003               16.589319
  4424   1                24.86917      35.563918999999999               17.810257
  4425   8      40.118729999999999      2.9138060000000001      10.375306999999999
  4426   1      40.059862000000003      3.7445819999999999      10.852874999999999
  4427   1      39.284500000000001                2.474126               10.558021
  4428   8      27.068480999999998               28.420503      2.2353890000000001
  4429   1      26.730561000000002      29.238199000000002      2.6080920000000001
  4430   1      27.188407000000002      28.615331999999999                1.302489
  4431   8      29.205414999999999      33.880808999999999               31.406053
  4432   1      28.588162000000001               34.397672               30.883008
  4433   1      28.764963000000002      33.768189999999997      32.252197000000002
  4434   8      35.787548999999999      16.680738000000002      34.888789000000003
  4435   1      35.247397999999997      17.114671000000001      34.224210999999997
  4436   1      35.316479999999999               15.866887      35.084702999999998
  4437   8                9.622916               32.079411      7.0444979999999999
  4438   1               10.256485      31.923342999999999      7.7487409999999999
  4439   1      9.9020869999999999      32.910713000000001      6.6525249999999998
  4440   8               15.960255               29.303248      21.470998000000002
  4441   1               16.412633               28.463151      21.364623000000002
  4442   1      16.444928999999998      29.748094999999999               22.170887
  4443   8      21.883638000000001               13.774239      34.805686999999999
  4444   1      21.973773000000001                14.18181      33.941113999999999
  4445   1      21.036504999999998      14.089446000000001      35.130727999999998
  4446   8               38.236103      39.330947000000002                9.799925
  4447   1      38.312927000000002               38.590944               10.406734
  4448   1      39.124270000000003      39.448431999999997      9.4535169999999997
  4449   8                 3.56236      20.781410999999999      8.9573160000000005
  4450   1      2.6957070000000001               20.451832      8.7082870000000003
  4451   1      3.8409900000000001               20.203274      9.6719939999999998
  4452   8      19.135165000000001      27.425163000000001      32.327080000000002
  4453   1      19.795487000000001      28.069845999999998      32.591811999999997
  4454   1      19.306585999999999      26.664287999999999      32.887726999999998
  4455   8      3.5522320000000001               36.495424      37.634331000000003
  4456   1      2.5957029999999999      36.415576999999999      37.614302000000002
  4457   1      3.7839749999999999      36.354942999999999      38.555852999999999
  4458   8      35.209406000000001                12.69059               14.038224
  4459   1      35.095717999999998               11.751396      13.874777999999999
  4460   1      35.312300999999998               13.074076      13.163584999999999
  4461   8      16.137450000000001      19.178605999999998     0.63696900000000001
  4462   1               16.141499      18.229499000000001     0.78154999999999997
  4463   1      15.432461999999999      19.319752999999999                 1.5e-05
  4464   8      16.554237000000001      9.0286310000000007               22.813793
  4465   1               15.758953      8.6719969999999993      23.216360999999999
  4466   1      16.915901000000002      9.6172760000000004      23.481128999999999
  4467   8               21.570287      18.235154999999999      38.149410000000003
  4468   1               21.867946               19.108452      37.883935999999999
  4469   1      20.973192999999998      18.399736999999998      38.883598999999997
  4470   8      9.0245820000000005      19.435749999999999      33.281849000000001
  4471   1      9.5044439999999994               20.265138               33.222057
  4472   1      8.9530770000000004               19.135548      32.372228999999997
  4473   8      13.540419999999999      9.8828460000000007      2.6144259999999999
  4474   1               13.592267      8.9569620000000008                2.862975
  4475   1      12.601532000000001                10.08414      2.6391499999999999
  4476   8      21.718188999999999      24.733893999999999      12.581708000000001
  4477   1      22.273517999999999               25.280991               13.142082
  4478   1      20.974616000000001               25.299332      12.358052000000001
  4479   8      11.267008000000001      19.034127999999999      25.448730000000001
  4480   1               10.666466               18.982675               26.196009
  4481   1               10.996038      19.827096999999998               24.979243
  4482   8      20.745083000000001      9.0750740000000008      7.3246289999999998
  4483   1               20.650292      8.1198979999999992      7.3440849999999998
  4484   1                20.67848      9.3400920000000003      8.2454830000000001
  4485   8      5.9645320000000002                10.88607      39.591568000000002
  4486   1                6.827458               10.573193      39.310158999999999
  4487   1      5.3609070000000001               10.184789      39.333725999999999
  4488   8      6.3054220000000001      40.241847999999997      37.046413000000001
  4489   1      6.0663549999999997                41.14631      37.262101000000001
  4490   1      5.5992839999999999      39.939663000000003      36.469614999999997
  4491   8      2.8801950000000001      17.974291999999998               41.125197
  4492   1      2.6595629999999999               18.590266      40.422614000000003
  4493   1      2.0539619999999998      17.522365000000001      41.314253000000001
  4494   8      36.193860000000001      33.073278000000002      38.557529000000002
  4495   1      36.039287999999999      33.643341999999997      39.314405000000001
  4496   1      35.702747000000002      33.486998999999997               37.843187
  4497   8      1.7149650000000001               13.889497      26.283360999999999
  4498   1                1.264046               14.735647               26.332632
  4499   1                2.549814                14.03758               26.734738
  4500   8      26.893719999999998      9.6652310000000003               11.197009
  4501   1      27.693930000000002      9.7421030000000002               11.721871
  4502   1               26.739808      10.553494000000001      10.865436000000001
  4503   8      29.623176000000001               13.382536               17.877481
  4504   1               30.303241               13.197832      17.225467999999999
  4505   1      30.036549000000001               13.173472      18.718941999999998
  4506   8               10.850367      19.708749000000001      22.666785999999998
  4507   1      11.580234000000001               19.302287      23.139869999999998
  4508   1               10.968356      20.651115000000001               22.810547
  4509   8      7.6549750000000003               15.167517      24.858194999999998
  4510   1      7.9814939999999996               14.310827      24.573250000000002
  4511   1      8.4217469999999999      15.598653000000001      25.243970999999998
  4512   8      21.518177000000001      38.542617999999997      16.409766000000001
  4513   1               22.341794      38.100475000000003      16.190929000000001
  4514   1      21.731359000000001      39.076631999999996      17.179196999999998
  4515   8      12.897702000000001               26.742151      16.898226999999999
  4516   1               13.828524      26.720230000000001      17.132353999999999
  4517   1               12.858442      26.318701999999998      16.036954000000001
  4518   8      19.473925999999999                2.864093      17.710256000000001
  4519   1               19.414137                1.959457      18.026143000000001
  4520   1      19.841228000000001      3.3517929999999998      18.451795000000001
  4521   8      13.942678000000001      27.766442000000001                 1.07795
  4522   1               13.625821      27.154817000000001                1.746712
  4523   1      13.147900999999999      28.196684999999999     0.75258499999999995
  4524   8      27.591305999999999      17.912427999999998      35.793908000000002
  4525   1               28.523857               17.725116      35.924249000000003
  4526   1      27.447171999999998      17.764185999999999      34.855882000000001
  4527   8      5.4003740000000002               17.619367                2.196132
  4528   1      4.7090170000000002      17.021685999999999      1.9019729999999999
  4529   1      5.8941929999999996                17.11176      2.8450690000000001
  4530   8               18.812859      40.873873000000003      2.0504509999999998
  4531   1      19.680945999999999      40.511977000000002      1.8576269999999999
  4532   1      18.200873999999999      40.254601999999998      1.6447149999999999
  4533   8      37.832861000000001               36.189864      31.071356000000002
  4534   1      38.470066000000003                35.48039      30.960270000000001
  4535   1      38.035848000000001      36.559705999999998      31.934291000000002
  4536   8               30.418502      20.284669000000001      37.604270999999997
  4537   1               30.419476               21.022741      38.218252999999997
  4538   1      31.084665000000001      19.685556999999999      37.950583000000002
  4539   8      23.050764000000001      5.4159009999999999      7.1897359999999999
  4540   1      22.370996000000002      6.0568989999999996      6.9689120000000004
  4541   1               23.589046      5.3563299999999998      6.3964220000000003
  4542   8               13.890276      41.321604999999998      28.257715000000001
  4543   1      13.222282999999999      41.655773000000003               27.654522
  4544   1               13.741937      40.372759000000002      28.275825999999999
  4545   8               38.588172      1.2923739999999999      40.981177000000002
  4546   1      38.743960999999999                2.209476      41.218622000000003
  4547   1      39.312277000000002                1.072981      40.389417000000002
  4548   8      31.177144999999999                1.929551      14.254867000000001
  4549   1               31.895215      1.2974650000000001               14.173824
  4550   1      31.552904000000002                2.653537      14.762105999999999
  4551   8                10.16703      36.658985000000001      8.7556349999999998
  4552   1      9.6329580000000004      36.656092999999998      7.9578360000000004
  4553   1      10.214359999999999      37.584704000000002      9.0075210000000006
  4554   8      4.1450820000000004      29.126809999999999               38.189183
  4555   1      4.3105890000000002      29.429936000000001      37.293388999999998
  4556   1      4.2637919999999996      29.910447000000001      38.731827000000003
  4557   8      11.561374000000001               27.545665      29.936392000000001
  4558   1      10.801818000000001      28.019718999999998               29.589876
  4559   1               11.184994               26.903603      30.543628999999999
  4560   8      41.217275000000001      7.9661229999999996      22.559221999999998
  4561   1               41.541013      8.8068799999999996                22.22749
  4562   1      40.271076999999998      7.9938650000000004      22.396177999999999
  4563   8      24.122558000000001      30.089175000000001      4.4409289999999997
  4564   1      25.050885000000001               30.318244      4.5273019999999997
  4565   1      23.727952999999999      30.377217000000002      5.2679479999999996
  4566   8      31.337593999999999      30.815957000000001      33.574083999999999
  4567   1      30.686889000000001      30.110641000000001      33.603028999999999
  4568   1      31.802963999999999      30.677157999999999               32.745345
  4569   8               13.045283               24.613871               38.983981
  4570   1      13.987895999999999      24.483543000000001      38.856622999999999
  4571   1      12.644964999999999      24.251014000000001      38.189801000000003
  4572   8      14.689864999999999      9.1884069999999998      19.982946999999999
  4573   1               14.136512      9.9237769999999994      19.709530000000001
  4574   1               14.204971      8.7806960000000007      20.704951999999999
  4575   8               21.329058      23.347508999999999      41.236272999999997
  4576   1      21.902228000000001      23.239391000000001               40.473703
  4577   1      21.932953000000001                23.42989               41.978679
  4578   8      32.429923000000002               18.714952  4.3000000000000002e-05
  4579   1      33.256552999999997               18.267595     0.19569400000000001
  4580   1      32.332926999999998      19.356984000000001     0.70787699999999998
  4581   8      37.070216000000002               20.873894      27.017665999999998
  4582   1               36.217146               20.522219      27.282845999999999
  4583   1      37.178457000000002      20.578016000000002      26.110261999999999
  4584   8      28.753129000000001      8.4554840000000002      16.135916999999999
  4585   1      29.275130999999998      8.6993229999999997      16.903888999999999
  4586   1      27.974305000000001      8.0292750000000002               16.502551
  4587   8      19.808129000000001      30.512329999999999      7.8574130000000002
  4588   1      19.197786000000001      31.219951999999999      8.0775889999999997
  4589   1      20.257031999999999      30.318760000000001      8.6842500000000005
  4590   8      36.657846999999997      17.464027999999999                7.641133
  4591   1               37.406931      18.061682000000001                7.699516
  4592   1      35.895088000000001      18.043766999999999      7.5722560000000003
  4593   8      26.942665000000002      38.258321000000002      5.9792579999999997
  4594   1               26.336897      37.540683000000001      5.7798420000000004
  4595   1      27.550128000000001      37.885582999999997      6.6232290000000003
  4596   8               29.990444      13.634847000000001      3.7796270000000001
  4597   1      29.491748000000001      12.830050999999999      3.6204670000000001
  4598   1               29.930363               14.120023                2.952804
  4599   8      31.819617999999998      4.8140869999999998               21.200298
  4600   1      32.645806999999998      4.3258850000000004      21.172118000000001
  4601   1      32.071548999999997      5.6921780000000002      21.497164000000001
  4602   8               29.567874      13.025949000000001      6.8469470000000001
  4603   1      29.458328999999999               13.422362                7.714461
  4604   1      30.220282000000001               13.580733      6.4119510000000002
  4605   8      32.018023999999997      17.262619999999998      37.958849999999998
  4606   1               32.658099      17.841076000000001                38.38006
  4607   1      32.518914000000002      16.810376999999999      37.275309999999998
  4608   8      34.740001999999997                9.711074               20.438043
  4609   1      35.047229999999999               10.417462      21.011064000000001
  4610   1      34.181851000000002               10.152911               19.793149
  4611   8      40.231399000000003               12.241641      9.3840690000000002
  4612   1      40.520724999999999      11.513083999999999                8.829796
  4613   1      40.719672000000003               13.000384      9.0546129999999998
  4614   8      41.271571000000002      22.180102000000002      5.8897700000000004
  4615   1      40.502104000000003               22.012117      6.4387930000000004
  4616   1      41.089626000000003      23.028307999999999      5.4773569999999996
  4617   8      19.592580999999999      29.279517999999999      1.2643990000000001
  4618   1      19.866700000000002               30.045472     0.75459600000000004
  4619   1               19.283818      29.645409000000001      2.0971250000000001
  4620   8                14.90981      33.647207999999999      6.8200750000000001
  4621   1                14.07236               33.400627      6.4205769999999998
  4622   1               15.545451      33.037424000000001      6.4369759999999996
  4623   8      18.963647000000002      4.4530430000000001      33.529175000000002
  4624   1      18.110870999999999      4.2306749999999997      33.910030999999996
  4625   1      19.091045000000001      3.8028149999999998      32.833750000000002
  4626   8               16.313139      3.4861819999999999      1.0050380000000001
  4627   1      16.754525999999998      4.2735570000000003      1.3320590000000001
  4628   1      16.959976999999999      3.0725920000000002                0.427815
  4629   8      20.318408000000002                2.392531      35.422035999999999
  4630   1      20.905774000000001      3.0503659999999999      35.042591000000002
  4631   1      20.274782999999999      2.6210599999999999      36.353976000000003
  4632   8      22.210315000000001               39.755212      37.276662000000002
  4633   1      23.117311000000001      39.541048000000004      37.045972999999996
  4634   1      22.289905000000001      40.432716999999997      37.952897999999998
  4635   8      26.215623000000001               36.237586      21.365984999999998
  4636   1      26.454174999999999      35.317981000000003      21.504352000000001
  4637   1               26.700827      36.714405999999997      22.044115999999999
  4638   8      30.881845999999999               38.022351      27.993390999999999
  4639   1      30.347726000000002      37.242204000000001      28.160160000000001
  4640   1      31.386680999999999               38.142913      28.801628999999998
  4641   8      36.394629999999999                3.609556      21.691735000000001
  4642   1               35.673147      3.6455259999999998      21.059363999999999
  4643   1      35.965831000000001      3.6897380000000002      22.547505999999998
  4644   8      38.508768000000003               24.875771     0.90486900000000003
  4645   1      38.471141000000003      25.412510999999999                0.109746
  4646   1               39.446925                24.72795      1.0485789999999999
  4647   8      27.701502000000001      23.345272999999999      28.788101999999999
  4648   1               26.936753      23.050668000000002      29.288194000000001
  4649   1               27.328896      23.795421000000001               28.025755
  4650   8      13.798140999999999      36.222965000000002      35.965685000000001
  4651   1                13.37114      35.955860999999999      36.783028999999999
  4652   1               13.070819      36.423296999999998      35.371116999999998
  4653   8      8.5519990000000004               30.320992      40.312626999999999
  4654   1      9.2186859999999999      30.194140000000001      39.633536999999997
  4655   1      8.1413499999999992               31.160249      40.089790000000001
  4656   8               21.079348      23.687166999999999      7.6341530000000004
  4657   1      21.943259999999999      23.547978000000001      7.2391750000000004
  4658   1      20.924112999999998               24.630564      7.5417139999999998
  4659   8               13.483691      9.8616279999999996      38.893766999999997
  4660   1      13.786027000000001      8.9556470000000008      38.991320000000002
  4661   1      14.286422999999999      10.365289000000001      38.736956999999997
  4662   8      22.194769000000001      36.855455999999997      38.146814999999997
  4663   1      22.570952999999999      37.433981000000003               37.479343
  4664   1               21.942425      36.065201999999999      37.662599999999998
  4665   8      5.5012910000000002      6.8715339999999996      33.291986999999999
  4666   1      4.6918709999999999      6.6285980000000002      32.836413999999998
  4667   1                5.783544      6.0617960000000002      33.724766000000002
  4668   8                23.52722      2.1048269999999998      16.218412000000001
  4669   1                22.80003      1.6650910000000001               16.665125
  4670   1      24.263701000000001                1.494121      16.303705999999998
  4671   8               15.655675      37.074706999999997      20.323516000000001
  4672   1      16.038654000000001               36.265031      19.977861000000001
  4673   1      16.365815999999999      37.477170000000001      20.829840999999998
  4674   8      38.883857999999996               13.921657               10.539396
  4675   1      38.577745999999998      14.746491000000001               10.923674
  4676   1      38.586185999999998               13.958784      9.6268969999999996
  4677   8      27.186595000000001      38.783149000000002      35.790013999999999
  4678   1      28.133887000000001      38.890116999999996      35.676338000000001
  4679   1      26.841971000000001      39.679622000000002      35.775436999999997
  4680   8      1.8519829999999999      23.771682999999999               12.915158
  4681   1      2.3985029999999998               24.494152               12.597227
  4682   1                 1.59823      24.037351999999998               13.802666
  4683   8      15.199998000000001      4.4468439999999996      26.846057999999999
  4684   1                15.32901      3.4988640000000002      26.926145000000002
  4685   1      15.698259999999999                4.818009      27.578596000000001
  4686   8                16.95889      30.304314000000002      26.198046000000001
  4687   1      16.388791000000001      30.684985999999999      25.525884000000001
  4688   1               17.466469      29.636576999999999                25.72993
  4689   8      28.624116000000001      8.6143160000000005                6.929824
  4690   1      28.987957999999999      9.4777880000000003      7.1390130000000003
  4691   1               29.325733      8.1706459999999996      6.4465729999999999
  4692   8               14.092107               21.875612      3.0961650000000001
  4693   1               14.346722               21.543239      3.9601229999999998
  4694   1               14.924054               21.988889      2.6296080000000002
  4695   8      33.101208999999997               12.678169      3.3199269999999999
  4696   1      32.970643000000003               13.403952      3.9346770000000002
  4697   1      33.260565999999997      11.915552999999999                3.881767
  4698   8                1.314735      36.232787999999999                7.300109
  4699   1     0.89238499999999998      37.009438000000003      6.9257289999999996
  4700   1      1.1708270000000001      35.544406000000002      6.6458449999999996
  4701   8               35.460141      32.881650999999998      22.781863000000001
  4702   1      34.702894999999998      32.407418999999997      22.430568999999998
  4703   1               35.167358      33.195236999999999      23.641272000000001
  4704   8      36.645164999999999      15.430987999999999      16.964493000000001
  4705   1      36.640683000000003      16.384309999999999               16.850994
  4706   1      36.028064000000001               15.273577      17.683554999999998
  4707   8               12.512558      9.8972859999999994      41.723632000000002
  4708   1               12.478076                10.83846      41.537278000000001
  4709   1      13.117157000000001      9.5458409999999994      41.065156999999999
  4710   8      18.573360999999998                8.228154     0.22702700000000001
  4711   1               18.675438      8.4318000000000008      1.1596759999999999
  4712   1      17.707930999999999      8.5776269999999997                       0
  4713   8      30.432873000000001      39.105519000000001      5.9707999999999997
  4714   1      29.900642999999999      39.877575999999998      5.7649239999999997
  4715   1      30.211853999999999      38.899818000000003      6.8826549999999997
  4716   8      4.1284450000000001      4.1879419999999996      40.363984000000002
  4717   1      4.1625880000000004      3.5282429999999998      41.060659000000001
  4718   1      3.9612400000000001      3.6821760000000001               39.564681
  4719   8      5.9082160000000004      29.887066999999998      35.417309000000003
  4720   1      6.1540280000000003      30.541574000000001      34.759341999999997
  4721   1      6.1157440000000003               30.303939      36.257423000000003
  4722   8      31.598154999999998               30.856593               14.654408
  4723   1      31.451394000000001      31.805365999999999      14.650237000000001
  4724   1               32.303922               30.727304               15.293015
  4725   8      6.7250529999999999      2.6059290000000002      34.703283999999996
  4726   1      6.7695069999999999      3.5265300000000002      34.434502999999999
  4727   1      7.6425169999999998      2.3240270000000001      34.741137000000002
  4728   8      37.360095000000001               17.218871      36.361074000000002
  4729   1      37.998793999999997      17.005642999999999      35.676732999999999
  4730   1      37.317900999999999      18.178478999999999               36.357194
  4731   8                1.051132      20.456043000000001               12.301112
  4732   1                1.736791      19.784486999999999      12.325803000000001
  4733   1      1.5133890000000001               21.275921      12.492843000000001
  4734   8      3.7852290000000002      21.294737999999999      37.872858000000001
  4735   1      3.8652769999999999               20.459526      38.339483000000001
  4736   1      4.2006040000000002               21.934673               38.456457
  4737   8      36.134084000000001      18.305251999999999      16.023652999999999
  4738   1      36.990183999999999               17.996596               15.717796
  4739   1                36.31532      18.701135000000001      16.879850000000001
  4740   8      24.946024000000001      26.424593999999999               21.434752
  4741   1      25.782717000000002      25.972245000000001               21.304174
  4742   1      24.282167999999999      25.766725999999998      21.213062000000001
  4743   8               24.555439               27.191506      23.243062999999999
  4744   1               24.904245      27.381157999999999               24.117186
  4745   1               23.674208      26.846571999999998                23.40767
  4746   8      28.214238000000002      10.544181999999999      38.773332000000003
  4747   1      27.295777000000001      10.268003999999999      38.729962999999998
  4748   1      28.334061999999999      11.096503999999999      37.996656999999999
  4749   8     0.67194399999999999               34.807699      23.421817999999998
  4750   1    0.033932999999999998      34.144046000000003               23.694274
  4751   1                0.135241      35.551583999999998      23.136817000000001
  4752   8                22.31429      20.105578000000001      29.906662000000001
  4753   1               23.007455      20.763090999999999      29.812197000000001
  4754   1      21.643999999999998      20.540642999999999               30.439646
  4755   8      34.049340999999998      41.323298000000001               27.891845
  4756   1      34.684837999999999               40.945788      28.504505999999999
  4757   1      34.543390000000002      41.437362999999998      27.076035000000001
  4758   8      28.308938999999999      5.0235500000000002      14.198817999999999
  4759   1      29.207395999999999      4.7953830000000002               14.448699
  4760   1               28.212415      5.9407439999999996               14.467295
  4761   8      38.038586000000002      13.577724999999999      23.404838999999999
  4762   1      38.282302999999999      12.990911000000001               22.685133
  4763   1               37.395581      14.176603999999999      23.016856000000001
  4764   8      1.8243020000000001               36.341898      4.5087950000000001
  4765   1      2.3788279999999999      35.637056000000001      4.1661239999999999
  4766   1      2.3450630000000001      36.733158000000003      5.2147449999999997
  4767   8      21.577801999999998      30.830480999999999      2.4321890000000002
  4768   1      20.778096999999999               31.358331      2.4919509999999998
  4769   1               21.921187      30.815505000000002      3.3291309999999998
  4770   8      33.274661000000002                7.063231               23.869719
  4771   1      33.993395999999997      6.6218110000000001      24.328296000000002
  4772   1      33.030943000000001      7.7883950000000004      24.450565000000001
  4773   8      4.2892849999999996      26.246738000000001               27.778184
  4774   1      4.0711969999999997      26.353318000000002      26.849312000000001
  4775   1      4.1256640000000004               25.317159      27.956375999999999
  4776   8      7.0560039999999997      18.545038000000002      8.1998650000000008
  4777   1      6.2200110000000004               18.894568      7.8825799999999999
  4778   1      7.6242890000000001               18.546377      7.4254680000000004
  4779   8      35.930391999999998               12.679606               22.214091
  4780   1      36.458576000000001               11.879992      22.156095000000001
  4781   1      35.045673999999998      12.399457999999999      21.966232000000002
  4782   8      31.203831000000001      29.820530000000002               11.339371
  4783   1      30.746479000000001      30.174797000000002      12.105562000000001
  4784   1      30.732019999999999      30.189433000000001      10.588406000000001
  4785   8      16.615203999999999      26.398537999999999                  31.012
  4786   1      17.274329999999999      26.409745999999998      31.709962999999998
  4787   1      16.067101000000001               27.167168               31.189294
  4788   8      27.315629999999999               24.213255      12.290190000000001
  4789   1               27.990375      24.797865000000002      11.937094999999999
  4790   1      27.122261000000002      24.570578999999999               13.160575
  4791   8      2.9846339999999998      11.281114000000001      19.523054999999999
  4792   1      3.9026480000000001               11.036101      19.660689000000001
  4793   1      2.6073040000000001      10.535527999999999      19.049382999999999
  4794   8               40.725071      19.367882000000002               30.748711
  4795   1      41.496948000000003               19.832155      30.416474000000001
  4796   1      40.128005000000002               19.329732      29.997247000000002
  4797   8      13.311305000000001                30.35941               12.211897
  4798   1      12.637973000000001      29.936191000000001               12.749703
  4799   1                14.10135      30.336998000000001               12.757761
  4800   8                39.84469      6.8514520000000001      38.619159000000003
  4801   1      40.204996000000001      6.5738909999999997      39.464655999999998
  4802   1               40.180284      6.2048360000000002      37.993135000000002
  4803   8      20.596914999999999               15.657937               17.948577
  4804   1      19.692385999999999               15.531756      17.652550999999999
  4805   1      21.013805000000001      16.151371999999999      17.237684999999999
  4806   8      30.100750000000001      5.1230380000000002      32.182687000000001
  4807   1               29.460455      5.7850339999999996      32.453812999999997
  4808   1      29.586801000000001      4.3163999999999998      32.094180000000001
  4809   8      35.500689999999999               18.603925      13.501322999999999
  4810   1               34.665599               18.974197      13.205947999999999
  4811   1      35.263111000000002      18.041308000000001      14.242713999999999
  4812   8               15.914221               22.378031               13.334735
  4813   1               15.967672      22.099965999999998      12.417376000000001
  4814   1               14.983784               22.574168               13.470601
  4815   8      9.5488579999999992      4.1640220000000001      32.013266999999999
  4816   1               10.030167      4.8144150000000003      31.496493999999998
  4817   1               10.200365      3.4861339999999998               32.209857
  4818   8      32.472462999999998      18.608108000000001      10.794893999999999
  4819   1      31.623747000000002               19.047504      10.886208999999999
  4820   1      32.255091999999998      17.739598999999998               10.446921
  4821   8     0.36336800000000002      17.705352999999999      34.391967999999999
  4822   1      1.2518100000000001      17.677949999999999      34.029138000000003
  4823   1                       0      16.837461000000001      34.198655000000002
  4824   8      22.330159999999999      3.2578320000000001      32.043295999999998
  4825   1      22.627147000000001                2.391686               31.754655
  4826   1      22.905508999999999                3.473338      32.781655000000001
  4827   8      31.201212000000002      9.1876999999999995               23.590968
  4828   1      32.033211000000001      9.6447719999999997      23.734452999999998
  4829   1      31.424513000000001      8.4670400000000008      22.996469999999999
  4830   8      23.164978999999999               32.231271      39.201067999999999
  4831   1      23.563331000000002      31.385024000000001      38.984490999999998
  4832   1      23.825047000000001      32.674554999999998      39.740003000000002
  4833   8      18.226779000000001               18.238712      4.4564680000000001
  4834   1      17.378025999999998      18.608409999999999      4.7107640000000002
  4835   1      18.534033000000001      18.811423999999999                3.749193
  4836   8      5.2524680000000004      20.033387000000001      35.907958999999998
  4837   1      4.8871479999999998      20.915717999999998      36.006740999999998
  4838   1                5.634328      19.835889000000002      36.766922999999998
  4839   8      21.639057000000001      2.8903349999999999                2.229851
  4840   1      21.588198999999999                3.832773      2.4057750000000002
  4841   1      22.283149999999999      2.8144650000000002      1.5213110000000001
  4842   8      36.212615999999997      33.890118999999999               30.394026
  4843   1      35.585734000000002      33.344861999999999               30.875107
  4844   1      37.059705999999998      33.697757000000003      30.803999000000001
  4845   8      3.3473989999999998     0.87426999999999999               32.034554
  4846   1      3.7940420000000001      1.4790110000000001      31.437457999999999
  4847   1      3.0173730000000001     0.17582800000000001      31.463674000000001
  4848   8      5.2197089999999999      18.269559000000001      28.349336999999998
  4849   1      6.1134170000000001                18.15483      28.017904000000001
  4850   1      4.6648399999999999      18.198118999999998               27.568531
  4851   8      15.565231000000001      8.6443049999999992      31.299178000000001
  4852   1      14.862966999999999      9.2888389999999994               31.184611
  4853   1               15.546699      8.4355849999999997               32.236587
  4854   8      30.654734999999999      38.425457999999999      31.334088000000001
  4855   1      30.120291000000002      38.821263000000002      30.641677000000001
  4856   1      30.044640000000001      37.856704000000001               31.810475
  4857   8      38.325645999999999               11.927493               12.433807
  4858   1      37.781807000000001               12.539657      11.932589999999999
  4859   1      39.195236000000001      11.996916000000001      12.031765999999999
  4860   8      39.194899999999997     0.79824099999999998               28.686321
  4861   1               38.252094     0.72816400000000003      28.519193000000001
  4862   1               39.581232    0.081109000000000001      28.177292000000001
  4863   8      27.306806000000002      10.097046000000001      22.686976999999999
  4864   1                26.41818               10.433971      22.550778999999999
  4865   1      27.855122000000001               10.884109      22.737221000000002
  4866   8      23.221063999999998                39.32479      30.681740999999999
  4867   1      23.798777000000001               38.647717      31.041665999999999
  4868   1      22.624096000000002               38.845236               30.101827
  4869   8      18.098545999999999      5.8815559999999998      2.0059010000000002
  4870   1      18.337510999999999      6.1950890000000003      1.1305050000000001
  4871   1                18.27966                6.627084      2.5838519999999998
  4872   8     0.75926400000000005      37.056871999999998      24.605281999999999
  4873   1                1.458758      36.457354000000002      24.335076999999998
  4874   1                 1.05881               37.408645               25.447405
  4875   8      22.865901000000001      6.4751190000000003      23.281421000000002
  4876   1      22.607271999999998      6.7734940000000003               22.406316
  4877   1      22.034828999999998      6.2834510000000003               23.723264
  4878   8      3.1248670000000001                8.244764      1.6580839999999999
  4879   1      3.0394580000000002      7.3498789999999996      1.3210189999999999
  4880   1      4.0200209999999998      8.5031300000000005      1.4244410000000001
  4881   8               11.377865      9.6429220000000004               21.327593
  4882   1               12.095962      9.4156359999999992      20.732275999999999
  4883   1               11.499893      9.0605550000000008      22.081648000000001
  4884   8      23.409293000000002      41.843685999999998               36.250636
  4885   1                22.47738                      42      36.420423999999997
  4886   1      23.509285999999999      41.999234000000001      35.308059999999998
  4887   8      10.320330999999999      31.228670999999999      17.285150999999999
  4888   1      10.110815000000001               30.329635      17.021402999999999
  4889   1      9.4890670000000004      31.580735000000001      17.613316999999999
  4890   8      41.426045000000002               25.565369      5.5730269999999997
  4891   1      41.997157000000001      24.799848999999998                5.670674
  4892   1      41.999181999999998      26.245774000000001      5.2108040000000004
  4893   8               15.989538               24.456768                7.637994
  4894   1               15.992632      23.925941000000002      6.8380330000000002
  4895   1      15.480729999999999      23.938148000000002      8.2663159999999998
  4896   8      20.139206000000001               13.294119      28.736692999999999
  4897   1               20.741685      12.546886000000001      28.756346000000001
  4898   1      20.491012999999999      13.866051000000001                28.04984
  4899   8      2.9394279999999999      22.469992999999999      41.006568000000001
  4900   1      3.8298369999999999      22.166416000000002      41.198238000000003
  4901   1      2.7683399999999998               22.158745      40.114102000000003
  4902   8               15.722913     0.47636899999999999      16.648890000000002
  4903   1      16.119786000000001     0.47326800000000002               15.774701
  4904   1               14.995708      1.0999429999999999      16.578385999999998
  4905   8      2.9142670000000002      32.753151000000003      20.140332000000001
  4906   1      3.0418400000000001      31.861190000000001      19.808886000000001
  4907   1      2.0503040000000001               33.009684      19.808067000000001
  4908   8               27.022008      25.830314999999999      35.610627000000001
  4909   1      27.352609000000001      26.646809999999999      35.992415999999999
  4910   1      26.714721000000001               25.321548               36.365195
  4911   8               15.490008               19.764834               35.298406
  4912   1               15.886251      18.893982999999999      35.377988999999999
  4913   1      16.027436000000002      20.324010999999999      35.865091999999997
  4914   8      17.385404999999999      5.7853089999999998               31.125771
  4915   1      17.261206000000001      6.7040610000000003      30.876387000000001
  4916   1      16.865569000000001      5.6833770000000001               31.927035
  4917   8      39.633614000000001      31.827857000000002      1.3057000000000001
  4918   1      39.789380000000001      31.584174999999998                0.390233
  4919   1      39.173538000000001      32.669429000000001                1.253452
  4920   8     0.28847600000000001               10.779401      9.9232270000000007
  4921   1                 0.10849      11.620704999999999               10.349299
  4922   1                1.040341      10.957204000000001      9.3525019999999994
  4923   8      21.541678000000001               13.213158      22.325399999999998
  4924   1               21.979996      12.359049000000001               22.315382
  4925   1      21.062325999999999               13.244926      21.493621999999998
  4926   8      37.732664999999997      9.2668990000000004      22.104959999999998
  4927   1      36.793619999999997      9.2849149999999998      21.905975000000002
  4928   1      38.132204000000002      9.8074320000000004      21.418786999999998
  4929   8      39.493926000000002               30.512359      33.475546000000001
  4930   1      39.271056000000002      29.579018000000001      33.445062999999998
  4931   1      38.975664000000002      30.904471999999998      32.768231999999998
  4932   8      5.4569900000000002               17.602542      40.677957999999997
  4933   1      6.3540910000000004      17.942661000000001      40.713358999999997
  4934   1      5.1336360000000001      17.688680000000002      41.578327000000002
  4935   8      9.4068299999999994      11.567254999999999               10.789261
  4936   1      8.8794900000000005      10.867364999999999                 10.3971
  4937   1      9.8042920000000002      11.160971999999999      11.563599999999999
  4938   8      25.083608999999999      40.563879999999997      5.9812019999999997
  4939   1      25.240262999999999      39.751210999999998      5.4946279999999996
  4940   1      24.831503000000001               40.270536      6.8604250000000002
  4941   8      3.0440489999999998               12.154824               15.490622
  4942   1                2.483438      11.647368999999999      16.082170000000001
  4943   1      2.5309750000000002      12.942463999999999               15.293085
  4944   8      39.579991999999997      22.021222999999999      35.586888999999999
  4945   1      39.841411999999998      22.722383000000001      34.985424999999999
  4946   1      40.373924000000002      21.491482000000001      35.695000999999998
  4947   8      33.008861000000003               29.540564      25.443418999999999
  4948   1      32.414704999999998      29.477672999999999               26.194917
  4949   1      32.525357999999997      29.129867999999998      24.722173000000002
  4950   8      31.090879000000001               37.715024      2.2090779999999999
  4951   1      31.628343999999998      38.478611999999998      2.4322110000000001
  4952   1               31.533524               37.325218                1.450949
  4953   8      27.025846000000001               10.200483      31.884395999999999
  4954   1               27.846263               10.078478      31.400912999999999
  4955   1               27.185865      10.971182000000001      32.434905000000001
  4956   8      17.084579999999999                3.702645      37.480879000000002
  4957   1      18.017848999999998                 3.90842      37.572479999999999
  4958   1               17.060509      2.7488540000000001      37.369764000000004
  4959   8      37.938541999999998      27.349824999999999      30.151896000000001
  4960   1               37.249896      27.091588999999999               30.768991
  4961   1      38.743966999999998      27.338843000000001      30.675166999999998
  4962   8      35.850895000000001      3.5741139999999998      25.356152999999999
  4963   1      35.309207000000001      3.5390510000000002               26.148031
  4964   1               36.528599      2.9090470000000002      25.501221000000001
  4965   8      4.6979470000000001     0.76918600000000004      25.848009999999999
  4966   1      4.4361360000000003                       0               26.359413
  4967   1      5.3325469999999999     0.42832599999999998               25.212605
  4968   8      36.274495999999999               23.509242      29.012913999999999
  4969   1      35.565911999999997               24.153077      29.084402999999998
  4970   1               36.994453      23.992011000000002      28.599105999999999
  4971   8      32.814090999999998      23.011935999999999      25.406724000000001
  4972   1      32.441868999999997      23.144895000000002      24.531797000000001
  4973   1      32.268998000000003               22.323248                 25.7956
  4974   8               22.211392      29.947265000000002      28.387143999999999
  4975   1               21.650579               29.197419      28.175139999999999
  4976   1      22.397946999999998      29.848089999999999      29.324162999999999
  4977   8      22.142749999999999      24.544377000000001      2.7415500000000002
  4978   1      21.953918000000002      23.605073999999998                2.680091
  4979   1      22.944918999999999      24.660540000000001      2.2261150000000001
  4980   8               13.245417      27.639475000000001      38.202728999999998
  4981   1               13.017372      28.016722000000001      39.055608999999997
  4982   1                13.37486               26.704801      38.382370999999999
  4983   8      24.511482999999998      9.6887709999999991      28.510646000000001
  4984   1      23.576218999999998      9.4720309999999994      28.516203000000001
  4985   1               24.947651                8.869097      28.756679999999999
  4986   8                4.614897      35.991689000000001      8.4289090000000009
  4987   1      5.5674640000000002      35.932260999999997      8.5328710000000001
  4988   1      4.3704419999999997      36.781263000000003      8.9182520000000007
  4989   8      2.9108700000000001      10.227472000000001      26.364125000000001
  4990   1      2.6318830000000002               11.126718      26.551867999999999
  4991   1      3.0656180000000002               10.218838               25.416169
  4992   8      24.336172000000001      39.025239999999997      28.307341000000001
  4993   1               23.441219      39.306980000000003      28.103854999999999
  4994   1               24.814453                39.84375      28.462029999999999
  4995   8      37.927883000000001               29.298669      31.689920000000001
  4996   1      36.968103999999997      29.278925000000001      31.702621000000001
  4997   1      38.146841999999999               29.707628      30.848818999999999
  4998   8               39.920797      29.115767999999999      28.539732000000001
  4999   1      39.305444000000001      28.857938999999998      29.230087000000001
  5000   1      40.508695000000003      28.361416999999999               28.450447
  5001   8               25.574952               35.444004      23.922387000000001
  5002   1               24.874513      34.893985000000001               23.563793
  5003   1      25.899906999999999      34.951996999999999      24.680658000000001
  5004   8      38.351497999999999      3.4899589999999998                3.435543
  5005   1      37.756163999999998      2.8743569999999998      3.8695200000000001
  5006   1      37.773311999999997      4.0561920000000002      2.9181240000000002
  5007   8      37.768917999999999      19.973652999999999      32.721260000000001
  5008   1               37.736176      20.930987999999999      32.656742000000001
  5009   1               38.343277      19.804808999999999      33.472422000000002
  5010   8               13.346743      27.270347000000001               26.900641
  5011   1               14.033068               26.850137      26.377089000000002
  5012   1                13.69877      27.276585000000001      27.794329999999999
  5013   8      14.177391999999999      26.320665999999999               12.627559
  5014   1      14.145789000000001               25.374046               12.784519
  5015   1      14.843258000000001      26.641933999999999      13.240788999999999
  5016   8               25.511004      26.697248999999999      3.0331779999999999
  5017   1      25.869848999999999      25.817485999999999      3.1709160000000001
  5018   1      24.576094999999999               26.607633      3.2345640000000002
  5019   8      37.952472999999998               18.112074      17.902979999999999
  5020   1      38.469228000000001      18.073412000000001      18.711183999999999
  5021   1      38.580571999999997      18.389856999999999               17.231437
  5022   8               15.615459      31.280162000000001               20.543198
  5023   1               14.731282               31.563554      20.787420999999998
  5024   1               16.006083      32.051599000000003               20.124941
  5025   8      5.3128679999999999               12.580968                6.318454
  5026   1                5.975263      12.315638999999999      6.9607599999999996
  5027   1      5.7856569999999996               13.157081      5.7124779999999999
  5028   8      12.156083000000001               14.370013      24.722913999999999
  5029   1      11.639772000000001      14.016030000000001      25.450818999999999
  5030   1               11.499924               14.689123      24.098202000000001
  5031   8      34.951191999999999      16.944617000000001      41.417521999999998
  5032   1      35.569251999999999      17.672485000000002      41.317847999999998
  5033   1      35.401381999999998      16.327615999999999                      42
  5034   8      13.730423999999999      19.000475000000002      19.294820000000001
  5035   1               13.678003      18.624697999999999      18.412908000000002
  5036   1               14.608953      18.764022000000001      19.602910999999999
  5037   8      19.660412000000001               18.707711      31.964811000000001
  5038   1               20.381504               19.341016      31.990811000000001
  5039   1               19.319139      18.697980999999999      32.862630000000003
  5040   8      18.343427999999999      31.730460000000001               10.472923
  5041   1      17.857614000000002      31.218240000000002      9.8222769999999997
  5042   1               18.703657      32.468499000000001      9.9747509999999995
  5043   8      18.719273000000001      31.774730000000002                3.150188
  5044   1               17.787205      31.565968000000002      3.0532729999999999
  5045   1      18.974534999999999      31.349647000000001      3.9728590000000001
  5046   8      32.399635000000004      28.514012999999998               10.406606
  5047   1      32.367164000000002      27.592252999999999      10.673118000000001
  5048   1               32.147382      28.503278999999999      9.4798399999999994
  5049   8               37.217658      39.231955999999997      11.963312999999999
  5050   1      36.393560999999998      39.567279999999997      11.602551999999999
  5051   1      36.946671000000002      38.549278000000001      12.582311000000001
  5052   8      16.731532999999999               17.667773      8.8339820000000007
  5053   1      17.562345000000001      18.141902999999999      8.7522690000000001
  5054   1      16.211175999999998               17.967592      8.0843290000000003
  5055   8               24.326456      20.999628999999999      41.111291999999999
  5056   1               25.198739      20.773614999999999      40.779983000000001
  5057   1               24.486431      21.327114999999999                      42
  5058   8               18.881373      22.065708000000001      14.128486000000001
  5059   1      19.546603000000001      21.375820999999998      14.185487999999999
  5060   1      19.251346999999999      22.795801999999998      14.631202999999999
  5061   8      23.660056000000001                30.74081      19.706627999999998
  5062   1      23.532254999999999                31.44059      19.061879000000001
  5063   1                24.60314               30.753487               19.888486
  5064   8      33.316052999999997               13.045066               37.713296
  5065   1      32.689205000000001               12.442078      37.306857000000001
  5066   1      32.809562999999997               13.846214      37.869086000000003
  5067   8                1.057936      40.198067999999999               27.481928
  5068   1                1.005654      39.275277000000003      27.741637000000001
  5069   1     0.15698599999999999               40.429862               27.242756
  5070   8      25.026851000000001      35.024441000000003      28.087105000000001
  5071   1      25.479915999999999      35.868434000000001      28.022822000000001
  5072   1                 24.3066      35.186660000000003      28.701568999999999
  5073   8                1.960782      13.790228000000001      18.872693000000002
  5074   1                1.579799               13.187058      19.515159000000001
  5075   1      2.5967449999999999               13.255139               18.391161
  5076   8               17.629507      2.3717139999999999      9.0763069999999999
  5077   1      17.495622999999998                1.804352      8.3134829999999997
  5078   1               16.894838      2.1645699999999999      9.6593970000000002
  5079   8      35.238787000000002                3.461522      6.6344979999999998
  5080   1      34.310223999999998      3.3717570000000001                  6.8613
  5081   1      35.520814000000001      2.5673110000000001      6.4259560000000002
  5082   8               16.307731      12.570529000000001                24.81673
  5083   1               15.993463               13.411227               25.157591
  5084   1      15.812037999999999               12.442466      24.004000000000001
  5085   8      28.771771000000001      19.701968999999998                28.07855
  5086   1      28.357935999999999                20.15889               27.342554
  5087   1      29.704740000000001               19.915664      27.997647000000001
  5088   8      2.7159409999999999      26.256257000000002               15.288674
  5089   1                2.132009               26.976039               15.038351
  5090   1      2.2425799999999998               25.797093      15.987057999999999
  5091   8      4.1548959999999999      1.5567519999999999                1.967363
  5092   1      4.2334509999999996      1.7979320000000001      2.8933149999999999
  5093   1      5.0446390000000001                 1.30097      1.7112879999999999
  5094   8               15.370554      18.422910000000002      37.904884000000003
  5095   1               15.936277               18.101575      38.610875999999998
  5096   1      15.102850999999999               19.298952      38.193894999999998
  5097   8      1.6538930000000001      34.021655000000003      28.007172000000001
  5098   1      1.9664219999999999      33.232942999999999               28.456598
  5099   1     0.82747899999999996      34.235396999999999      28.447621999999999
  5100   8      20.092272999999999               12.166406               10.772682
  5101   1               20.751006      11.515086999999999                11.02483
  5102   1               19.590536      11.739736000000001               10.073501
  5103   8      31.642589999999998      5.0814779999999997      34.500945999999999
  5104   1      30.929828000000001      5.6419740000000003      34.185448000000001
  5105   1      32.194083999999997      5.6687940000000001      35.023971000000003
  5106   8      27.252846999999999      36.242972000000002      39.209029999999998
  5107   1               26.947889      35.345739999999999      39.362979000000003
  5108   1      27.877469000000001      36.407770999999997      39.919896000000001
  5109   8               10.384827               29.156806      31.627483000000002
  5110   1      11.262403000000001      29.042656999999998      31.255254000000001
  5111   1               10.525641      29.697963000000001      32.408484000000001
  5112   8      18.924002999999999               23.938958      22.305150999999999
  5113   1      19.182545000000001      24.841985999999999      22.106601999999999
  5114   1      19.668172999999999      23.580145000000002      22.795158000000001
  5115   8      6.2611319999999999                7.898263      20.808095000000002
  5116   1      5.4628189999999996      8.2450060000000001      21.213298999999999
  5117   1      6.4235740000000003      8.4825590000000002      20.063210000000002
  5118   8               21.644662      11.959963999999999      26.706949999999999
  5119   1      22.373888000000001               11.362302      26.887931999999999
  5120   1      21.127390999999999      11.508430000000001      26.035243999999999
  5121   8      1.8396840000000001      1.2338610000000001      29.564291999999998
  5122   1      1.8584540000000001      1.7467630000000001      30.375651000000001
  5123   1      1.5662160000000001      1.8622510000000001               28.891251
  5124   8      26.368887999999998      3.7631420000000002      19.585249000000001
  5125   1                27.12921                3.803722      19.000451000000002
  5126   1      26.118024999999999      4.6813320000000003      19.714238999999999
  5127   8      26.850639000000001      30.574912999999999               21.503601
  5128   1      27.383814000000001      29.905453000000001      21.938656000000002
  5129   1      26.338612999999999      30.086790000000001      20.853826999999999
  5130   8      40.019528000000001      29.974775999999999      10.958928999999999
  5131   1      40.498462000000004               30.605905      11.501169000000001
  5132   1      39.279707000000002      29.702145999999999      11.507543999999999
  5133   8               21.199379      26.688410000000001      34.373159999999999
  5134   1      21.363009000000002      27.520012000000001      34.824145000000001
  5135   1      21.422436000000001      26.866624999999999      33.456029999999998
  5136   8      2.8926609999999999      1.7906249999999999      36.800730999999999
  5137   1      3.3735089999999999      2.3928739999999999      37.373274000000002
  5138   1      1.9783949999999999      1.8711469999999999               37.084063
  5139   8      24.291132000000001               12.869429      21.540088000000001
  5140   1      24.394556000000001               12.664764               22.472365
  5141   1               23.873134               12.088082                21.16939
  5142   8      40.724437000000002      25.742536000000001      31.724855000000002
  5143   1      40.811151000000002               25.738788      32.680988999999997
  5144   1      41.087744999999998               26.590042      31.455815999999999
  5145   8      41.684488000000002      37.286696999999997      4.2405869999999997
  5146   1      40.941630000000004               36.691195      4.1170359999999997
  5147   1      41.647545000000001      37.524231999999998      5.1705620000000003
  5148   8      8.8486619999999991               32.294891      38.600940000000001
  5149   1      9.7809209999999993      32.096327000000002      38.486089999999997
  5150   1      8.8363060000000004      33.037117000000002      39.210521999999997
  5151   8               39.376272      39.630186999999999               15.329601
  5152   1      38.710161999999997      40.040503000000001               15.886075
  5153   1      39.297573999999997      40.086142000000002               14.487845
  5154   8               10.781463               26.536151                3.578951
  5155   1               10.149701      27.042418999999999      3.0629140000000001
  5156   1      10.475445000000001               26.625688      4.4850289999999999
  5157   8      6.0831039999999996      20.490207000000002     0.74471699999999996
  5158   1                5.873272               19.855186                1.433516
  5159   1                5.538538               20.222839                       0
  5160   8               23.405096     0.93983399999999995      13.493491000000001
  5161   1      23.520092000000002      1.8444309999999999               13.193146
  5162   1               22.978037      1.0253239999999999               14.349618
  5163   8      28.906420000000001      21.047360999999999      29.889213000000002
  5164   1      28.003862999999999               21.271891      30.127338000000002
  5165   1      29.131882000000001      21.671068999999999      29.194376999999999
  5166   8      31.327933000000002               11.850773      15.720245999999999
  5167   1      31.984877999999998                 11.6341               15.054511
  5168   1                31.04363               10.998821      16.060821000000001
  5169   8      4.6971910000000001      8.7419460000000004      10.606650999999999
  5170   1      5.3170529999999996      9.4690999999999992                10.51315
  5171   1      4.2835890000000001      8.8895649999999993               11.460925
  5172   8      16.247292000000002      30.205117999999999      5.3815379999999999
  5173   1               17.189764               30.342762      5.2610130000000002
  5174   1      15.910429000000001                30.06992      4.4922199999999997
  5175   8      2.2988949999999999      32.200969000000001               22.486874
  5176   1      2.7371409999999998      31.548463999999999      23.038146999999999
  5177   1      1.5200370000000001      32.453149000000003      22.989294999999998
  5178   8      37.207690999999997      29.335684000000001      16.609995000000001
  5179   1      37.217680999999999      28.465441999999999      16.204651999999999
  5180   1      36.730237000000002      29.885152999999999      15.983287000000001
  5181   8               28.898712               15.778532      34.469346999999999
  5182   1      28.942036999999999               14.888116      34.825727000000001
  5183   1               28.414638      15.682245999999999      33.645305999999998
  5184   8               34.907463      8.1311710000000001      15.946516000000001
  5185   1      35.448990000000002      8.7502069999999996      15.451269999999999
  5186   1      35.353143000000003      7.2868839999999997      15.840733999999999
  5187   8      21.492958000000002      31.573042999999998      41.884507999999997
  5188   1      20.660665000000002      32.037450999999997                      42
  5189   1      22.162745999999999      32.251783000000003      41.999999000000003
  5190   8      10.441000000000001      24.793140999999999      16.979662000000001
  5191   1               11.190999      25.373211999999999      17.130472999999999
  5192   1      9.9387980000000002               25.228182      16.285996000000001
  5193   8      30.309073000000001      2.0763449999999999      8.5606539999999995
  5194   1      30.488814999999999                1.743781      7.6781470000000001
  5195   1      30.836780000000001      1.5185299999999999      9.1377240000000004
  5196   8      17.799637000000001      15.462624999999999      9.4471030000000003
  5197   1      18.682777000000002      15.758112000000001      9.6805050000000001
  5198   1      17.887899000000001      15.133535999999999      8.5490200000000005
  5199   8     0.59377899999999995      33.271774999999998               26.229619
  5200   1     0.25242199999999998      32.387258000000003      26.078523000000001
  5201   1    0.052200999999999997      33.835009999999997      25.670957000000001
  5202   8      17.194497999999999                 4.82341               22.572243
  5203   1               16.516375      4.3155520000000003      23.023855000000001
  5204   1      18.021564999999999      4.4625159999999999      22.901420999999999
  5205   8               16.492037               14.622303     0.78688000000000002
  5206   1      16.728829000000001               14.559077      1.7151350000000001
  5207   1      16.279523999999999      15.550090000000001     0.65768400000000005
  5208   8      6.7482680000000004               34.268186      27.328552999999999
  5209   1      7.4773839999999998      34.647429000000002      26.832277000000001
  5210   1      7.1362829999999997      34.022647999999997      28.172232999999999
  5211   8               37.000194      32.345398000000003      5.0441779999999996
  5212   1      36.109245000000001      32.077311000000002      4.8074000000000003
  5213   1                36.97184      32.450597999999999      5.9985220000000004
  5214   8               12.305567      9.3049199999999992               26.695995
  5215   1      12.012511999999999      8.7629619999999999      27.432286999999999
  5216   1               12.391622      8.6877089999999999               25.965045
  5217   8      18.679704999999998      19.256806000000001      37.441268999999998
  5218   1      19.070378999999999      19.785623000000001      38.140877000000003
  5219   1      19.402128999999999      18.708262000000001      37.125289000000002
  5220   8     0.81629600000000002      38.418292000000001      31.934474999999999
  5221   1     0.84944500000000001      39.356841000000003      31.735098000000001
  5222   1                       0      38.308199000000002      32.428623999999999
  5223   8               10.354018      34.098447999999998      32.674239999999998
  5224   1               11.262972      34.213182000000003               32.387248
  5225   1               10.235439      34.759787000000003      33.360688000000003
  5226   8      23.665050000000001      41.956556999999997      27.574048000000001
  5227   1      23.478546000000001      41.618713999999997      28.453140000000001
  5228   1      24.623764000000001      41.999977999999999      27.533739000000001
  5229   8      36.943292999999997      15.980695000000001      28.270900000000001
  5230   1      37.774894000000003               15.624822      27.949155999999999
  5231   1      37.200038999999997      16.718029999999999      28.830418999999999
  5232   8      23.089673999999999               11.081604      41.043546999999997
  5233   1               22.985709                10.18356      40.720384000000003
  5234   1      23.203361000000001      10.981992999999999      41.992122000000002
  5235   8               21.610256      7.6591649999999998      15.114674000000001
  5236   1      21.688580999999999      8.3650780000000005               14.468705
  5237   1      20.720801999999999      7.3188709999999997               14.989319
  5238   8      37.796657000000003      18.550993999999999   0.0062449999999999997
  5239   1      37.093955000000001                19.20513  6.9999999999999999e-06
  5240   1      38.194496000000001      18.636725999999999     0.87631099999999995
  5241   8               12.182518      20.631654999999999      38.109056000000002
  5242   1               12.969187               21.048206      38.468724999999999
  5243   1               11.773572      21.316504999999999      37.573905000000003
  5244   8      41.824621999999998               15.227079      38.038488999999998
  5245   1      41.760458999999997      14.385070000000001      38.495249000000001
  5246   1      40.943547000000002      15.374610000000001      37.685524999999998
  5247   8               15.824043      8.3124459999999996      9.7455929999999995
  5248   1                15.32657      8.5049399999999995      8.9473500000000001
  5249   1      15.154890999999999      8.0720010000000002      10.391398000000001
  5250   8      22.413022000000002      16.166156999999998      24.868525000000002
  5251   1      23.351400000000002      16.080563000000001      25.052499000000001
  5252   1      22.173698999999999      17.018378999999999      25.241465000000002
  5253   8               12.333995      14.277509999999999      21.465541999999999
  5254   1               12.100735               13.432255      21.074570000000001
  5255   1                12.89198      14.048552000000001                22.21312
  5256   8               23.113972               14.580831               11.296965
  5257   1      23.602824999999999               13.842518               11.667966
  5258   1               22.615824      14.196364000000001      10.571241000000001
  5259   8      33.319138000000002      26.043589999999998      1.3855280000000001
  5260   1      32.796866000000001      26.660236999999999     0.86716400000000005
  5261   1      34.229396999999999      26.264247000000001      1.1725000000000001
  5262   8      39.868639999999999      35.035665999999999      41.687688000000001
  5263   1      40.639285000000001               34.555757      41.999965000000003
  5264   1      40.009641999999999      35.936208999999998      41.990645999999998
  5265   8      39.350101000000002               15.108798      21.908404999999998
  5266   1      39.338847999999999      15.164154999999999      20.950002999999999
  5267   1      39.406297000000002      16.022487000000002      22.199363000000002
  5268   8      8.1185779999999994               12.877473      26.748837000000002
  5269   1      7.7182950000000003      12.530397000000001      25.948188999999999
  5270   1      7.4552310000000004      13.471634999999999               27.108815
  5271   8      27.067357000000001               19.218176               10.199304
  5272   1      26.247745999999999      19.105924000000002      9.7121060000000003
  5273   1      26.849875000000001               19.849836      10.889485000000001
  5274   8      14.265345999999999               20.253228      29.087969999999999
  5275   1      14.208209999999999      21.169053000000002               28.805615
  5276   1      13.838271000000001      20.241872000000001      29.948271999999999
  5277   8      3.4815870000000002               31.197053                36.08446
  5278   1      4.1797380000000004      31.325914000000001      35.438158999999999
  5279   1      3.5564300000000002      31.954419000000001               36.670496
  5280   8               30.307077      20.345265000000001      31.900013999999999
  5281   1      31.192489999999999      20.294692000000001      31.532302999999999
  5282   1      30.321338999999998      19.734135999999999      32.640931999999999
  5283   8               15.931258      24.104448999999999      11.079624000000001
  5284   1      15.704845000000001      24.719522999999999               10.378093
  5285   1      16.874289000000001      23.956848999999998               10.972159
  5286   8      26.502459000000002      7.9319879999999996      38.362527999999998
  5287   1      27.083203999999999      7.2685940000000002      38.742488000000002
  5288   1               26.711599      7.9231999999999996      37.425071000000003
  5289   8      9.0001350000000002      3.9910030000000001      7.9722799999999996
  5290   1      9.9089340000000004      3.8455249999999999      7.6990639999999999
  5291   1      9.0658949999999994      4.6238479999999997      8.6918799999999994
  5292   8      18.625357000000001               22.564477      38.553006000000003
  5293   1      19.529921000000002               22.859496      38.424740999999997
  5294   1               18.499762               21.884007      37.886800999999998
  5295   8      14.550103999999999      4.3032769999999996      24.744551000000001
  5296   1      14.583225000000001      3.3553600000000001      24.595956999999999
  5297   1               14.358222      4.6736909999999998      23.879325000000001
  5298   8      16.000095000000002      30.557946999999999               37.487631
  5299   1               16.819896      31.051003999999999      37.406719000000002
  5300   1      15.399141999999999      30.992730999999999      36.877335000000002
  5301   8      32.458983000000003      2.2579720000000001      7.9240219999999999
  5302   1      32.969388000000002      1.8993549999999999      7.1942250000000003
  5303   1      33.073551000000002      2.8356409999999999      8.3836379999999995
  5304   8      16.321518000000001      5.6679029999999999                 15.3271
  5305   1      16.011513999999998      4.9028559999999999                15.81733
  5306   1      16.599917999999999      6.2887519999999997               16.005098
  5307   8                11.61008      8.0219290000000001               18.615226
  5308   1               11.426568      7.6161289999999999                19.46574
  5309   1               12.567036      8.1010270000000002      18.590302000000001
  5310   8     0.88673900000000005      18.255013000000002      29.354154999999999
  5311   1      1.4484490000000001      17.493386000000001               29.192501
  5312   1                       0      17.943736999999999      29.155550999999999
  5313   8      33.007801000000001      21.465309999999999                0.350022
  5314   1      33.707562000000003      20.908812000000001  0.00021100000000000001
  5315   1      33.469700000000003      22.143978000000001     0.84872099999999995
  5316   8               12.707129      31.916485999999999      8.0391910000000006
  5317   1      13.216426999999999      31.296409000000001                7.512079
  5318   1      12.741891000000001      31.557435000000002      8.9294239999999991
  5319   8      15.815111999999999      34.383254999999998      18.561834000000001
  5320   1               15.309243      33.578102999999999               18.694319
  5321   1               16.730217      34.109127999999998      18.662223000000001
  5322   8                3.741711      12.055593999999999      39.920822000000001
  5323   1      3.0509729999999999               11.416027      40.109394000000002
  5324   1      4.0581129999999996               12.326945      40.786211999999999
  5325   8     0.44891199999999998               41.369785      39.842008999999997
  5326   1                       0      41.908150999999997               39.185986
  5327   1  0.00016899999999999999      41.574713000000003      40.666190999999998
  5328   8      6.2239300000000002      36.516010999999999      37.708665000000003
  5329   1      6.1959629999999999               36.366349      38.656581000000003
  5330   1      5.8901139999999996      35.699541000000004      37.328420999999999
  5331   8      7.2411149999999997      37.301020999999999      20.077587999999999
  5332   1      6.7218239999999998               37.777234      19.425450000000001
  5333   1                6.840109               36.428829      20.111014000000001
  5334   8      8.5154219999999992      6.3458639999999997      38.521115000000002
  5335   1      8.5926489999999998      5.6492180000000003      39.177197999999997
  5336   1      9.0279260000000008                7.072813      38.883780000000002
  5337   8      8.0806050000000003               19.625332      28.213681000000001
  5338   1      8.8366900000000008      20.149425000000001      28.488247999999999
  5339   1      8.3855199999999996               18.716538      28.275016000000001
  5340   8               32.548969      11.502558000000001      22.657737999999998
  5341   1      33.095064999999998      11.345186999999999      21.883956000000001
  5342   1      33.042096000000001      12.148116999999999      23.170300000000001
  5343   8      19.456983000000001      31.064906000000001      37.051256000000002
  5344   1      20.088287000000001               31.302536      36.368093000000002
  5345   1      19.455387999999999      30.104365000000001               37.050742
  5346   8      13.450438999999999      35.829399000000002               15.972782
  5347   1               13.691044      36.742184999999999      16.147870999999999
  5348   1      13.911473000000001      35.613328000000003               15.158286
  5349   8      13.317195999999999      34.294626000000001      22.742025999999999
  5350   1      13.488244999999999      33.683888000000003      23.462765999999998
  5351   1               12.691856      33.830610999999998               22.179637
  5352   8      18.785382999999999               28.447191               15.198359
  5353   1      17.909099000000001      28.146592999999999      14.946384999999999
  5354   1      19.052278999999999      27.844785000000002      15.897297999999999
  5355   8      34.547234000000003      23.629795999999999      5.0706160000000002
  5356   1      34.183143000000001               24.513562      5.1607219999999998
  5357   1      35.498603000000003      23.760618999999998      5.0912420000000003
  5358   8      25.392686000000001      15.086081999999999      34.080485000000003
  5359   1      25.570702000000001               14.592108      34.884241000000003
  5360   1      24.486989999999999               15.389274               34.182617
  5361   8      12.712191000000001                      42      32.250703999999999
  5362   1               12.941532      41.112388000000003      32.535789000000001
  5363   1      12.098382000000001      41.865935999999998      31.524132000000002
  5364   8      32.053362999999997      8.4648920000000007      26.663968000000001
  5365   1      32.439047000000002                7.589988      26.750661000000001
  5366   1      32.762247000000002      9.0032630000000005      26.303021999999999
  5367   8               14.966068      11.979884999999999      41.687555000000003
  5368   1               15.893644      11.781817999999999      41.538901000000003
  5369   1                14.93538               12.937165      41.760460999999999
  5370   8      9.5419619999999998               14.460193      34.532107000000003
  5371   1      8.9859279999999995               14.892998      35.184204000000001
  5372   1      10.174713000000001      15.134779999999999      34.272877000000001
  5373   8      38.267203000000002      40.258934000000004               20.861456
  5374   1      37.555812000000003      39.947192000000001      20.297129999999999
  5375   1      38.294297999999998      39.625374999999998      21.582920999999999
  5376   8      3.2258520000000002               10.469849      4.4653780000000003
  5377   1                2.718089               11.254529      4.2458819999999999
  5378   1      2.7181999999999999               10.044179      5.1608900000000002
  5379   8      34.022568999999997      5.8402570000000003      8.4441600000000001
  5380   1                34.18797      6.0575299999999999      7.5237470000000002
  5381   1      33.723194999999997      4.9277889999999998      8.4236660000000008
  5382   8      17.588795000000001      20.334928999999999      6.3793150000000001
  5383   1      16.997427999999999      19.620356999999998      6.6271009999999997
  5384   1      17.149153999999999               20.762822                5.640218
  5385   8      30.295245000000001      9.3603719999999999      11.865168000000001
  5386   1      30.880524999999999                9.500667               12.613159
  5387   1      30.025193999999999               10.244576               11.604599
  5388   8      4.4983719999999998               11.278241      16.998989999999999
  5389   1      4.3731460000000002               10.401773               17.370269
  5390   1      4.7542169999999997               11.820689      17.749279999999999
  5391   8               13.168699      9.6612089999999995      34.190610999999997
  5392   1               14.085409      9.9140409999999992      34.058537000000001
  5393   1      12.952859999999999      9.1343099999999993               33.417026
  5394   8      15.529178999999999               39.464948      39.056784999999998
  5395   1               15.195883      40.355316999999999      38.923057999999997
  5396   1      16.031773000000001      39.276358000000002      38.260246000000002
  5397   8      41.107035000000003      41.972836000000001      29.768156999999999
  5398   1               40.520381      41.834313999999999      30.515401000000001
  5399   1      41.475659999999998      41.103889000000002      29.590140000000002
  5400   8      22.150082999999999      22.119727999999999      38.391731999999998
  5401   1      23.080082000000001               21.914123      38.512372999999997
  5402   1      22.128302000000001      23.074566000000001      38.289498000000002
  5403   8      5.3867250000000002      27.736789000000002      33.394998000000001
  5404   1      6.2619230000000003      28.108872000000002               33.263441
  5405   1      4.9920879999999999      28.289885999999999      34.073959000000002
  5406   8      16.759623999999999      8.2280280000000001               14.234439
  5407   1               17.357868      8.9546720000000004      14.423693999999999
  5408   1      17.264150999999998      7.6474919999999997               13.659049
  5409   8      8.1959049999999998               40.944561      23.762011000000001
  5410   1      8.3638639999999995      40.144271000000003      23.258970999999999
  5411   1      8.7385280000000005      40.849843999999997               24.548924
  5412   8      36.436880000000002      22.969367999999999               17.635289
  5413   1      37.069501000000002      23.634371000000002               17.916867
  5414   1      36.876694999999998      22.512119999999999               16.914088
  5415   8               11.519358               26.348146      36.313307000000002
  5416   1      12.163785000000001      26.921340000000001      35.891539999999999
  5417   1      10.975218999999999      26.027905000000001      35.589427999999998
  5418   8                10.39528      30.228090000000002      19.506046999999999
  5419   1               11.220094      30.044022999999999               19.050497
  5420   1      10.521623999999999               29.862192      20.385135999999999
  5421   8               25.325491      6.9349230000000004      2.4552689999999999
  5422   1      24.652633000000002      7.6049660000000001      2.3137430000000001
  5423   1               24.940604      6.3446629999999997                3.108031
  5424   8      6.5498669999999999     0.63324400000000003               14.591865
  5425   1      6.4224579999999998                1.449792      15.080477999999999
  5426   1      7.0902659999999997     0.88741599999999998                13.83953
  5427   8      1.0340450000000001      29.860288000000001                24.21668
  5428   1                0.959198      30.808043999999999      24.350397000000001
  5429   1                1.740426      29.765398000000001      23.572735999999999
  5430   8               15.444343      39.790356000000003      26.417370999999999
  5431   1      15.059124000000001      40.664071999999997      26.517126000000001
  5432   1      14.923016000000001      39.377656000000002               25.724162
  5433   8               16.174201      30.457163000000001      11.020460999999999
  5434   1               15.268087      30.764693000000001               10.942313
  5435   1      16.214158999999999      30.051577999999999               11.890257
  5436   8      11.519439999999999               31.776104               30.352231
  5437   1               12.006981      32.587570999999997      30.512070000000001
  5438   1      10.708653999999999               31.881853      30.856300000000001
  5439   8      18.211545000000001      31.151544999999999      33.428396999999997
  5440   1               17.673026      31.432822000000002      32.685021999999996
  5441   1               17.575744      30.858104999999998      34.085886000000002
  5442   8      28.387927000000001      5.9380470000000001     0.55280300000000004
  5443   1               27.624886      6.4420549999999999     0.26045099999999999
  5444   1      29.107631999999999      6.2528090000000001                       0
  5445   8      25.635971999999999               19.415395               15.354877
  5446   1      26.190663000000001      20.169909000000001      15.566425000000001
  5447   1      25.899571000000002      18.741202000000001      15.986242000000001
  5448   8      38.540337999999998      8.1727039999999995      8.1569570000000002
  5449   1      39.066462999999999      8.8919569999999997      7.7997560000000004
  5450   1      37.856509000000003      8.6098099999999995      8.6707260000000002
  5451   8      9.0977230000000002      37.454515000000001               17.003726
  5452   1      9.7407299999999992      36.844467999999999      16.634796000000001
  5453   1      9.5584869999999995      38.296767000000003               17.034544
  5454   8      33.948492999999999      8.6238600000000005      40.669508999999998
  5455   1      33.926684999999999      9.5677140000000005      40.843834999999999
  5456   1      34.840217000000003      8.3579360000000005      40.907741000000001
  5457   8      8.8296840000000003      26.433582000000001      33.272350000000003
  5458   1      9.0739789999999996      27.314388000000001      32.978704999999998
  5459   1      9.3819350000000004      26.277304999999998               34.042569
  5460   8      4.2468469999999998      21.847899999999999      24.198215999999999
  5461   1                3.538351      22.493773999999998      24.249248999999999
  5462   1                5.037642      22.372651000000001               24.050151
  5463   8      39.286465999999997               10.680439      5.7976419999999997
  5464   1      39.770184999999998               10.772508      6.6218170000000001
  5465   1      39.745125999999999      9.9784690000000005      5.3291219999999999
  5466   8      34.101579999999998      16.776382000000002      5.9109559999999997
  5467   1      34.953114999999997               17.148322      5.6695580000000003
  5468   1      33.804927999999997               17.317733      6.6468759999999998
  5469   8                6.523333      8.0518249999999991      5.4180359999999999
  5470   1      7.2990779999999997      7.9956500000000004      4.8551960000000003
  5471   1      6.8264089999999999      8.5285919999999997      6.1948749999999997
  5472   8     0.37191099999999999      21.523350000000001      39.282279000000003
  5473   1     0.67264400000000002      22.429677000000002               39.381563
  5474   1     0.95340800000000003      21.150977999999999      38.614566000000003
  5475   8               13.553156                30.81005      5.1916409999999997
  5476   1               13.714267      30.465638999999999      4.3100810000000003
  5477   1               14.208489      31.503907999999999      5.2999929999999997
  5478   8      15.544121000000001      10.730684999999999      11.266940999999999
  5479   1      15.799872000000001               11.655963      11.280283000000001
  5480   1      16.159427000000001               10.322072      10.652875999999999
  5481   8      5.7011469999999997      11.873267999999999               34.201867
  5482   1                5.636304               12.576578      33.551577000000002
  5483   1      4.8081899999999997                 11.5253      34.266578000000003
  5484   8      12.105199000000001      5.5223149999999999               10.751382
  5485   1      12.389927999999999      5.5794790000000001               11.666471
  5486   1               12.690866      4.8694059999999997      10.359788999999999
  5487   8      5.9016010000000003      24.963259000000001      34.916162999999997
  5488   1      6.8333659999999998               24.733632      34.944623999999997
  5489   1      5.4555379999999998               24.195546      35.282614000000002
  5490   8      7.3633410000000001      7.8266220000000004      10.425967999999999
  5491   1      6.4753080000000001      7.4710830000000001               10.344028
  5492   1      7.8696260000000002      7.3603139999999998      9.7559880000000003
  5493   8      1.5667359999999999               19.040664      18.157996000000001
  5494   1                1.029358      19.315028999999999      18.904772000000001
  5495   1      2.3787820000000002      19.545328000000001      18.250399000000002
  5496   8      35.863072000000003      13.041581000000001      31.187926999999998
  5497   1      35.592838999999998               12.138793               31.004427
  5498   1               36.668053      12.949324000000001      31.703811000000002
  5499   8      7.3826499999999999      13.831772000000001      37.622610999999999
  5500   1      6.4716430000000003               14.053775      37.416443000000001
  5501   1      7.9021520000000001      14.390618999999999                37.03913
  5502   8      35.914414999999998      8.6653459999999995      30.144960999999999
  5503   1      36.626876000000003      8.0591329999999992      29.929023999999998
  5504   1      36.339756999999999      9.3629259999999999      30.650044000000001
  5505   8               19.234437               13.428618      40.269255000000001
  5506   1      19.923037000000001               14.095091      40.211212000000003
  5507   1      18.486039000000002               13.891895      40.653852999999998
  5508   8      37.541595999999998      17.367599999999999      9.7907259999999994
  5509   1      38.363765999999998      17.017689000000001      10.141902999999999
  5510   1      37.596792999999998      18.312961000000001      9.9516190000000009
  5511   8      19.755777999999999               11.102646               16.803155
  5512   1      20.428436000000001      10.418136000000001      16.829650000000001
  5513   1               20.252544      11.923386000000001               16.755706
  5514   8      4.7022959999999996      7.3080160000000003      28.664525000000001
  5515   1      5.4473880000000001      7.5770920000000004               28.122159
  5516   1      4.7036569999999998      7.9296030000000002               29.396829
  5517   8      7.7334579999999997      32.968711999999996      34.333184000000003
  5518   1      6.8513909999999996      32.602037000000003      34.429267000000003
  5519   1      7.6026610000000003      33.775345999999999      33.828332000000003
  5520   8      34.851449000000002               14.598787      9.4947339999999993
  5521   1      35.118209999999998               15.518813                9.558878
  5522   1      35.590922999999997      14.109792000000001      9.8644689999999997
  5523   8               39.475268               39.089081      40.367376999999998
  5524   1               40.350023      38.911374000000002      40.013894999999998
  5525   1      39.507969000000003      40.011885999999997      40.631960999999997
  5526   8      4.7740590000000003      20.519909999999999               31.571462
  5527   1      4.8861230000000004      20.166564000000001      30.685846999999999
  5528   1                5.301507      19.941027999999999      32.127642999999999
  5529   8      11.575711999999999      16.458127000000001               20.045499
  5530   1               10.709296      16.785202000000002      19.792380999999999
  5531   1                12.11741      16.587575000000001      19.262907999999999
  5532   8      39.700437000000001               40.773778      5.6015459999999999
  5533   1      40.230459000000003      41.548152000000002      5.3986989999999997
  5534   1      39.721232999999998      40.252645999999999      4.7949279999999996
  5535   8      31.239059000000001      11.139673999999999      5.1125720000000001
  5536   1      31.039671999999999      10.973682999999999      4.1882250000000001
  5537   1      31.281929000000002      12.096952999999999      5.1790640000000003
  5538   8               28.592779                15.68628      9.8195180000000004
  5539   1      28.319040999999999      16.413744999999999               10.383067
  5540   1      29.233720999999999               15.203666               10.347645
  5541   8      8.2985340000000001               13.030068      33.283774999999999
  5542   1      8.8583259999999999      13.350519999999999      32.572671999999997
  5543   1      8.7945810000000009      12.303076000000001      33.668565000000001
  5544   8      38.152819999999998               10.175528               16.366747
  5545   1               37.910069      10.735018999999999                17.10821
  5546   1      37.331386000000002      9.7478840000000009      16.111778000000001
  5547   8      19.515544999999999               15.929404      6.8548689999999999
  5548   1      19.631461000000002      16.281089000000001      7.7406490000000003
  5549   1      18.589466999999999      16.087551999999999      6.6548420000000004
  5550   8                1.925775      21.303799999999999               28.132783
  5551   1     0.99323300000000003      21.120249000000001               27.997135
  5552   1      2.0455580000000002      22.193957000000001      27.792321000000001
  5553   8      4.4437620000000004      37.018126000000002      34.193551999999997
  5554   1      4.5704979999999997      36.086109999999998      34.385928999999997
  5555   1      5.0124370000000003      37.470694000000002                34.82159
  5556   8      10.784224999999999               12.681274      7.9470859999999997
  5557   1               10.486552               11.881319                7.507555
  5558   1      10.457800000000001               12.594816      8.8463159999999998
  5559   8      14.270034000000001      38.382570999999999      37.281933000000002
  5560   1               14.016759      39.308244000000002      37.308492000000001
  5561   1      14.940461000000001               38.338414               36.595478
  5562   8                1.863022      17.790521999999999      10.103217000000001
  5563   1      2.4338600000000001      18.519798999999999      9.8501910000000006
  5564   1                1.317682      18.148178000000001      10.808433000000001
  5565   8      3.4565480000000002      38.464697000000001               24.577814
  5566   1                3.355623      37.569068000000001      24.908553000000001
  5567   1                2.799293      38.537058000000002      23.881091999999999
  5568   8      11.284924999999999      2.3418909999999999               18.682371
  5569   1               10.538703      2.4419719999999998               19.278074
  5570   1               10.985229                 1.70387      18.029872999999998
  5571   8      27.047609000000001      35.639769000000001      12.937684000000001
  5572   1      27.469121000000001      36.481507000000001                12.74919
  5573   1      26.572033999999999               35.789811               13.758633
  5574   8               15.381553                14.79312      9.6615590000000005
  5575   1               15.083347      13.972497000000001               10.060779
  5576   1               15.806452               15.267484      10.380642999999999
  5577   8      40.956896999999998                1.385875               22.827772
  5578   1      40.808925000000002      2.1386829999999999      23.404928999999999
  5579   1      40.555354000000001      1.6423179999999999      21.993721000000001
  5580   8      36.468015000000001      24.593029000000001      31.549755999999999
  5581   1      36.562019999999997               25.420983      32.026600999999999
  5582   1      36.916873000000002      24.746614999999998               30.714544
  5583   8      1.7722979999999999               26.032028      7.7118909999999996
  5584   1      1.7987580000000001      26.875768000000001      7.2545869999999999
  5585   1                1.638531      26.264783999999999      8.6341560000000008
  5586   8      29.169201999999999      23.006803999999999      36.910718000000003
  5587   1                29.70234      22.633748000000001      36.204801000000003
  5588   1      29.809443000000002      23.295107999999999               37.566167
  5589   8      9.0267979999999994               19.887062      38.427430999999999
  5590   1      9.4296729999999993      20.749535999999999      38.302708000000003
  5591   1      8.4467540000000003      20.002061000000001               39.184376
  5592   8      6.9088820000000002      5.2263489999999999      28.116105999999998
  5593   1      6.2378289999999996      5.7828200000000001      28.518291000000001
  5594   1      7.5191460000000001      5.8458110000000003      27.708079000000001
  5595   8      33.251953999999998      5.0012119999999998      5.5949669999999996
  5596   1      33.586025999999997      5.8778160000000002      5.3907930000000004
  5597   1                33.81344      4.4082939999999997      5.0891770000000003
  5598   8               33.435921      27.835609999999999      40.359684999999999
  5599   1      33.244069000000003               26.921122      40.139164999999998
  5600   1      32.600593000000003      28.183450000000001      40.681981999999998
  5601   8               34.540734      27.926296000000001      29.116402000000001
  5602   1      35.043458000000001               27.147527      29.366423999999999
  5603   1      34.453671999999997      28.425923999999998               29.932143
  5604   8      7.6252550000000001      33.358158000000003      17.228846999999998
  5605   1      8.5338849999999997      33.557124999999999               17.466604
  5606   1                 7.13795      33.450051000000002      18.051483000000001
  5607   8      33.287590999999999      1.3774420000000001      37.394778000000002
  5608   1      32.987972999999997     0.47173799999999999      37.502730999999997
  5609   1      33.707028999999999                1.591224      38.232042999999997
  5610   8      17.080065999999999               14.545596      6.2114469999999997
  5611   1      17.879021999999999      14.175698000000001      5.8286030000000002
  5612   1      16.809595999999999               13.899716      6.8689619999999998
  5613   8               14.543478      39.541829999999997                0.941187
  5614   1               14.008765               39.883941      1.6614420000000001
  5615   1               14.431156      40.183432000000003                0.235231
  5616   8               20.389198               13.832037      31.330684999999999
  5617   1      19.523790000000002               13.574005      31.004781000000001
  5618   1      20.237518999999999               14.067361      32.249519999999997
  5619   8      29.842576999999999      1.2748710000000001      37.262050000000002
  5620   1      29.015443000000001     0.81040000000000001               37.409844
  5621   1               29.776802                2.059774               37.811816
  5622   8               31.072765      18.241658000000001      23.524550000000001
  5623   1      31.686088000000002      17.672387000000001      23.995177000000002
  5624   1               30.704611      17.679618999999999      22.838097000000001
  5625   8      39.046258000000002      4.7323649999999997                23.03941
  5626   1                38.40672      4.0763980000000002      22.752314999999999
  5627   1      39.659024000000002      4.2416600000000004               23.592914
  5628   8      5.3383190000000003      3.3682289999999999      30.461442999999999
  5629   1      5.8018799999999997      3.8794200000000001               31.128916
  5630   1      4.4233599999999997      3.3683619999999999      30.753831999999999
  5631   8               19.888209               26.918837      22.257294000000002
  5632   1      19.746023000000001               27.381238      21.428021000000001
  5633   1      20.808253000000001               27.092032      22.472152999999999
  5634   8      20.145433000000001      1.8873340000000001      33.494638999999999
  5635   1      19.186748999999999      1.9284779999999999      33.525565999999998
  5636   1      20.369589000000001      2.2065239999999999      32.616849999999999
  5637   8               14.387069      28.682556000000002      19.380178999999998
  5638   1                 14.8903      29.473925999999999      19.174707000000001
  5639   1               14.744109      28.013265000000001               18.790931
  5640   8      18.927136000000001               11.165816                0.316776
  5641   1      19.592223000000001               10.477817     0.23904900000000001
  5642   1      18.107779000000001               10.688986     0.47147099999999997
  5643   8      28.411442000000001      9.5517009999999996      3.7972359999999998
  5644   1      29.309318000000001      9.2463610000000003      3.6478679999999999
  5645   1      27.936077000000001      8.7658919999999991                4.078614
  5646   8      18.397811000000001               14.295057      35.567438000000003
  5647   1               18.030991               13.480964      35.920169000000001
  5648   1               19.195328               14.440166      36.082754999999999
  5649   8      13.151585000000001      22.542912999999999               11.749627
  5650   1               13.907206      22.352436999999998      11.188840000000001
  5651   1      13.372441999999999      23.376764999999999               12.172184
  5652   8               10.697637      23.287652000000001      37.762497000000003
  5653   1      9.8807650000000002      23.681229999999999      38.077998000000001
  5654   1      10.683293000000001               23.436833      36.813718000000001
  5655   8      17.198568000000002      39.106566999999998      12.814304999999999
  5656   1      17.767582000000001      39.049847999999997      13.585494000000001
  5657   1               17.773387      38.885722999999999               12.077112
  5658   8      19.124925000000001      36.580413999999998               15.150656
  5659   1      19.652425000000001      35.826185000000002      15.423799000000001
  5660   1      18.306180000000001      36.490242000000002               15.644788
  5661   8      7.9505119999999998      17.585768000000002                9.976483
  5662   1      7.0606650000000002      17.701122000000002      10.317939000000001
  5663   1      8.0166880000000003               16.644558      9.7965210000000003
  5664   8      18.410876999999999      26.046123000000001      10.927528000000001
  5665   1      18.930956999999999               25.308602      10.599952999999999
  5666   1      18.755845999999998      26.208151000000001      11.809222999999999
  5667   8      27.744838000000001      13.451696999999999      16.733191999999999
  5668   1      27.073305999999999               13.969647                17.18319
  5669   1      28.145475000000001               14.067124               16.114013
  5670   8      31.862466999999999      4.5835480000000004      16.155059999999999
  5671   1      32.709251999999999                4.167586               15.977136
  5672   1      31.944130000000001      4.9162629999999998      17.052430000000001
  5673   8      37.715026000000002                13.80528      34.813375000000001
  5674   1      36.870437000000003      13.946345000000001      34.379213999999997
  5675   1      38.122328000000003      14.675015999999999      34.830869999999997
  5676   8      14.796589000000001      39.532010999999997      33.157347999999999
  5677   1               14.232027      39.899796000000002      33.841254999999997
  5678   1               14.979649               40.273595      32.574953000000001
  5679   8      1.0790690000000001      28.627013000000002      29.233961999999998
  5680   1      1.7390639999999999      27.941839999999999               29.104848
  5681   1     0.48863099999999998      28.266760999999999      29.900479000000001
  5682   8      19.207212999999999               39.666058               22.478119
  5683   1               19.147955      40.624187999999997      22.492232999999999
  5684   1      19.957505999999999      39.481957999999999      21.907322000000001
  5685   8      21.625316000000002      8.2761800000000001      4.5160499999999999
  5686   1      22.226061999999999      8.1520209999999995      3.7775289999999999
  5687   1      21.913188999999999      7.6325659999999997      5.1683779999999997
  5688   8      28.762028999999998               22.817055               39.934756
  5689   1      28.680927000000001      23.662172000000002      39.486510000000003
  5690   1      28.800263999999999      22.172619000000001      39.223503000000001
  5691   8      40.033222000000002                7.640517                6.020575
  5692   1      40.758006999999999      8.0586040000000008      5.5498149999999997
  5693   1      39.541105999999999      7.1774500000000003      5.3379099999999999
  5694   8      22.588394999999998      26.273558999999999      31.674835000000002
  5695   1      23.187760999999998      26.995139000000002      31.470368000000001
  5696   1      22.916896000000001      25.536017000000001               31.154487
  5697   8                4.791639      22.740725999999999      26.932905000000002
  5698   1                4.055186      23.190201999999999      26.511794999999999
  5699   1      5.1624210000000001      22.189201000000001      26.239377000000001
  5700   8                 2.35988      13.993088999999999      12.522126999999999
  5701   1      1.7488509999999999               13.866209      13.251696000000001
  5702   1      1.8234870000000001               14.382268      11.826810999999999
  5703   8      8.0376709999999996      35.596063000000001      21.479413999999998
  5704   1      7.2457120000000002      35.142451000000001      21.777343999999999
  5705   1      8.7483620000000002      34.973410999999999      21.652228000000001
  5706   8               32.933481      9.6147089999999995      38.591718999999998
  5707   1      32.353673000000001               10.187239      38.084020000000002
  5708   1      32.363715999999997      9.2355350000000005      39.265689999999999
  5709   8      5.7558939999999996      7.2032590000000001                2.331607
  5710   1      6.3930410000000002      6.7850149999999996                2.915422
  5711   1      5.8071200000000003      6.6940099999999996                1.518783
  5712   8      33.314182000000002      8.1954410000000006      21.152356000000001
  5713   1      33.535947999999998                8.669886               21.956996
  5714   1               34.088946                7.657146               20.971736
  5715   8      36.423625999999999                 40.8887                1.463878
  5716   1      35.529591000000003      41.219734000000003                 1.57721
  5717   1      36.854833999999997      41.549368999999999     0.91595599999999999
  5718   8      23.279983000000001      27.830770999999999               20.614977
  5719   1               23.034696      28.758956999999999      20.609521999999998
  5720   1      22.777359000000001      27.455601000000001               21.342478
  5721   8               28.695929      33.294331999999997      13.675058999999999
  5722   1      28.534507999999999      34.089263000000003               13.161489
  5723   1               29.469427      32.898749000000002               13.265354
  5724   8      25.671061999999999               16.663878      36.755164999999998
  5725   1               26.344334      16.106259000000001      36.358313000000003
  5726   1               26.161071               17.256007      37.331288000000001
  5727   8               30.579196      4.7509730000000001      12.620316000000001
  5728   1               31.250003      4.4471290000000003               13.236288
  5729   1               30.509978      4.0430020000000004                11.97485
  5730   8      3.8373430000000002      1.0784849999999999      9.8199310000000004
  5731   1      3.5136970000000001      1.6171310000000001      9.0940949999999994
  5732   1      3.0443289999999998     0.81613899999999995               10.294216
  5733   8      17.503436000000001                3.850257      13.956058000000001
  5734   1      18.365158000000001      3.5441470000000002      13.663728000000001
  5735   1      17.416077999999999      4.7239829999999996      13.566682999999999
  5736   8      23.936112000000001               21.623123               25.062531
  5737   1      24.624376999999999      20.957229999999999               24.994678
  5738   1               23.627167      21.739477000000001      24.160502000000001
  5739   8                1.503169      27.654288999999999      21.771972999999999
  5740   1      2.4399220000000001      27.861730000000001      21.806432000000001
  5741   1                1.108924      28.220033999999998               22.440662
  5742   8      41.524296999999997      23.053647999999999                24.08455
  5743   1      41.999977000000001      23.849198999999999      24.334655000000001
  5744   1      41.998418000000001      22.723693000000001      23.317098999999999
  5745   8      19.823530000000002      38.421467999999997      38.678116000000003
  5746   1      19.695021000000001      39.358291999999999      38.512073999999998
  5747   1      19.151983000000001      38.200239000000003      39.328288000000001
  5748   8                6.044524      24.708279000000001      9.4060810000000004
  5749   1      5.1710500000000001      24.712506000000001      9.0076459999999994
  5750   1      5.8816199999999998      24.866420000000002               10.339406
  5751   8      28.166979999999999               30.321075     0.80235699999999999
  5752   1      29.122634999999999               30.247187     0.85702299999999998
  5753   1      27.912752000000001               30.741605                1.627683
  5754   8      34.854688000000003      28.689900999999999               11.207478
  5755   1      34.795797999999998               28.359278               10.308064
  5756   1      34.049222999999998      29.199280999999999      11.327477999999999
  5757   8      6.0812030000000004      35.917307000000001      28.644151000000001
  5758   1      6.9390150000000004               36.341918      28.569382000000001
  5759   1      5.5950059999999997               36.469217      29.261928999999999
  5760   8      32.601484999999997      9.0310319999999997      17.042950000000001
  5761   1      33.160091999999999      9.4599539999999998      16.390485999999999
  5762   1      32.942946999999997      8.1348599999999998      17.096997000000002
  5763   8      23.570084999999999      11.466784000000001      31.479302000000001
  5764   1               24.386243               10.963315               31.525454
  5765   1               22.896476      10.811318999999999      31.281165999999999
  5766   8               25.146379      22.769186000000001      3.9986519999999999
  5767   1      25.575914000000001      22.714293000000001      4.8555130000000002
  5768   1      24.962365999999999      23.704903000000002      3.8836930000000001
  5769   8               27.073649               40.344814      3.5223059999999999
  5770   1      27.974226000000002      40.272132999999997      3.1976460000000002
  5771   1      27.157157000000002      40.820703000000002      4.3524849999999997
  5772   8      28.634157999999999               12.625935      32.851334999999999
  5773   1      28.963405999999999               13.017503               33.663736
  5774   1      27.836981999999999               13.123647      32.652752999999997
  5775   8      36.774405999999999      36.356762000000003      2.1174539999999999
  5776   1      36.474127000000003      35.787953000000002      1.4047019999999999
  5777   1      37.732695999999997      36.306654999999999      2.0748799999999998
  5778   8      24.726631000000001      37.875534000000002      34.370410999999997
  5779   1      24.928122999999999      38.785004999999998      34.138055999999999
  5780   1      24.224616000000001      37.943558000000003      35.186497000000003
  5781   8      27.564481000000001      39.571927000000002                7.701975
  5782   1               28.375363      39.193568999999997      8.0498820000000002
  5783   1               27.797158               39.860903      6.8159749999999999
  5784   8                9.995082      21.094076000000001      20.798069999999999
  5785   1      9.4592039999999997      20.344318999999999      21.067187000000001
  5786   1      9.4834180000000003      21.515592000000002      20.102968000000001
  5787   8      8.3523429999999994      30.281479999999998               21.075671
  5788   1      7.7483310000000003      29.790310000000002      21.637495000000001
  5789   1      8.1494060000000008      29.980032999999999      20.186520000000002
  5790   8      26.362493000000001                3.262324               24.898577
  5791   1      26.875167999999999      3.4725600000000001               24.114556
  5792   1      25.449273000000002      3.3793880000000001      24.624777000000002
  5793   8      30.101285000000001      32.582591999999998      34.050593999999997
  5794   1      30.395458000000001      33.438080999999997      33.729149999999997
  5795   1      29.558188999999999      32.789158999999998      34.815458999999997
  5796   8      13.768803999999999      6.7793770000000002      5.9784920000000001
  5797   1      14.692356999999999      6.9351580000000004      6.1894609999999997
  5798   1      13.634061000000001      5.8480259999999999      6.1710330000000004
  5799   8      18.775822999999999      31.516069999999999      25.246231000000002
  5800   1               19.456612               32.067878      24.854109999999999
  5801   1               19.235308      31.018229000000002      25.927164000000001
  5802   8      33.494798000000003      20.063694000000002      33.090428000000003
  5803   1      33.129049000000002               19.613225      32.325553999999997
  5804   1      32.972991999999998      19.740777000000001      33.829402999999999
  5805   8      5.9013140000000002      32.105167999999999      13.731267000000001
  5806   1      6.3964809999999996      31.304155000000002      13.918117000000001
  5807   1      4.9991729999999999      31.802624000000002               13.599928
  5808   8      8.8305349999999994                14.67586                10.75207
  5809   1      9.6786300000000001      14.543112000000001      10.322141999999999
  5810   1      8.9800710000000006               15.410394               11.352686
  5811   8               13.899744      3.4995690000000002      14.010631999999999
  5812   1      13.104169000000001      3.3725710000000002      14.532799000000001
  5813   1               13.696925      4.2494009999999998               13.445603
  5814   8               32.768082                15.84038      40.387349999999998
  5815   1      33.610720000000001      15.418585999999999      40.571136000000003
  5816   1      32.902396000000003      16.758921000000001               40.634096
  5817   8      1.1876599999999999      22.143840999999998      25.427872000000001
  5818   1     0.41696499999999997      21.581174000000001      25.533522000000001
  5819   1                  1.9296      21.576554000000002      25.652266000000001
  5820   8               30.547998      36.124263999999997      30.249224999999999
  5821   1               30.359199      35.788780000000003      31.128730999999998
  5822   1               29.859769      35.745263000000001               29.696648
  5823   8      23.230240999999999               14.828529      4.1760549999999999
  5824   1      24.071874000000001               14.831261      4.6379760000000001
  5825   1      23.438593000000001      14.486734999999999      3.3028949999999999
  5826   8      36.375534000000002      3.4904489999999999      40.668756999999999
  5827   1      35.676121999999999      3.8073000000000001      41.245083999999999
  5828   1      36.447876000000001                2.554827               40.873745
  5829   8                7.410482      27.003883999999999               25.966379
  5830   1      7.7708550000000001      27.806874000000001      25.582889999999999
  5831   1      7.2326629999999996               27.235623      26.881430999999999
  5832   8      12.906219999999999               17.234983      22.525988999999999
  5833   1               12.062904                16.79325      22.650145999999999
  5834   1               13.101405               17.118261               21.592758
  5835   8      14.121271999999999      38.981485999999997      20.888580000000001
  5836   1      13.834433000000001      39.286571000000002               20.024652
  5837   1      13.423394999999999      38.387020999999997      21.175322999999999
  5838   8               28.301285               31.838417      25.040880000000001
  5839   1      27.892289999999999               31.977045      24.183423999999999
  5840   1               28.710604      32.682090000000002      25.249002999999998
  5841   8               12.391665      23.061986000000001      4.4404240000000001
  5842   1               13.222121      23.515222999999999                 4.27719
  5843   1                12.00592      23.531618999999999      5.1842569999999997
  5844   8      26.267199999999999               24.538542      26.067872999999999
  5845   1               26.612572      25.371946999999999      25.739422000000001
  5846   1               25.626624               24.792994      26.736871000000001
  5847   8      11.174754999999999      35.532017000000003      4.6630700000000003
  5848   1      12.109190999999999               35.602846      4.4544139999999999
  5849   1      10.793131000000001      35.089328000000002      3.9008159999999998
  5850   8      18.413246999999998      21.760120000000001      4.1040999999999999
  5851   1               19.025907               21.276581      3.5450270000000002
  5852   1      18.975573000000001      22.216194000000002      4.7353110000000003
  5853   8               22.881898      38.097079999999998     0.66088199999999997
  5854   1      23.612877000000001      37.500767000000003                0.482541
  5855   1      23.233993999999999      38.969932999999997                0.469057
  5856   8      4.8517599999999996      31.978705999999999               16.505841
  5857   1      4.6333310000000001      32.621417999999998               15.826919
  5858   1      4.0603059999999997      31.440712999999999               16.588341
  5859   8      34.877836000000002      20.091488999999999      15.461107999999999
  5860   1      35.093983000000001      20.748139999999999               16.127302
  5861   1      35.570056999999998      20.184083000000001               14.801641
  5862   8               21.589368      8.4813930000000006      36.358946000000003
  5863   1               22.492231      8.1722450000000002      36.463785000000001
  5864   1      21.653960999999999      9.4366509999999995      36.436089000000003
  5865   8      5.0619709999999998      38.211340999999997      26.323405999999999
  5866   1      5.0359170000000004      37.256396000000002      26.418945999999998
  5867   1      5.7537269999999996      38.492620000000002      26.927555999999999
  5868   8      3.2100559999999998      35.253208999999998      12.651973999999999
  5869   1      4.1348500000000001      35.050401999999998               12.492754
  5870   1      3.2026080000000001               36.193306               12.848958
  5871   8      38.284564000000003      5.8582890000000001      28.116745000000002
  5872   1      37.329838000000002      5.7827500000000001               28.049543
  5873   1      38.495401999999999      5.4665340000000002               28.968048
  5874   8      22.275956999999998      21.187353999999999      12.406518999999999
  5875   1      21.566528999999999      21.783018999999999      12.658747999999999
  5876   1      22.492764999999999               21.442501               11.506221
  5877   8      16.512519999999999                 1.12757      41.111306999999996
  5878   1      16.561471000000001                1.852322      40.483561000000002
  5879   1      17.237279000000001     0.54801299999999997      40.863359000000003
  5880   8      24.233861000000001      27.253257999999999     0.50936499999999996
  5881   1      23.796403000000002               26.838369                1.256508
  5882   1      23.518350999999999      27.642147999999999                       0
  5883   8      17.913979000000001               11.876752      26.178895000000001
  5884   1      18.648250000000001      11.868183999999999      25.560431000000001
  5885   1               17.599957      10.969042999999999               26.188772
  5886   8      18.929563000000002      10.772752000000001      39.402127999999998
  5887   1               18.713341               10.064133      40.012726999999998
  5888   1               19.431044      10.342199000000001      38.705146999999997
  5889   8      20.767876999999999      31.268775999999999      39.115434999999998
  5890   1               21.264419      31.229344999999999               38.294694
  5891   1               21.379469               30.941855      39.780054999999997
  5892   8      24.879708000000001     0.73930899999999999               40.589858
  5893   1      25.462357000000001      1.4948079999999999      40.696944000000002
  5894   1      25.473572999999998                       0      40.436926999999997
  5895   8      39.538823000000001      25.776420999999999      7.1600900000000003
  5896   1      40.063650000000003      26.543389999999999      6.9191729999999998
  5897   1      38.799171999999999      26.139233000000001      7.6539789999999996
  5898   8      36.929414999999999      3.9301309999999998      33.018785999999999
  5899   1      36.163325999999998      3.9867330000000001      32.442914000000002
  5900   1      36.755021999999997      4.5723940000000001      33.711409000000003
  5901   8      18.385086000000001      27.972484999999999               35.070594
  5902   1      17.760155000000001               27.775316      35.772243000000003
  5903   1      17.837872000000001      28.089763000000001      34.289923999999999
  5904   8      36.498773999999997      10.704204000000001      28.293482000000001
  5905   1                36.29683               11.372202               27.634148
  5906   1      35.763404000000001      10.747647000000001      28.909911999999998
  5907   8               22.720316      28.703862000000001      38.217168999999998
  5908   1               22.216586               29.001956                37.45617
  5909   1      22.275714000000001               29.103714      38.968893999999999
  5910   8      37.157876000000002                1.096449      38.722695999999999
  5911   1      37.768031999999998                0.369365               38.866861
  5912   1                37.62453      1.8683590000000001      39.052894000000002
  5913   8      24.977112999999999               31.334761      17.200185999999999
  5914   1      24.987683000000001      30.389886000000001               17.030407
  5915   1               25.549056               31.446216      17.963795999999999
  5916   8      18.011728999999999      20.430990000000001      9.3117330000000003
  5917   1      18.810064000000001               20.061736      8.9269750000000005
  5918   1      17.437124000000001      20.592735999999999      8.5591980000000003
  5919   8      3.1247440000000002      22.033021999999999                13.42027
  5920   1      3.8488570000000002      22.548874999999999               13.782598
  5921   1      3.5150260000000002      21.561281000000001      12.680146000000001
  5922   8      13.405575000000001               31.091137               14.732777
  5923   1               13.538166               30.240993               15.158687
  5924   1               13.241949      31.698540999999999      15.458676000000001
  5925   8      34.419029999999999      4.8559710000000003      39.254620000000003
  5926   1               35.248027      4.4970109999999996      38.929600999999998
  5927   1      34.664565000000003      5.3471339999999996      40.042726999999999
  5928   8               34.406253      16.202646999999999      13.601425000000001
  5929   1      34.595602999999997               15.587669               14.313938
  5930   1      33.618569999999998               15.846841      13.182380999999999
  5931   8      27.979233000000001      28.860928999999999      39.417395999999997
  5932   1      28.649052999999999      28.205577999999999      39.208635999999998
  5933   1      27.281459000000002                28.36007      39.847388000000002
  5934   8      4.7743460000000004      25.072005000000001      3.7644289999999998
  5935   1                 5.65801      24.759250999999999      3.5569470000000001
  5936   1      4.4923590000000004      25.533722999999998      2.9707409999999999
  5937   8               40.682921               23.319467      28.812785000000002
  5938   1      39.840363000000004               23.224577               29.263137
  5939   1      41.329650999999998               23.000235      29.447192999999999
  5940   8      41.328819000000003               28.087806      33.578724999999999
  5941   1      41.999823999999997      27.408432999999999      33.479083000000003
  5942   1      41.459781999999997      28.665050000000001      32.822232999999997
  5943   8      5.0400549999999997      23.737204999999999      12.007972000000001
  5944   1      4.0899539999999996      23.708981000000001      11.872930999999999
  5945   1      5.3614629999999996               22.923295      11.611879999999999
  5946   8      11.929828000000001      38.643524999999997               12.249485
  5947   1      11.939315000000001      39.014356999999997      13.134988999999999
  5948   1                11.13134      38.998657000000001               11.850811
  5949   8      30.462976000000001               11.955667      22.119783999999999
  5950   1               30.282473               11.481392               22.934773
  5951   1      30.676497999999999               11.266814      21.485330000000001
  5952   8               11.973492      12.142497000000001      17.287178000000001
  5953   1               11.248151                12.70574      17.567112000000002
  5954   1               11.594021      11.588933000000001               16.600002
  5955   8      2.6073550000000001      22.327487999999999               10.733924
  5956   1                2.153025      21.625540000000001      10.262142000000001
  5957   1      1.9035420000000001      22.910665999999999      11.029210000000001
  5958   8      41.335078000000003      12.020536999999999      25.589700000000001
  5959   1      41.313625000000002               12.859672      26.055658999999999
  5960   1                      42               12.143556      24.907506999999999
  5961   8               11.107037      18.779672000000001      33.555861999999998
  5962   1               11.889265      18.247123999999999      33.393883000000002
  5963   1               11.440332      19.564603000000002      33.997945999999999
  5964   8               18.284184      17.470573999999999      19.245208999999999
  5965   1      18.846306999999999      17.498729999999998      20.022994000000001
  5966   1      18.258376999999999                16.54138      19.003188000000002
  5967   8      34.116225999999997      25.229969000000001      39.512372999999997
  5968   1      33.284517000000001      24.829194000000001      39.775742999999999
  5969   1      34.628107999999997      24.501695999999999      39.151488999999998
  5970   8      22.721861000000001      31.745826000000001               10.004355
  5971   1               22.992051      31.860617000000001      9.0902729999999998
  5972   1      23.530505999999999                31.50536               10.463606
  5973   8      16.690041999999998               19.595727      18.410492999999999
  5974   1               16.299132      18.878088999999999               17.906599
  5975   1      16.818798999999999      19.228069999999999      19.288498000000001
  5976   8      4.1909679999999998      25.030353000000002      6.1001969999999996
  5977   1      3.2625850000000001      25.213761999999999                6.262035
  5978   1      4.5979780000000003               25.898114      6.0371499999999996
  5979   8      33.764156999999997     0.55682100000000001      4.1583810000000003
  5980   1      34.153851000000003      1.4033260000000001      4.3892350000000002
  5981   1      34.250779999999999     0.27472800000000003      3.3797519999999999
  5982   8               19.879299      26.245975999999999      5.5267179999999998
  5983   1      20.145444999999999      26.570858999999999      6.3900499999999996
  5984   1                19.41262               26.984544      5.1275060000000003
  5985   8      35.593482999999999               23.702496      26.932545000000001
  5986   1      35.967593000000001      22.819261000000001      26.891767999999999
  5987   1      34.643684999999998      23.560085999999998               26.916898
  5988   8      34.837778999999998      7.1782180000000002      36.187728999999997
  5989   1      34.761955999999998      8.0090380000000003      36.662823000000003
  5990   1      35.153624000000001      7.4298900000000003      35.316209000000001
  5991   8               10.676558      33.347727999999996      24.069399000000001
  5992   1               10.333511      33.250311000000004      23.178021000000001
  5993   1                10.80129      32.446263000000002      24.376719000000001
  5994   8      40.042372999999998      17.995370000000001      2.6816659999999999
  5995   1      40.917327999999998               18.315555                2.913313
  5996   1      39.448296999999997      18.493707000000001      3.2485659999999998
  5997   8      3.4901070000000001      6.1440270000000003      9.5722529999999999
  5998   1      3.4425859999999999      5.7597950000000004      8.6937130000000007
  5999   1      3.6621039999999998      7.0760199999999998                9.415896
  6000   8               27.040868      34.015242999999998               33.870227
  6001   1      27.840551999999999      34.472625999999998      34.140469000000003
  6002   1      26.807148999999999               34.419387      33.030771999999999
  6003   8      24.486115000000002               24.495445               36.226132
  6004   1      24.377490000000002               23.552111      36.367716000000001
  6005   1               23.841199                24.90025      36.811673999999996
  6006   8               32.807485      32.676648999999998      40.477620000000002
  6007   1      32.143281000000002      33.304174000000003               40.772188
  6008   1               32.912267               32.862409      39.541054000000003
  6009   8      9.6108309999999992      28.454222999999999      24.540258999999999
  6010   1      9.5335769999999993      27.532025000000001      24.284704999999999
  6011   1               10.273897      28.454312000000002      25.235230999999999
  6012   8      29.240985999999999      24.984909999999999      34.370524000000003
  6013   1               28.963293      24.407586999999999               35.085583
  6014   1      29.949853000000001               24.503225               33.936785
  6015   8      40.494742000000002      38.626846999999998      25.020295999999998
  6016   1      41.414732999999998      38.804893999999997               25.229198
  6017   1      40.133245000000002      39.485109999999999      24.785036999999999
  6018   8      31.112241999999998      8.6306270000000005      8.0286799999999996
  6019   1      31.728103000000001      8.5830839999999995      8.7636489999999991
  6020   1      31.578303999999999      8.2134619999999998      7.2997069999999997
  6021   8                6.856611      35.432302999999997               23.962688
  6022   1      6.7762529999999996      35.758690000000001      24.861986999999999
  6023   1      7.7672059999999998      35.620007999999999      23.721388999999999
  6024   8      18.865487999999999      41.155692999999999      7.0548789999999997
  6025   1      18.808796000000001                      42      6.6013859999999998
  6026   1               18.583869      41.347982000000002      7.9528530000000002
  6027   8      6.8444969999999996      3.3233450000000002      37.773519999999998
  6028   1      7.7568720000000004      3.0556199999999998      37.906261999999998
  6029   1      6.5778230000000004      2.8708290000000001      36.969309000000003
  6030   8      21.005375999999998      13.912789999999999      3.0167860000000002
  6031   1      20.353639999999999      13.253743999999999      2.7665410000000001
  6032   1      21.520358000000002               13.488495      3.7077339999999999
  6033   8      35.725844000000002               31.080593      31.926888000000002
  6034   1      35.335790000000003      30.961957999999999      31.057687999999999
  6035   1      36.535983000000002      31.568936999999998      31.760041000000001
  6036   8      41.121339999999996      23.266090999999999                0.493975
  6037   1      41.999999000000003               23.004769                0.208679
  6038   1      41.242956999999997      23.562294000000001      1.3995770000000001
  6039   8      17.504591000000001               24.196894      39.994992000000003
  6040   1               16.963884                24.06945               39.211973
  6041   1      17.576979000000001      23.319908000000002      40.380085000000001
  6042   8                 1.70326      29.757221999999999      34.116594999999997
  6043   1      2.5566040000000001      30.073886999999999      34.421970000000002
  6044   1      1.9113579999999999      28.981127000000001      33.590274000000001
  6045   8      37.839843999999999      21.495636000000001      29.976482000000001
  6046   1      37.787607999999999      21.855937999999998      29.088125000000002
  6047   1      37.930151000000002      20.548473000000001               29.844697
  6048   8               39.287118               15.644828      24.425350999999999
  6049   1      39.215763000000003      14.936996000000001               25.070027
  6050   1      38.384053000000002               15.793885      24.133980000000001
  6051   8      26.822144000000002               29.923195      6.2125519999999996
  6052   1      26.445284000000001               30.747332      5.8955359999999999
  6053   1      27.058119000000001      30.104641000000001                7.125807
  6054   8      34.867305999999999      16.827691999999999               20.003145
  6055   1      34.224299000000002               17.512203      20.202421000000001
  6056   1      35.154366000000003      17.023623000000001      19.107683999999999
  6057   8      2.4480170000000001      25.832788000000001      18.497630000000001
  6058   1                1.786494               25.166839      18.296074000000001
  6059   1      3.1546560000000001      25.344456000000001      18.927555000000002
  6060   8               25.770007      29.866959000000001      34.575187999999997
  6061   1               25.749406      30.179822999999999      33.667765000000003
  6062   1      25.691981999999999      28.912535999999999      34.500154000000002
  6063   8               13.809993      22.425526000000001      36.115665999999997
  6064   1      14.109292999999999      21.824466999999999      36.801867999999999
  6065   1      13.126531999999999      21.935808999999999      35.651229999999998
  6066   8               13.900487      19.608301000000001               33.021811
  6067   1               14.087574      18.683344000000002               33.198383
  6068   1      13.423052999999999      19.600110999999998      32.188364999999997
  6069   8      1.5483180000000001      41.670442000000001      2.5408559999999998
  6070   1      1.6298299999999999      41.120319000000002                3.323445
  6071   1     0.73497500000000004      41.373969000000002      2.1246619999999998
  6072   8      35.371540000000003     0.79541399999999995      36.708820000000003
  6073   1      36.068601000000001     0.59930300000000003               36.078446
  6074   1      35.564225999999998                1.687808               37.007396
  6075   8      9.2371169999999996                6.370768      29.193567999999999
  6076   1      9.7120709999999999      5.5579409999999996      29.381865999999999
  6077   1      9.3775189999999995      6.9148940000000003      29.972577999999999
  6078   8      9.0947569999999995      30.833276999999999      25.274218000000001
  6079   1      8.4890519999999992      30.115148000000001      25.472052000000001
  6080   1      8.9905399999999993      30.980008000000002      24.330687000000001
  6081   8      1.9522569999999999      12.023167000000001      37.018126000000002
  6082   1      2.2399650000000002      12.855505000000001      37.400436999999997
  6083   1                1.434474               11.608138      37.712600000000002
  6084   8      8.1835159999999991      7.2729090000000003               15.122598
  6085   1      7.3366689999999997      7.2707389999999998               14.670304
  6086   1      8.3269570000000002      6.3544700000000001      15.364542999999999
  6087   8      28.158695999999999      1.6511420000000001               18.187479
  6088   1               27.267979                1.994629      18.085671000000001
  6089   1      28.721654999999998      2.3337469999999998      17.813621000000001
  6090   8                15.92262      22.427751000000001               38.168512
  6091   1               15.564969      23.205310000000001      37.733525999999998
  6092   1      16.185936999999999      21.850867999999998      37.447046999999998
  6093   8               30.015483                33.76397                10.45923
  6094   1      29.749082000000001      33.227547000000001      9.7088929999999998
  6095   1      29.930199000000002               33.176631      11.214479000000001
  6096   8      35.487653000000002               20.931068      34.208069999999999
  6097   1      35.671340000000001      20.341484000000001      33.472968000000002
  6098   1      35.476593999999999      20.356366999999999      34.977640000000001
  6099   8      20.204526999999999                2.802063               23.961827
  6100   1      19.491136000000001      3.2762180000000001      24.395386999999999
  6101   1      19.970365000000001                1.875847      24.061492999999999
  6102   8      25.619903000000001      2.2427049999999999      37.471411000000003
  6103   1               24.775572      1.8409059999999999      37.689098000000001
  6104   1      25.913702000000001      2.6410279999999999      38.294612999999998
  6105   8                 6.42875                12.82713      40.603667999999999
  6106   1      7.3309139999999999      12.692532999999999      40.304150999999997
  6107   1                 5.95479               13.104621      39.815631000000003
  6108   8      29.300578000000002      39.781252000000002                1.347729
  6109   1      30.024180999999999      39.151392000000001                1.310317
  6110   1      29.641100999999999      40.562230999999997     0.90415400000000001
  6111   8      27.427689000000001      32.833905000000001      35.718922999999997
  6112   1               26.608096                 32.4651      35.381320000000002
  6113   1      27.696698999999999               32.223827      36.410356999999998
  6114   8               24.579901      37.336633999999997      38.385612999999999
  6115   1      25.372333999999999      37.679493000000001      37.965825000000002
  6116   1      24.523057999999999      36.427436999999998      38.081029000000001
  6117   8      1.9529829999999999     0.93545400000000001               40.197823
  6118   1                1.134155      1.4250579999999999      40.305221000000003
  6119   1                2.607707      1.6078060000000001      39.993077999999997
  6120   8      9.2397379999999991      27.019767999999999      18.498370000000001
  6121   1      8.5092689999999997      27.475559000000001      18.923099000000001
  6122   1      8.8221369999999997               26.312929      17.999742000000001
  6123   8                4.953551      9.0981629999999996      4.0043470000000001
  6124   1      4.4796430000000003      8.2654759999999996                3.942949
  6125   1      5.3296150000000004      9.2235490000000002      3.1294200000000001
  6126   8      13.737932000000001               15.002564      19.761150000000001
  6127   1      14.049386999999999                15.55664               19.041622
  6128   1               13.004343               14.510989      19.383206000000001
  6129   8               31.803621      8.4655159999999992               14.320898
  6130   1      31.810096999999999      8.1053130000000007      15.210807000000001
  6131   1      32.119784000000003                9.366422               14.426024
  6132   8               23.506262      7.9290969999999996               31.400782
  6133   1      22.791934000000001      8.5432039999999994               31.586074
  6134   1      23.977222999999999      8.3264870000000002      30.663952999999999
  6135   8                 3.44462               13.770479      28.968920000000001
  6136   1      2.8029540000000002      14.478953000000001               28.879175
  6137   1      4.1688989999999997               14.030543      28.394089999999998
  6138   8      22.964773999999998      12.004115000000001      12.699146000000001
  6139   1                23.84055      12.155875999999999               13.062063
  6140   1               23.106347      11.369498999999999               11.992137
  6141   8      28.578257000000001      30.161543000000002      9.1537579999999998
  6142   1      28.824383000000001      29.914705000000001      8.2592099999999995
  6143   1      27.859808000000001                30.78867      9.0389309999999998
  6144   8      28.506471000000001      26.879895999999999               27.525012
  6145   1      27.984404999999999      27.631948999999999               27.235892
  6146   1               27.855255      26.218858999999998      27.773185000000002
  6147   8      16.583659000000001               22.909419               28.902531
  6148   1               15.744301      23.375163000000001      28.885601999999999
  6149   1      16.486170999999999      22.218250999999999      28.242664000000001
  6150   8                4.332999      5.8719419999999998      23.477419999999999
  6151   1      4.9974059999999998                6.556457      23.369122000000001
  6152   1      4.2502490000000002      5.7683660000000003                24.42877
  6153   8      23.507822999999998      28.848510999999998               34.229194
  6154   1      23.391625000000001      27.934823999999999      33.958269999999999
  6155   1      23.056706999999999      28.905532000000001      35.075293000000002
  6156   8               39.540101      2.9400770000000001      17.325938000000001
  6157   1      39.522151000000001      2.9959820000000001                16.36767
  6158   1      40.276887000000002                2.354117      17.516829000000001
  6159   8      2.9132549999999999               17.642208      24.589887000000001
  6160   1                3.367016      18.478680000000001      24.716930999999999
  6161   1      3.4902419999999998               16.993202      25.000398000000001
  6162   8      3.6474510000000002      33.397871000000002               30.813606
  6163   1      4.5419280000000004      33.173096999999999               30.546934
  6164   1      3.6950569999999998      34.328301000000003      31.047433000000002
  6165   8      32.494041000000003      2.9451610000000001      11.516133999999999
  6166   1      33.365710999999997      3.2781750000000001      11.290262999999999
  6167   1      32.072310999999999                2.786314               10.667869
  6168   8      8.7975510000000003               24.409229      19.683606000000001
  6169   1      8.4741309999999999      23.609466999999999                20.10492
  6170   1      8.1338790000000003                25.07236      19.889614000000002
  6171   8      11.393288999999999      6.9879249999999997               24.469925
  6172   1      10.806494000000001                7.580635      23.994433000000001
  6173   1               12.231605      7.0599660000000002      24.006592000000001
  6174   8      25.819970999999999      37.780439999999999      20.155737999999999
  6175   1      24.961936999999999      38.142003000000003               19.921699
  6176   1      26.439959999999999      38.483987999999997      19.947711999999999
  6177   8               34.105083      41.020240999999999      21.825143000000001
  6178   1      33.850574999999999      41.944305999999997      21.769888000000002
  6179   1      34.230333999999999      40.863185000000001      22.764444999999998
  6180   8               12.374283      7.5550680000000003      31.335972999999999
  6181   1      11.469188000000001      7.7756189999999998               31.103842
  6182   1               12.849473      8.3862830000000006               31.259041
  6183   8               28.313347      3.0235859999999999               10.419449
  6184   1      28.879581000000002      3.7988819999999999               10.423909
  6185   1      28.503336999999998                2.594395      9.5813919999999992
  6186   8      2.4382069999999998      36.173645999999998      22.188155999999999
  6187   1      2.3806569999999998      35.239153000000002               21.975704
  6188   1      3.0731700000000002      36.215922999999997      22.907654000000001
  6189   8               31.722275      24.825745000000001                1.102214
  6190   1      30.960736000000001      25.279779000000001     0.73392500000000005
  6191   1               31.366705               24.323373      1.8396650000000001
  6192   8      19.363589999999999      22.849989000000001      35.168377999999997
  6193   1      19.336424999999998               22.891019               36.127181
  6194   1      20.271398999999999      23.071391999999999      34.945878999999998
  6195   8                13.57278      2.5034260000000002                10.65671
  6196   1                13.57034      3.1273810000000002               11.386367
  6197   1               13.836202                1.670523               11.056115
  6198   8      16.712109000000002      14.649844999999999      26.827732999999998
  6199   1      16.905149000000002      15.587343000000001      26.753191999999999
  6200   1               15.870872               14.615658      27.290112000000001
  6201   8      22.098403999999999                20.09468      24.402408000000001
  6202   1      21.957491000000001      19.148520000000001      24.483954000000001
  6203   1      21.816095000000001               20.451566      25.248325999999999
  6204   8      23.938459999999999      41.050544000000002      20.407506000000001
  6205   1      23.796682000000001                      42               20.394924
  6206   1      24.708397000000001      40.917019000000003      19.848928000000001
  6207   8      1.3098669999999999      3.6386270000000001               40.617956
  6208   1     0.36658299999999999      3.7843010000000001      40.721497999999997
  6209   1                1.583745      3.2480959999999999      41.451694000000003
  6210   8      9.5447039999999994      37.629297999999999               13.628482
  6211   1      10.347009999999999               37.385804      13.160785000000001
  6212   1      9.8162789999999998      37.699699000000003      14.547140000000001
  6213   8               19.261301      22.934871000000001      12.072122999999999
  6214   1      18.464103000000001      22.466871000000001      11.812939999999999
  6215   1      18.951647000000001      23.804607000000001      12.337294999999999
  6216   8      5.2958499999999997      15.130869000000001      9.6541149999999991
  6217   1      5.9588159999999997      14.436462000000001      9.6539140000000003
  6218   1      4.5735799999999998               14.770797      10.174996999999999
  6219   8               15.445471      21.564264999999999                26.40756
  6220   1      14.625859999999999               21.965529      26.109314000000001
  6221   1               15.194685      20.673878999999999               26.666328
  6222   8      24.535647999999998      29.515153000000002               23.998248
  6223   1      24.505399000000001      30.389597999999999      23.603082000000001
  6224   1      24.663423999999999               29.681403      24.935625999999999
  6225   8      37.135902999999999                 3.68662               12.614868
  6226   1      36.960182000000003      2.8218749999999999      12.993105999999999
  6227   1      37.883256000000003      3.5431089999999998      12.028771000000001
  6228   8      36.739820000000002      36.410134999999997      41.473688000000003
  6229   1      36.471583000000003      35.648868999999998      40.953833000000003
  6230   1      37.630164999999998      36.198068999999997      41.765160000000002
  6231   8      30.802796000000001               22.500705      18.468219999999999
  6232   1      29.946898000000001               22.121271                18.25563
  6233   1      31.433976999999999      21.822925000000001      18.213529999999999
  6234   8      29.876549000000001      2.7434099999999999      35.618892000000002
  6235   1      29.085408000000001      3.1712590000000001      35.954700000000003
  6236   1      30.135816999999999                3.279401      34.865144000000001
  6237   8      8.9661209999999993                33.86168                 2.11774
  6238   1      9.1555459999999993      33.119779000000001      1.5385800000000001
  6239   1                8.403969      34.436751000000001      1.5924590000000001
  6240   8      34.085147999999997      6.8603120000000004      32.639524000000002
  6241   1      33.614069999999998      7.0895780000000004      33.444040999999999
  6242   1      34.360048999999997      7.7054609999999997               32.275115
  6243   8      1.0320860000000001      7.7424059999999999      9.8150049999999993
  6244   1                1.469722      8.1787039999999998      10.549746000000001
  6245   1      1.5758220000000001      7.9562549999999996                  9.0526
  6246   8      9.8489730000000009      12.867684000000001               12.895932
  6247   1      8.9041630000000005               12.716481               12.974646
  6248   1      9.9222090000000005      13.607063999999999               12.287165
  6249   8               37.900081      9.1168870000000002      39.239789000000002
  6250   1      38.785913000000001      8.9443099999999998      38.912308000000003
  6251   1      37.984127999999998      9.9359260000000003               39.734513
  6252   8      17.692775000000001      29.276911999999999               17.759456
  6253   1      16.864177000000002      29.604617000000001      18.116890000000001
  6254   1      17.942879999999999      29.929504999999999      17.100508000000001
  6255   8      30.274380000000001      6.1125259999999999               15.979246
  6256   1      30.551953999999999      6.7485030000000004      16.642728999999999
  6257   1      30.176653000000002      6.6319730000000003      15.177206999999999
  6258   8               18.776249      17.390159000000001      29.008611999999999
  6259   1      19.071453000000002      18.288081999999999      28.840343000000001
  6260   1      19.472626000000002      16.837990999999999      28.644179000000001
  6261   8      34.518014000000001               31.332037      18.696518999999999
  6262   1      35.462336999999998      31.189261999999999      18.598562000000001
  6263   1      34.450297999999997      32.060023999999999      19.319489999999998
  6264   8      16.459109000000002               28.089095      29.094086999999998
  6265   1      16.512882000000001               28.993941      29.410450999999998
  6266   1      17.331348999999999      27.910274000000001      28.733723000000001
  6267   8               17.433629      7.3074219999999999      8.5691679999999995
  6268   1               16.802353      7.1687580000000004      7.8592469999999999
  6269   1               17.222628      6.6259249999999996      9.2123489999999997
  6270   8      8.8741230000000009      6.4183479999999999               26.347268
  6271   1      9.8036130000000004      6.1809620000000001               26.309555
  6272   1      8.4288500000000006      5.7153900000000002      25.867450999999999
  6273   8               11.651932      35.123032000000002      25.337603000000001
  6274   1               12.063319      34.329892999999998      25.688911000000001
  6275   1               11.760012      35.776029000000001               26.033704
  6276   8      16.338750999999998      3.8173750000000002               11.876291
  6277   1               15.508504                 3.63245               12.321508
  6278   1               16.122138      3.7768609999999998               10.941369
  6279   8      31.532136000000001      7.8025209999999996      31.637886000000002
  6280   1      31.700113999999999      7.8025840000000004      32.583142000000002
  6281   1      31.081644000000001                6.969792               31.475832
  6282   8               15.728123      20.984031000000002      20.834530999999998
  6283   1      15.644486000000001      20.351133000000001               21.551589
  6284   1      16.667435000000001      20.994344000000002      20.633960999999999
  6285   8      31.224257000000001               20.680837      16.258475000000001
  6286   1      30.419612000000001               20.854298      16.752624000000001
  6287   1      31.554269999999999      21.552596999999999      16.026596999999999
  6288   8      35.906973000000001      18.760100999999999      2.8821349999999999
  6289   1      36.751097000000001      18.609027999999999      3.3138269999999999
  6290   1      35.777033000000003               17.982263      2.3337500000000002
  6291   8               25.317902      20.212789999999998      31.368511999999999
  6292   1                24.44483      19.821604000000001      31.288247999999999
  6293   1      25.543441999999999      20.478252999999999      30.473355999999999
  6294   8      21.355734999999999      21.665413000000001      22.917235000000002
  6295   1      20.854514999999999      21.807967999999999               22.110896
  6296   1      21.611152000000001               22.547677      23.198332000000001
  6297   8      19.040271000000001               20.480632               27.581954
  6298   1      19.632756000000001      21.233367999999999      27.645779000000001
  6299   1      18.171987999999999      20.843668000000001      27.774132999999999
  6300   8      8.6501090000000005               24.111812      36.259422000000001
  6301   1      8.2283950000000008      23.262402000000002      36.409036999999998
  6302   1      8.9858759999999993      24.056387000000001      35.361184999999999
  6303   8      34.100900000000003      38.832313999999997      40.007786000000003
  6304   1      34.548569000000001               39.644472      39.759357000000001
  6305   1      33.545062000000001      39.083789000000003      40.749707999999998
  6306   8      25.751411999999998                6.934266      15.514616999999999
  6307   1      25.108879999999999      7.0871789999999999      16.211390999999999
  6308   1               25.942622      7.8102970000000003               15.170161
  6309   8               27.139239               35.186366      36.611623999999999
  6310   1               27.716704               34.584975      37.087636000000003
  6311   1      27.387322999999999      36.057746999999999      36.930672999999999
  6312   8               25.337132      26.149954000000001      29.352841999999999
  6313   1      26.138487000000001      26.675222999999999      29.292445000000001
  6314   1      24.868676000000001      26.515612000000001               30.107485
  6315   8               14.203229      36.364238999999998      24.083469000000001
  6316   1      14.552205000000001      36.145941000000001               24.950813
  6317   1      14.493164999999999      37.267046999999998      23.930116999999999
  6318   8               22.662578      35.141872999999997                1.093564
  6319   1      23.420580000000001               34.599207     0.86406000000000005
  6320   1      21.961348000000001      34.828054999999999     0.51698999999999995
  6321   8      7.2152859999999999      28.483474000000001                17.22616
  6322   1      7.5804499999999999      27.691535999999999      16.824646000000001
  6323   1      7.9831029999999998      29.024025999999999      17.428405999999999
  6324   8      14.377776000000001      31.304441000000001      17.554366000000002
  6325   1      14.601737999999999      32.145606000000001      17.149387000000001
  6326   1      15.106764999999999      30.724920000000001      17.319051999999999
  6327   8      10.732310999999999      6.0809930000000003      8.7114250000000002
  6328   1               11.165697      6.8000579999999999      9.1770929999999993
  6329   1      11.413244000000001      5.4092640000000003      8.6233819999999994
  6330   8      5.6700910000000002      28.679034000000001      25.385480000000001
  6331   1      5.1560810000000004      29.484003000000001               25.483172
  6332   1      5.2295910000000001      28.044142999999998      25.956019000000001
  6333   8      20.367498000000001      23.939278999999999      32.916682000000002
  6334   1      19.470006999999999               23.602058      32.966855000000002
  6335   1      20.327542000000001      24.624445999999999      32.244677000000003
  6336   8      35.681525999999998                1.180212               22.014225
  6337   1      34.974274999999999      1.8267709999999999      21.955203999999998
  6338   1      36.270927999999998      1.4047670000000001      21.289778999999999
  6339   8      1.2969790000000001      39.589925999999998      38.865850999999999
  6340   1      1.4656990000000001      38.888191999999997      39.498958999999999
  6341   1                0.468163               39.340868      38.449106999999998
  6342   8     0.62574300000000005      35.924405999999998               19.956757
  6343   1     0.72625700000000004      36.441659999999999      19.154216999999999
  6344   1      1.2916700000000001      36.276848999999999      20.552548000000002
  6345   8      20.159027999999999      21.516788999999999      32.686903000000001
  6346   1      20.878965999999998      21.796068000000002      33.257354999999997
  6347   1      20.372026000000002      21.896737000000002      31.830798999999999
  6348   8               30.886388      36.786354000000003      38.115278000000004
  6349   1               31.305577      36.155220999999997      37.525635999999999
  6350   1      30.181736000000001      36.287591999999997                 38.5364
  6351   8               10.375619      22.017316999999998      26.613831000000001
  6352   1               10.264464      21.237981000000001      27.163381000000001
  6353   1                9.723668      21.912165000000002               25.916304
  6354   8      30.090969999999999               23.643252      10.666175000000001
  6355   1      30.368963999999998      24.051151000000001               11.489621
  6356   1      29.843568000000001                 24.3828               10.105369
  6357   8      8.5747250000000008               27.234271                0.416437
  6358   1      9.1935479999999998      26.904253000000001      1.0720829999999999
  6359   1      7.9058400000000004      27.694078000000001     0.93006299999999997
  6360   8      24.114052000000001      17.985008000000001      14.852532999999999
  6361   1               24.762967      17.277798000000001      14.874636000000001
  6362   1      23.367671000000001      17.639334000000002      15.348584000000001
  6363   8                1.171306      17.640744000000002      7.1467650000000003
  6364   1      1.0469360000000001      17.472650000000002      8.0837830000000004
  6365   1     0.28812700000000002      17.828140999999999      6.8188639999999996
  6366   8               35.257683               17.361653      30.894200999999999
  6367   1      35.032310000000003               16.522112      31.301759000000001
  6368   1      36.072277999999997      17.626612000000002      31.328796000000001
  6369   8      11.939596999999999      4.2145440000000001      30.894092000000001
  6370   1      12.379695999999999                3.395934               30.653437
  6371   1      12.510586999999999      4.6052730000000004      31.560383999999999
  6372   8      11.235366000000001               25.936425      28.544270999999998
  6373   1               10.290763      26.059633999999999      28.663724999999999
  6374   1      11.462070000000001               26.521618      27.817087000000001
  6375   8     0.73620699999999994               16.995711      31.490138000000002
  6376   1     0.60483799999999999      16.302658999999998               30.838873
  6377   1                       0               17.596684      31.350591999999999
  6378   8      35.457796999999999      12.157724999999999               10.878288
  6379   1      35.001179999999998      11.607480000000001               11.518957
  6380   1      35.068094000000002               11.914821               10.034623
  6381   8      34.385128000000002      17.615521000000001      24.159317000000001
  6382   1      34.452080000000002               18.204383               24.914621
  6383   1      34.815843000000001      18.093022999999999               23.445791
  6384   8      21.168195999999998      9.1325400000000005               11.463101
  6385   1      20.579232999999999      8.6662680000000005               12.060962
  6386   1      21.757483000000001      9.6220789999999994               12.042527
  6387   8      15.210986999999999      9.8159399999999994      13.244490000000001
  6388   1                14.71673      10.563045000000001      13.589842000000001
  6389   1      14.775342999999999      9.0472059999999992               13.621193
  6390   8      17.106386000000001      2.3204449999999999      20.926525999999999
  6391   1      16.610281000000001      3.1228389999999999      21.104766000000001
  6392   1               17.737181                2.575758               20.248621
  6393   8      6.6155410000000003      23.574867000000001                5.617216
  6394   1      5.8660670000000001      23.193429999999999      5.1540540000000004
  6395   1      6.8029390000000003      22.950334000000002                 6.32254
  6396   8      33.067669000000002      37.264493000000002      30.881544000000002
  6397   1               33.156461      37.537748000000001               29.965481
  6398   1      33.177010000000003      38.075785000000003      31.384029000000002
  6399   8      38.313934000000003      40.958604999999999                2.650909
  6400   1      39.261803999999998      40.824522999999999                2.578176
  6401   1      38.188194000000003      41.293340999999998      3.5424150000000001
  6402   8      10.509467000000001      36.921886999999998      39.828895000000003
  6403   1      10.476554999999999      37.878748000000002      39.757770000000001
  6404   1               11.184657      36.659008999999998      39.198295000000002
  6405   8      27.695650000000001               11.511922      4.7733410000000003
  6406   1      28.532454000000001               11.325906      5.2056389999999997
  6407   1               27.077043               10.897948      5.1770769999999997
  6408   8      2.2390539999999999               25.040578                4.279255
  6409   1                1.472504               25.266565      3.7472240000000001
  6410   1      2.6915170000000002      24.363416999999998                3.769968
  6411   8      34.586388999999997               15.545152      38.041397000000003
  6412   1      35.076616000000001      15.276006000000001      37.261035999999997
  6413   1      34.691329000000003      16.499469999999999      38.071514999999998
  6414   8      9.5924420000000001      34.933013000000003      19.795034999999999
  6415   1      10.233086999999999      34.368702999999996      19.355886000000002
  6416   1      8.7404130000000002      34.592449999999999      19.510947999999999
  6417   8      29.098614999999999      18.540891999999999      7.6740930000000001
  6418   1               29.525855      18.550643000000001      8.5337999999999994
  6419   1      29.733924999999999      18.958950999999999                7.087364
  6420   8      22.482085000000001               11.139339      8.7170539999999992
  6421   1      21.837658000000001      11.845114000000001      8.6258379999999999
  6422   1      22.290583000000002               10.750957      9.5744500000000006
  6423   8      24.071826999999999      9.2912199999999991      22.654426000000001
  6424   1      24.538651000000002      9.6584629999999994      23.408702999999999
  6425   1      24.042369000000001      10.010795999999999      22.018827999999999
  6426   8               10.849527      30.958797000000001               37.233604
  6427   1               10.603629               30.030977      37.253807999999999
  6428   1      11.663633000000001      31.000817000000001               37.741647
  6429   8      27.201727000000002      36.879117000000001      8.5056460000000005
  6430   1      26.418707000000001      37.382657999999999      8.2710159999999995
  6431   1      27.149442000000001      36.788106999999997      9.4604370000000007
  6432   8      30.534126000000001               14.850517               30.974269
  6433   1      31.442799999999998               15.142115               31.079189
  6434   1      30.547405000000001               14.309707      30.180551000000001
  6435   8               23.354357      33.295889000000003      17.680963999999999
  6436   1               23.494816      33.609366999999999               18.577472
  6437   1      24.191254000000001      33.457360000000001      17.238050000000001
  6438   8      36.748399999999997      6.6403030000000003               23.454321
  6439   1      36.054288999999997      7.2708240000000002      23.660181999999999
  6440   1               36.281236      5.8766740000000004               23.106081
  6441   8      6.4021319999999999               10.911163      5.3116120000000002
  6442   1      5.6757249999999999               10.440194      5.7266380000000003
  6443   1      6.7379100000000003               10.298453      4.6524599999999996
  6444   8               11.076103      10.533575000000001               32.810972
  6445   1               11.192333                9.781936      32.225093000000001
  6446   1               10.219661      10.894652000000001      32.568542000000001
  6447   8      41.082092000000003      1.3626229999999999      1.7048160000000001
  6448   1      41.069603999999998      1.4723139999999999     0.75111899999999998
  6449   1      41.999993000000003                1.505312      1.9492309999999999
  6450   8               33.406267      1.1000209999999999      26.027384000000001
  6451   1      32.846136999999999     0.46012700000000001      25.581834000000001
  6452   1      33.861375000000002      1.5556209999999999      25.314679999999999
  6453   8               31.334083      34.321731999999997      27.360147000000001
  6454   1      30.837630999999998      35.133012000000001               27.490855
  6455   1      30.987552000000001      33.959530999999998      26.540776000000001
  6456   8               18.827271               25.701853      17.478729000000001
  6457   1      18.334599000000001               26.087197      18.207090000000001
  6458   1               18.377063      24.872693000000002      17.298594999999999
  6459   8      1.9674499999999999               21.200554                5.658792
  6460   1      1.1296740000000001      20.869572999999999                 5.99092
  6461   1      1.7699860000000001               22.091669      5.3595199999999998
  6462   8      8.8809719999999999               12.666838      15.706474999999999
  6463   1      9.5166920000000008      13.339949000000001      15.960456000000001
  6464   1      9.2415160000000007      12.290736000000001               14.899507
  6465   8      7.5930840000000002      19.984497000000001               15.456794
  6466   1      8.0537209999999995      20.318736000000001               14.683603
  6467   1      7.8894630000000001      20.550454999999999      16.174075999999999
  6468   8      32.098635999999999               28.606078                31.01446
  6469   1      31.180219999999998      28.832073999999999      31.179272999999998
  6470   1      32.498998999999998      29.430306999999999               30.726364
  6471   8      7.0703810000000002      11.756221999999999               12.002352
  6472   1                6.909402      12.660845999999999               12.280681
  6473   1      6.2767059999999999      11.510203000000001               11.520483
  6474   8      8.8543629999999993      38.905591999999999      32.370603000000003
  6475   1      8.0684260000000005               39.456716      32.387653999999998
  6476   1      9.1424029999999998      38.929346000000002      31.454574000000001
  6477   8      38.478214999999999      25.745190000000001      2.7057760000000002
  6478   1               39.142488      26.393032999999999                2.952283
  6479   1      38.549675000000001      25.062795999999999      3.3779910000000002
  6480   8      38.173102999999998      2.1057389999999998               23.003335
  6481   1      38.543501999999997      2.1502270000000001      23.887954000000001
  6482   1               37.449866      1.4781629999999999               23.078958
  6483   8      22.435455000000001               16.461945      22.672826000000001
  6484   1      23.205818000000001      16.953026999999999      22.967960999999999
  6485   1      21.689295000000001      16.998657000000001               22.951798
  6486   8                0.856742      11.738490000000001      5.3660399999999999
  6487   1     0.14505999999999999                12.36293      5.5251289999999997
  6488   1     0.56617899999999999      10.930878999999999      5.7972929999999998
  6489   8               10.043934      27.996867999999999      40.326560999999998
  6490   1               10.278592      27.391286000000001      41.033617999999997
  6491   1      9.1038840000000008               28.152417      40.448020999999997
  6492   8      7.7709910000000004      9.2481819999999999               34.197457
  6493   1                8.396566      8.5674119999999991      33.938746000000002
  6494   1                6.912649      8.8231190000000002               34.125259
  6495   8                2.481554      36.648280999999997      17.547557000000001
  6496   1      1.5789899999999999      36.900145000000002      17.338588000000001
  6497   1      3.0090870000000001               37.056314      16.856283000000001
  6498   8      29.539104999999999      12.918018999999999      40.687007000000001
  6499   1      29.184674000000001      12.316428999999999      40.028075000000001
  6500   1      28.767365000000002               13.223989      41.170166000000002
  6501   8               19.818849      38.182023999999998      3.3974510000000002
  6502   1      18.993746999999999      38.672071000000003      3.3694109999999999
  6503   1               20.459823               38.770885      2.9912019999999999
  6504   8      17.061606000000001      34.601078000000001      7.2783379999999998
  6505   1      16.941977000000001      34.421346999999997      8.2138120000000008
  6506   1               16.413646      35.282333999999999      7.0816670000000004
  6507   8      9.2996040000000004      37.139961999999997      21.319959000000001
  6508   1      9.4519120000000001      38.085008000000002      21.246373999999999
  6509   1                10.11636      36.741850999999997      21.008414999999999
  6510   8      3.0534940000000002      16.317765999999999      8.9662240000000004
  6511   1      3.9150019999999999               16.737247      9.0259250000000009
  6512   1      3.2303329999999999      15.467205999999999      8.5564459999999993
  6513   8      16.603100999999999               13.703583      39.205787000000001
  6514   1      17.033812999999999      13.544936999999999      38.362552999999998
  6515   1               16.707715               12.878276      39.685960999999999
  6516   8      39.793979999999998      6.2412679999999998               14.510235
  6517   1      38.885148999999998                6.457592               14.288978
  6518   1      39.719830000000002      5.5831379999999999               15.205942
  6519   8      35.605561999999999               18.285539               27.608231
  6520   1      34.850833000000002      18.872361000000001      27.696259999999999
  6521   1      35.872863000000002      18.376957999999998      26.690170999999999
  6522   8      37.449210000000001      31.970407000000002               34.716175
  6523   1      36.955393000000001      31.206202999999999      35.022544000000003
  6524   1      36.888494000000001               32.361846      34.041626999999998
  6525   8               13.355458      5.0281330000000004               37.264305
  6526   1                12.62186      4.4109340000000001      37.213067000000002
  6527   1                13.72831      4.8833479999999998      38.137610000000002
  6528   8      35.170440999999997      8.8108789999999999      7.8774680000000004
  6529   1               35.722082      9.4667840000000005      7.4447950000000001
  6530   1      34.555312999999998      9.3269760000000002      8.4046330000000005
  6531   8      26.242242999999998               31.144603      38.688501000000002
  6532   1      25.940892999999999      32.038535000000003      38.866819999999997
  6533   1      25.626957999999998      30.585211999999999      39.169280999999998
  6534   8      18.525487999999999               23.540416      9.3652300000000004
  6535   1      17.920947000000002      24.193280999999999      9.0046440000000008
  6536   1      19.363551000000001      23.728262999999998      8.9351070000000004
  6537   8      40.131830000000001      2.6051760000000002               13.263897
  6538   1      40.051623999999997      2.7019510000000002      14.215699000000001
  6539   1      40.115535000000001                1.655834      13.118548000000001
  6540   8      40.965004999999998      3.7271320000000001                1.787447
  6541   1      40.376060000000003      4.3960379999999999                1.430471
  6542   1      40.465204999999997      3.3270040000000001      2.5035059999999998
  6543   8      39.919449999999998               39.246299      31.206935000000001
  6544   1      40.717283000000002      39.756312999999999      31.365279999999998
  6545   1      39.644437000000003      38.956484000000003               32.080444
  6546   8                16.63203      24.105833000000001      32.336609000000003
  6547   1               15.837294               24.527096      32.000964000000003
  6548   1      16.308651999999999                23.44087      32.949710000000003
  6549   8      21.079931999999999               25.948131               27.061273
  6550   1      20.315252000000001      26.161311999999999      27.601220000000001
  6551   1      20.902329999999999      25.062097999999999      26.735627000000001
  6552   8      25.019625999999999      4.1915110000000002      14.979658000000001
  6553   1               24.386578      4.6003530000000001               15.574489
  6554   1      25.530284000000002      4.9273069999999999               14.632564
  6555   8      30.049893000000001      10.696700999999999      36.679051999999999
  6556   1      30.470431999999999      11.491428000000001      37.015625999999997
  6557   1      30.290400000000002               10.013985      37.310476999999999
  6558   8      21.859984000000001               25.921332     0.58579300000000001
  6559   1      21.146564999999999      26.185161999999998  9.9999999999999995e-07
  6560   1      22.524533999999999      25.550035000000001                       0
  6561   8      8.0225329999999992      10.559673999999999      41.242491999999999
  6562   1      7.9215559999999998      11.237920000000001      41.914437999999997
  6563   1      8.6308279999999993               10.943469      40.605843999999998
  6564   8               34.761364      5.6921109999999997                28.36673
  6565   1      34.705280000000002      6.4986879999999996      27.849029999999999
  6566   1      34.503936000000003      4.9977559999999999      27.754975999999999
  6567   8               17.862244      18.166716000000001      41.239834000000002
  6568   1               18.516295               18.143742      40.537399999999998
  6569   1      17.019774999999999      18.204954000000001      40.780023999999997
  6570   8      3.1041650000000001      4.2242170000000003      29.399851999999999
  6571   1      2.5875689999999998      3.8169960000000001      30.099156000000001
  6572   1                2.743903                5.111313      29.322956000000001
  6573   8      34.352198999999999      22.107631000000001      35.752445999999999
  6574   1      33.524242999999998               22.522592               35.499423
  6575   1      34.110816999999997      21.507183000000001      36.462262000000003
  6576   8      10.602093999999999               16.552491      36.973985999999996
  6577   1      10.205099000000001               15.859294      37.506525000000003
  6578   1      9.9643949999999997      17.270223999999999      37.003014999999998
  6579   8      33.018374000000001               26.909295               26.816941
  6580   1      33.363362000000002      27.499206999999998      26.142617000000001
  6581   1      32.128205000000001      26.703195999999998      26.520690999999999
  6582   8               22.762286      39.000450999999998               13.824121
  6583   1               22.202911      39.412787999999999      14.486542999999999
  6584   1               22.712736      38.061630000000001      14.021102000000001
  6585   8      36.843358000000002                4.464645      16.880248999999999
  6586   1      37.001953999999998                3.775884      17.530003000000001
  6587   1      37.380408000000003      4.2091060000000002               16.125982
  6588   8      27.871548000000001                       0               41.344313
  6589   1               27.545534     0.90286299999999997      41.327593999999998
  6590   1      28.673425999999999    0.026231999999999998      40.816160000000004
  6591   8      7.1672450000000003      12.416999000000001               31.300459
  6592   1      7.1700679999999997               13.152434      30.683327999999999
  6593   1      6.5780700000000003               11.772375      30.900490000000001
  6594   8      7.8034400000000002               15.426532               31.380737
  6595   1      7.6205889999999998      15.151713000000001      32.282271999999999
  6596   1      8.1763809999999992      16.307116000000001                 31.4709
  6597   8      6.4343180000000002               11.660786      20.150342999999999
  6598   1      6.0374949999999998      10.788441000000001      20.207536000000001
  6599   1      6.3102369999999999               12.037006      21.025389000000001
  6600   8      13.979411000000001      39.607073999999997      8.2828119999999998
  6601   1      13.411689000000001      40.375580999999997      8.1889310000000002
  6602   1      14.820100999999999      39.884748999999999      7.9102819999999996
  6603   8      32.960071999999997      25.201478000000002      28.202432000000002
  6604   1               32.159672      25.666723999999999               28.456657
  6605   1      32.672558000000002      24.585806999999999      27.523516000000001
  6606   8      21.625499000000001      10.891287999999999      19.019027999999999
  6607   1               21.195363      11.700177999999999      18.731964999999999
  6608   1               21.059051      10.555203000000001      19.718188999999999
  6609   8      37.454540999999999      6.6751849999999999      16.986605999999998
  6610   1      37.530301999999999      6.9664849999999996      16.074943000000001
  6611   1               38.028582      7.2702260000000001      17.475529999999999
  6612   8      35.803809999999999                1.614527      1.8863780000000001
  6613   1      36.597056000000002      1.3076669999999999      2.3317130000000001
  6614   1      36.129266000000001      2.1871369999999999                1.187209
  6615   8      33.463979000000002      9.8768530000000005      30.484317999999998
  6616   1      33.978504999999998      9.6202030000000001      29.715475999999999
  6617   1      32.586013999999999      9.5278890000000001      30.310984999999999
  6618   8      21.786217000000001      25.929683000000001      29.272276999999999
  6619   1      21.332280999999998      26.669937999999998      29.681775999999999
  6620   1      21.360648999999999      25.153355999999999      29.644901000000001
  6621   8      7.5616849999999998      5.2932170000000003      22.201879000000002
  6622   1      6.9408430000000001      5.9619470000000003               22.500342
  6623   1      7.9946270000000004      5.6917010000000001                21.44266
  6624   8      41.653078000000001      39.339892999999996      2.8558750000000002
  6625   1               41.519472      39.983578000000001      3.5555479999999999
  6626   1      41.165182999999999      39.695219000000002      2.1086510000000001
  6627   8      3.3748339999999999      39.433681999999997      36.351173000000003
  6628   1      3.0369959999999998      38.813456000000002      35.700857999999997
  6629   1      2.9126620000000001      39.204838000000002               37.161524
  6630   8               11.511585      40.381053999999999      9.3788789999999995
  6631   1      11.019443000000001      39.572426999999998      9.5390180000000004
  6632   1      11.021338999999999      40.824497000000001      8.6819860000000002
  6633   8               36.813609               40.573985               40.855618
  6634   1                37.05771      40.088858999999999      40.063915999999999
  6635   1                37.29466      41.402420999999997      40.785437999999999
  6636   8               21.916898      6.5514809999999999               12.234256
  6637   1      22.342459000000002      6.4208809999999996                11.38363
  6638   1               22.422891      7.2550650000000001      12.648483000000001
  6639   8      7.4979310000000003               10.023958               31.879192
  6640   1      6.6221500000000004               10.006081      32.272146999999997
  6641   1      8.0091590000000004               10.591239      32.461841999999997
  6642   8      18.745038000000001               40.382714      30.682853000000001
  6643   1      18.807548000000001      40.648243999999998               31.603348
  6644   1      18.951771999999998      41.180785999999998      30.189917999999999
  6645   8      35.853000000000002      29.229271000000001      28.156459999999999
  6646   1      36.490250000000003               29.947288      28.147030000000001
  6647   1      36.269722999999999      28.533850000000001               27.641316
  6648   8      9.3399590000000003               35.026626      37.414254999999997
  6649   1      8.4386460000000003      35.086024000000002      37.088937999999999
  6650   1      9.3885070000000006      35.692371000000001      38.104956000000001
  6651   8     0.10814500000000001      18.054908999999999      24.795943000000001
  6652   1     0.92762199999999995      18.462022999999999      25.086531000000001
  6653   1     0.31007600000000002               17.116813               24.753014
  6654   8      18.114153000000002                7.392989      22.576733999999998
  6655   1               17.370721      6.9976200000000004      23.037946999999999
  6656   1      18.783473999999998      6.7040860000000002      22.568743000000001
  6657   8               19.985491      2.8812519999999999      3.7397429999999998
  6658   1      19.116796999999998      3.2730860000000002                3.856198
  6659   1      19.959672000000001      2.0817640000000002      4.2715259999999997
  6660   8                1.159027      24.383168999999999      33.087690000000002
  6661   1                1.515242               25.237689      32.833464999999997
  6662   1                1.617969      23.756022000000002      32.523153000000001
  6663   8      6.0419970000000003      8.8955610000000007      41.390582999999999
  6664   1      5.6517999999999997      9.7687139999999992      41.474699999999999
  6665   1      6.7843809999999998      8.9064460000000008                      42
  6666   8               27.932064               21.410926      23.226320000000001
  6667   1               28.655811      21.673729999999999      23.799773999999999
  6668   1               27.835469      22.143937999999999      22.613129000000001
  6669   8      38.857067000000001                 1.87476                2.002402
  6670   1      38.732950000000002      1.0279609999999999                1.567372
  6671   1      38.385418999999999      2.4999419999999999      1.4462200000000001
  6672   8      9.7674160000000008               12.031416      27.934526999999999
  6673   1      10.297770999999999      12.815130999999999      28.096520000000002
  6674   1      10.200087999999999      11.599697000000001      27.193543999999999
  6675   8               28.415568      29.310759000000001      35.999979000000003
  6676   1      27.531659999999999      29.028334000000001      35.753669000000002
  6677   1      28.680088999999999               28.694029                36.68723
  6678   8      10.552910000000001      26.976347000000001               10.741711
  6679   1                11.43139      27.202300999999999      11.056264000000001
  6680   1      10.383285000000001               27.605359      10.035869999999999
  6681   8               34.019703      28.247085999999999     0.39318900000000001
  6682   1      34.854579000000001               28.138382     0.85458900000000004
  6683   1      34.076676999999997                29.12162                 1.4e-05
  6684   8      40.650101999999997      18.546835999999999      10.483776000000001
  6685   1      41.371960000000001               19.119636      10.214430999999999
  6686   1      40.106310999999998      18.462312000000001      9.6965090000000007
  6687   8               16.365599               10.082817      39.414014999999999
  6688   1      16.153286000000001      9.2331749999999992      39.020623000000001
  6689   1      16.485140999999999      9.8901869999999992      40.347420999999997
  6690   8      16.698188999999999      40.088222000000002      28.470044999999999
  6691   1               16.491927      40.970405999999997      28.152343999999999
  6692   1               15.978852      39.876781000000001      29.070454000000002
  6693   8               12.211952                13.95166      2.1298490000000001
  6694   1               12.118205                14.33273      1.2536510000000001
  6695   1               11.423608               13.414424      2.2417989999999999
  6696   8      18.398119000000001      33.277453999999999      15.042745999999999
  6697   1               17.447284      33.332251999999997      14.921779000000001
  6698   1               18.528309               32.469586               15.545779
  6699   8      34.140054999999997      16.112262999999999      27.619005999999999
  6700   1      34.348657000000003               15.256511      28.000972999999998
  6701   1      34.231532000000001      16.728421000000001      28.350186000000001
  6702   8               10.433154      31.394770000000001               14.445077
  6703   1      11.066649999999999      31.006419000000001      15.053017000000001
  6704   1      9.6160569999999996               30.919819               14.616593
  6705   8               25.088611      34.406320000000001                7.076492
  6706   1      24.192426999999999                 34.1952      6.8044500000000001
  6707   1      25.249441000000001      33.834853000000003      7.8316090000000003
  6708   8      7.5124029999999999               18.223803               13.916228
  6709   1      8.1691299999999991               17.753632               14.435241
  6710   1      6.6809450000000004      18.039854999999999               14.360619
  6711   8      17.323305000000001      16.767468000000001      11.741123999999999
  6712   1      18.069303000000001               16.750007                 12.3452
  6713   1      17.656760999999999               17.222216      10.963528999999999
  6714   8               24.800991      1.4934350000000001      23.628374999999998
  6715   1               25.210144      1.9672750000000001      22.900504000000002
  6716   1      24.226876000000001     0.85184400000000005      23.202470999999999
  6717   8               11.159352      33.542827000000003      38.218960000000003
  6718   1               11.862105      33.011977999999999      38.601140000000001
  6719   1      11.337509000000001      34.433928999999999      38.530150999999996
  6720   8      16.539293000000001      9.7464890000000004      35.351882000000003
  6721   1      16.534794999999999      10.402950000000001      36.052427000000002
  6722   1      17.458117000000001      9.6984680000000001      35.076022000000002
  6723   8      8.9221389999999996      21.243673000000001      2.0380400000000001
  6724   1      9.6439520000000005      21.086742999999998                2.651297
  6725   1      8.1739350000000002               20.784519      2.4279250000000001
  6726   8      29.772501999999999      40.430411999999997               16.155652
  6727   1      29.150867000000002      40.427101999999998               16.887283
  6728   1      29.442827999999999      41.113039000000001               15.565756
  6729   8      9.8456600000000005      3.4584069999999998      40.195698999999998
  6730   1      10.537997000000001      2.7933599999999998      40.206037000000002
  6731   1      9.4362320000000004      3.3629519999999999      39.332045000000001
  6732   8      22.365922000000001      27.957827999999999      9.1949579999999997
  6733   1      21.676183000000002      28.466567000000001      8.7623270000000009
  6734   1      22.327611000000001      28.236871000000001               10.113277
  6735   8      33.334856000000002      38.167423999999997                22.38617
  6736   1      32.863263000000003      38.885885000000002      21.958221999999999
  6737   1      32.756593000000002      37.407487000000003               22.282484
  6738   8      31.311820000000001      3.1854429999999998      24.315156000000002
  6739   1      32.176523000000003                3.227109      23.900092999999998
  6740   1      31.013124999999999      2.2868279999999999      24.154178000000002
  6741   8      41.173476999999998      13.498428000000001      17.899425000000001
  6742   1      41.810597999999999               12.831688               18.166369
  6743   1      40.651071999999999      13.069354000000001      17.217054000000001
  6744   8               17.093394      34.065494999999999                1.523406
  6745   1      17.721661000000001      33.345750000000002                1.618126
  6746   1      16.346088999999999      33.671101999999998      1.0666439999999999
  6747   8      22.536428999999998               12.764745      5.5728119999999999
  6748   1      21.909361000000001      12.055823999999999      5.7338789999999999
  6749   1               23.139937      12.723337000000001      6.3189380000000002
  6750   8      4.9747070000000004                3.217937               24.104993
  6751   1      4.1889609999999999      3.5826099999999999      24.518927000000001
  6752   1                5.164803      3.8207710000000001               23.381739
  6753   8               20.084287      16.503108000000001                 37.8553
  6754   1      20.313528999999999                15.83248      37.207664999999999
  6755   1      20.539861999999999      16.227969000000002      38.654919999999997
  6756   8      23.356943999999999      24.999535000000002      10.521186999999999
  6757   1      23.885968999999999      24.731584999999999      11.276210000000001
  6758   1      23.986574000000001               25.408251      9.9218890000000002
  6759   8               22.387283      15.290604999999999      20.161176999999999
  6760   1      22.764493000000002               14.704442      20.821366000000001
  6761   1      21.698059000000001      14.767632000000001                19.74391
  6762   8      21.043952999999998               20.110111      10.230024999999999
  6763   1      21.323011000000001      19.907243999999999      9.3340920000000001
  6764   1      21.533487999999998      19.491524999999999      10.778066000000001
  6765   8               19.503598      22.854900000000001     0.37430999999999998
  6766   1      19.000475999999999               22.281972     0.95770299999999997
  6767   1               19.761609      23.594270000000002     0.93055200000000005
  6768   8                4.087466      28.670870000000001      23.951136000000002
  6769   1      3.9104969999999999      29.508939999999999               23.517495
  6770   1      3.6500029999999999      28.018982999999999      23.397680999999999
  6771   8      14.436038999999999      4.9401020000000004      2.6509559999999999
  6772   1               15.188309      5.5267020000000002      2.7591920000000001
  6773   1      14.542319000000001      4.5764389999999997                1.768292
  6774   8      38.114682999999999      28.395935000000001      1.0034879999999999
  6775   1      37.842528000000001      27.486858999999999      1.1492199999999999
  6776   1      38.382962999999997      28.419616999999999    0.081476000000000007
  6777   8                 3.39872      14.907241000000001      6.3391409999999997
  6778   1      4.2447379999999999               14.587501      6.6612359999999997
  6779   1      3.0857559999999999               14.209519      5.7578670000000001
  6780   8      15.298640000000001      11.147392999999999      6.5578649999999996
  6781   1               15.875159      11.915058999999999      6.5516249999999996
  6782   1      15.892041000000001               10.404676      6.6952990000000003
  6783   8      4.8869360000000004               21.111891      21.731218999999999
  6784   1      4.6086419999999997      22.025805999999999      21.826280000000001
  6785   1      4.1540609999999996      20.601476999999999      22.084790999999999
  6786   8      6.5601029999999998               21.203011      4.4896010000000004
  6787   1                6.600473               20.428476      3.9237479999999998
  6788   1      6.4561339999999996      20.846081999999999      5.3752829999999996
  6789   8      14.140746999999999               31.813827      24.472577000000001
  6790   1      14.192591999999999      31.449169000000001      23.585975999999999
  6791   1               13.398301      31.356529999999999               24.875435
  6792   8                6.073315      16.562442000000001      35.590575999999999
  6793   1      5.1307900000000002      16.612995000000002      35.766120000000001
  6794   1      6.3229899999999999               15.681497      35.880817999999998
  6795   8      18.913350000000001               28.497823      7.0208050000000002
  6796   1               18.055754               28.858926      7.2571490000000001
  6797   1                19.22231      29.063690999999999      6.3087809999999998
  6798   8      11.253280999999999      3.7398250000000002               12.072846
  6799   1               10.658994      4.4217000000000004      12.394705999999999
  6800   1               11.598941                3.329339               12.869503
  6801   8      26.804490999999999      18.667632000000001      29.259423999999999
  6802   1                26.96726      17.725961000000002      29.351545999999999
  6803   1      26.294654000000001      18.743300000000001      28.448879999999999
  6804   8      1.2286379999999999      15.674785999999999      32.972411000000001
  6805   1     0.46536300000000003                15.09548      32.912905000000002
  6806   1                1.727085               15.336347      33.720509999999997
  6807   8      13.320792000000001      38.170442999999999               25.739414
  6808   1               12.550701      37.597285999999997                25.75264
  6809   1               14.012914      37.649469000000003      26.154378000000001
  6810   8      40.304906000000003      27.475193999999998      38.884850999999998
  6811   1      39.821319000000003      27.166771000000001      38.114952000000002
  6812   1      40.777841000000002      28.251373999999998      38.574176000000001
  6813   8               18.472604      33.189725000000003               26.953225
  6814   1      17.629104999999999      32.731337000000003      26.963878999999999
  6815   1               18.238142      34.119083000000003               26.890266
  6816   8      19.145582000000001                26.98434      9.0485779999999991
  6817   1      18.866852999999999      26.639296999999999      8.1971209999999992
  6818   1               18.699061      27.831769000000001      9.1201819999999998
  6819   8      26.221869000000002                22.32048      38.653748999999998
  6820   1      25.483713000000002      21.803868000000001      38.322141999999999
  6821   1      26.571142999999999      21.798169999999999      39.380276000000002
  6822   8      34.519317999999998      22.963760000000001      32.788196999999997
  6823   1      34.720393000000001      23.030498000000001      33.724595000000001
  6824   1      35.048158999999998      22.222245999999998      32.483029999999999
  6825   8      28.991783000000002               30.359237      28.505057999999998
  6826   1      28.756388000000001      31.092383999999999               27.931638
  6827   1      28.148783000000002               30.018798      28.815048999999998
  6828   8                1.705714      34.996946999999999               35.842565
  6829   1                2.659043      34.928052999999998      35.752329000000003
  6830   1      1.3615250000000001      34.306820000000002      35.269939999999998
  6831   8                7.068384               10.553353      14.609018000000001
  6832   1                6.899845      9.6131659999999997               14.705805
  6833   1      6.4887430000000004      10.967086999999999      15.253596999999999
  6834   8      22.073851000000001               28.388586      23.722076000000001
  6835   1      22.571059000000002      28.662268000000001      24.496418999999999
  6836   1               22.311871      29.029288999999999      23.047177000000001
  6837   8      40.863850999999997      30.711528999999999      26.600172000000001
  6838   1      40.879759999999997      29.759544999999999      26.723455999999999
  6839   1      39.949134000000001      30.908591999999999               26.383143
  6840   8      2.1570550000000002      7.7111489999999998      6.4395959999999999
  6841   1      2.1694209999999998      6.9955129999999999      7.0794680000000003
  6842   1      2.0241060000000002      8.5017619999999994      6.9686500000000002
  6843   8      18.314792000000001      28.374037999999999               11.659376
  6844   1      18.000437999999999      28.711089999999999      12.501576999999999
  6845   1      18.492508000000001      29.161463000000001      11.138780000000001
  6846   8      6.9210520000000004      39.780614999999997                9.296977
  6847   1                7.594347      40.440530000000003      9.4783950000000008
  6848   1      7.0870009999999999      39.513975000000002      8.3892290000000003
  6849   8      40.099912000000003                5.222874               17.444606
  6850   1      40.569023999999999      4.7025430000000004      16.788164999999999
  6851   1      39.200132000000004      5.2713270000000003      17.111903000000002
  6852   8               14.853868      17.768802000000001      2.2409520000000001
  6853   1      14.153015999999999               17.118475      2.3281689999999999
  6854   1               14.395778      18.586058000000001      2.0290849999999998
  6855   8      20.467324999999999      7.5080200000000001               20.264198
  6856   1      20.645250000000001                8.451397      20.274536999999999
  6857   1      20.287783000000001      7.3093430000000001      19.341736999999998
  6858   8      21.142952000000001      32.235168999999999               18.294546
  6859   1               21.261671      33.133384999999997      18.612096999999999
  6860   1               21.517128      32.243611999999999      17.409918999999999
  6861   8                1.841124      11.737289000000001      12.634937000000001
  6862   1                1.220664      11.145175999999999               12.203479
  6863   1      2.2396729999999998               11.202548               13.326205
  6864   8      2.5021460000000002      20.375333999999999               30.703536
  6865   1                  1.6636               20.692667      30.360220999999999
  6866   1      2.2577229999999999      19.775127999999999               31.412516
  6867   8      4.5529229999999998      5.3623339999999997                30.63626
  6868   1      3.7833969999999999      5.4463600000000003      31.204146999999999
  6869   1      4.9242920000000003      6.2476450000000003      30.605409000000002
  6870   8      31.017614999999999               39.033991      37.826756000000003
  6871   1      31.826090000000001      39.126314999999998               37.317276
  6872   1      30.917321000000001      39.880108999999997      38.270228000000003
  6873   8                25.18272      23.618359000000002                1.564255
  6874   1      25.772946999999998      23.262094999999999     0.89609799999999995
  6875   1               24.346135      23.174168999999999                1.404685
  6876   8      30.541409999999999      41.301644000000003      30.739394000000001
  6877   1      30.409828000000001                      42      31.384924999999999
  6878   1      31.453952999999998      41.405729999999998      30.458193999999999
  6879   8      11.556426999999999      39.075088999999998      20.101673000000002
  6880   1      11.339430999999999      38.260330000000003      20.560808999999999
  6881   1               11.626343      38.817456999999997      19.178971000000001
  6882   8               38.988056      33.582059000000001      33.400556000000002
  6883   1               38.649079      33.077247999999997      32.657598999999998
  6884   1      38.233077999999999      34.090209000000002      33.707855000000002
  6885   8      29.376608999999998      8.5214970000000001      9.9158930000000005
  6886   1      28.867218000000001      8.0861199999999993                10.60342
  6887   1      28.960809999999999      8.2404320000000002      9.0968959999999992
  6888   8               25.378321                3.764319                6.725581
  6889   1      25.453226999999998                3.268494      5.9068800000000001
  6890   1      25.343153000000001      3.0910139999999999      7.4097340000000003
  6891   8      35.814605999999998      34.873789000000002      22.571874999999999
  6892   1               34.861818      34.796621000000002      22.482624999999999
  6893   1      35.967638999999998      35.814754000000001      22.689385000000001
  6894   8               19.433767      30.239954000000001               21.964292
  6895   1      19.828841000000001               30.877347               22.563768
  6896   1      19.823786999999999               30.442397      21.110158999999999
  6897   8               10.193997      28.073523999999999               37.321565
  6898   1      9.4845000000000006      27.427675000000001               37.286662
  6899   1               10.919143      27.608388000000001      37.746363000000002
  6900   8      16.594570999999998      37.723702000000003               34.541069
  6901   1               16.124824      37.084555999999999      35.081952999999999
  6902   1               16.256304               38.575004      34.830035000000002
  6903   8      13.056050000000001      34.276851999999998      34.888706999999997
  6904   1               13.925438      33.880896999999997      34.793266000000003
  6905   1               12.500892      33.782693000000002      34.280225999999999
  6906   8               13.804406               34.430056      9.6260639999999995
  6907   1      14.741009999999999      34.301214000000002      9.7930910000000004
  6908   1               13.523247      33.614705000000001      9.2032240000000005
  6909   8               13.214324      33.879846999999998      40.960968000000001
  6910   1      12.353224000000001      34.290849999999999                40.85463
  6911   1               13.170119      33.452562999999998      41.820104999999998
  6912   8               11.450002      1.6954340000000001      36.338157000000002
  6913   1               12.048969                1.279944      36.962921999999999
  6914   1               12.008969      1.9334039999999999      35.594135999999999
  6915   8               26.834294               14.581384      7.0658219999999998
  6916   1      27.577788000000002      14.897232000000001      7.5846489999999998
  6917   1      26.714732000000001      15.251431999999999                6.388045
  6918   8      3.4232209999999998               17.570936      30.159054999999999
  6919   1      3.6050810000000002      17.087990999999999               29.349477
  6920   1      4.2056319999999996               18.111238               30.295251
  6921   8      18.255825000000002                24.50498      6.8279209999999999
  6922   1      18.109497000000001      25.404786000000001      6.5268179999999996
  6923   1      19.134675000000001               24.286379      6.5077990000000003
  6924   8               26.985256      17.199234000000001      8.6683400000000006
  6925   1               26.353652      17.550263999999999      8.0362170000000006
  6926   1               27.788995      17.073567000000001      8.1576020000000007
  6927   8      34.794462000000003               15.067014               21.556797
  6928   1      34.147075000000001                14.40056      21.798570999999999
  6929   1                35.50853               14.945724      22.187698999999999
  6930   8      3.2429359999999998      8.7657360000000004               37.912917
  6931   1      3.9838870000000002                 8.87378               37.312047
  6932   1      3.1873109999999998      7.8173539999999999      38.054755999999998
  6933   8      13.408842999999999                      42      2.9363739999999998
  6934   1      12.475089000000001      41.855029000000002                3.106115
  6935   1      13.847034000000001      41.262430999999999      3.3683709999999998
  6936   8                25.65316      15.054372000000001      39.340693999999999
  6937   1               25.786413               15.191758      38.399900000000002
  6938   1      26.537376999999999               14.914247      39.688785000000003
  6939   8      36.622205000000001      20.466746000000001      1.7668999999999999
  6940   1      37.143503000000003      21.225491999999999      2.0394399999999999
  6941   1      35.918779999999998      20.841024000000001                1.230475
  6942   8      28.797944000000001               38.011505      38.442791999999997
  6943   1      28.973549999999999               38.927318               38.671208
  6944   1               27.976789               38.043053      37.945447999999999
  6945   8      7.6641009999999996      38.370933000000001      24.534088000000001
  6946   1      8.1012989999999991      37.535032999999999      24.712565999999999
  6947   1      6.9332750000000001      38.139004999999997      23.955515999999999
  6948   8               28.824641      32.241219999999998      21.330393000000001
  6949   1               29.627188                32.67333      21.028856999999999
  6950   1               29.121447               31.640487               22.018628
  6951   8      28.734463999999999      27.523745000000002      6.8077680000000003
  6952   1      28.601946999999999      28.086766000000001      6.0414960000000004
  6953   1      29.139600999999999               28.100586      7.4602709999999997
  6954   8               37.114303      8.0653070000000007      19.770803999999998
  6955   1      36.531427000000001      8.7880979999999997               19.526771
  6956   1      36.643177999999999      7.6046490000000002      20.469715000000001
  6957   8      40.435701000000002      35.900709999999997      5.9758709999999997
  6958   1               40.716251      35.179366000000002      5.4078220000000004
  6959   1      41.071083999999999      35.897889999999997      6.6962330000000003
  6960   8      13.253311999999999               29.856963      38.159810999999998
  6961   1               14.157297               29.627419      37.932116000000001
  6962   1               13.341576      30.494654000000001      38.872694000000003
  6963   8               28.750449      37.307560000000002      14.246987000000001
  6964   1      27.826509999999999      37.391235999999999               14.494087
  6965   1      29.199314999999999      37.097996999999999               15.069936
  6966   8      20.827960999999998      39.980404999999998      23.833497999999999
  6967   1      20.820837000000001      39.028297999999999      23.956648999999999
  6968   1      20.292936000000001      40.318302000000003               24.556144
  6969   8     0.96490399999999998      36.735477000000003               14.969227
  6970   1                1.460496      37.379080000000002               14.457478
  6971   1                1.553472      35.979275999999999      15.035481000000001
  6972   8      20.793596999999998               15.146146      9.7815250000000002
  6973   1      20.637360000000001      15.500856000000001      10.659872999999999
  6974   1               20.410287               14.265805      9.8082440000000002
  6975   8      20.476410000000001               13.064138      37.969560999999999
  6976   1               20.816844      13.725896000000001      37.363008999999998
  6977   1      19.532475000000002               13.238023      38.006875000000001
  6978   8      7.4225390000000004                6.251595      35.810563999999999
  6979   1      7.3605359999999997                6.785323      36.606186000000001
  6980   1      7.3472499999999998                6.884798      35.092213000000001
  6981   8      38.819524999999999      37.082256999999998               11.905768
  6982   1      39.293582000000001      37.906649000000002               12.037571
  6983   1      39.288411000000004               36.649777               11.187611
  6984   8      41.156621000000001      33.793607999999999      21.421112000000001
  6985   1      41.999969999999998      34.197555000000001      21.638629999999999
  6986   1      40.588633999999999      34.534498999999997               21.195027
  6987   8      4.7979700000000003      36.544307000000003      40.504475999999997
  6988   1      5.4756910000000003      35.930987000000002      40.798172999999998
  6989   1      4.0575140000000003      36.381802999999998      41.094357000000002
  6990   8      12.496962999999999      36.457980999999997      29.210691000000001
  6991   1               12.091061      36.399223999999997      28.342638000000001
  6992   1      12.980078000000001      35.633071999999999      29.304327000000001
  6993   8     0.35516900000000001                6.334587      5.0303659999999999
  6994   1     0.51034900000000005      5.3902599999999996      4.9536110000000004
  6995   1     0.33213599999999999                 6.49627      5.9769230000000002
  6996   8      30.675429000000001      4.1149990000000001      29.400016999999998
  6997   1               31.007044      3.4228269999999998      29.976780000000002
  6998   1               29.730653      3.9496869999999999      29.347947999999999
  6999   8               26.130229      2.1029179999999998               15.264975
  7000   1      26.881485999999999      1.8474109999999999               15.805396
  7001   1      26.045452000000001                1.392941                14.62358
  7002   8               11.441917      38.281539000000002      27.275182999999998
  7003   1      12.297204000000001      38.286670000000001      27.711283000000002
  7004   1               11.422236      39.103889000000002      26.779205000000001
  7005   8      6.3041460000000002                16.56841     0.75088999999999995
  7006   1                6.561267               15.696273      1.0590930000000001
  7007   1      6.9931039999999998      17.150652999999998                1.080999
  7008   8      5.3629889999999998      34.219166999999999     0.78426899999999999
  7009   1      4.6394450000000003      34.765982000000001     0.46930500000000003
  7010   1      5.9762139999999997      34.186528000000003    0.045666999999999999
  7011   8               41.917752      7.2898459999999998      16.383493000000001
  7012   1      41.587712000000003      7.9003449999999997      17.046886000000001
  7013   1                      42      6.4536220000000002      16.848904000000001
  7014   8      41.256678999999998      35.760722999999999      36.195582999999999
  7015   1      41.588529000000001               35.608767      35.307602000000003
  7016   1                40.48359      36.316631000000001      36.069325999999997
  7017   8      4.6998559999999996      35.652003999999998      5.7119489999999997
  7018   1      4.3552530000000003      36.462665999999999      6.0937869999999998
  7019   1      4.6564389999999998               35.013703                 6.42842
  7020   8      29.525141000000001                20.73235      20.541437999999999
  7021   1               29.807364               20.087463      21.194275000000001
  7022   1                30.34413      21.101576000000001      20.201481000000001
  7023   8      11.513401999999999      39.308309999999999                 23.7241
  7024   1      12.183056000000001      38.857337000000001                24.24363
  7025   1      11.947169000000001               39.496896      22.888083000000002
  7026   8      24.492934000000002      6.6719879999999998                       0
  7027   1               24.208938      6.1293670000000002     0.73934699999999998
  7028   1      25.437546999999999      6.7827109999999999                0.134494
  7029   8      17.261171000000001               14.802441               29.198038
  7030   1      17.359231999999999                15.71054      28.902291999999999
  7031   1      16.393443000000001               14.777989      29.609245999999999
  7032   8      2.2379509999999998      16.675346999999999      26.781272999999999
  7033   1                1.308932               16.904038      26.701595000000001
  7034   1      2.2980749999999999      16.210809000000001               27.619861
  7035   8      17.704602999999999      40.427579999999999      4.2943990000000003
  7036   1      16.998775999999999      41.033940000000001      4.0580509999999999
  7037   1               18.501282               40.962885      4.2570779999999999
  7038   8      30.319901999999999               29.741035      40.076498999999998
  7039   1      31.195257999999999      30.078700000000001      39.872883000000002
  7040   1               29.723616      30.314837000000001      39.588813000000002
  7041   8      12.890546000000001      4.0898089999999998      22.225186999999998
  7042   1               12.563511      3.7427229999999998      23.058437000000001
  7043   1               12.279437      4.7975450000000004               22.005423
  7044   8      4.0531389999999998               18.268217      22.300004000000001
  7045   1      4.0612899999999996      17.494236000000001      21.732015000000001
  7046   1      4.7218939999999998      18.083515999999999      22.964303000000001
  7047   8      3.1583800000000002      30.647051999999999      30.387136999999999
  7048   1      2.6826120000000002      31.113365000000002               31.078457
  7049   1      2.6351979999999999               29.857225      30.228722000000001
  7050   8      7.2478910000000001      22.263030000000001    0.030780999999999999
  7051   1                6.726623      23.068670999999998                       0
  7052   1      8.0627700000000004               22.522845                0.467943
  7053   8      21.727233999999999               11.868447      36.331727000000001
  7054   1               22.538605      12.373677000000001      36.421970999999999
  7055   1               21.762632               11.518151      35.438037000000001
  7056   8      29.262889999999999      31.297091999999999      11.371949000000001
  7057   1               28.782366      31.646015999999999      10.617578999999999
  7058   1                28.84552      30.450406999999998               11.549628
  7059   8      19.539940999999999      34.969394999999999     0.30635200000000001
  7060   1      19.932645999999998               34.148629                       0
  7061   1      18.630524000000001               34.927515  3.0000000000000001e-06
  7062   8      24.921416000000001      33.134832000000003      32.558114000000003
  7063   1      25.236993999999999               32.400281      33.089688000000002
  7064   1      24.648309000000001      32.730406000000002      31.730772000000002
  7065   8      4.4565250000000001               12.778347      9.1802689999999991
  7066   1      4.4135030000000004      11.819748000000001      9.1492310000000003
  7067   1                4.344868               13.051748      8.2662519999999997
  7068   8      6.8094320000000002               30.380457      24.093236999999998
  7069   1      6.6364109999999998      30.825244999999999      23.260197999999999
  7070   1      7.1341349999999997      29.513356000000002      23.837610000000002
  7071   8      39.615881000000002      1.0287139999999999      34.665962999999998
  7072   1               39.449548    0.091412999999999994      34.541358000000002
  7073   1      38.740819000000002                1.420167      34.726568999999998
  7074   8      9.0479679999999991      22.328019999999999      23.595828999999998
  7075   1      9.3314629999999994      23.244627000000001      23.561392999999999
  7076   1      8.3454329999999999      22.320177999999999               24.250829
  7077   8      1.6652709999999999               11.727572      21.254602999999999
  7078   1     0.95301899999999995      11.431952000000001      21.826468999999999
  7079   1                2.173054               12.333618      21.800045000000001
  7080   8      28.988323999999999                1.395008                15.88686
  7081   1      29.682497999999999      1.0996109999999999      15.293068999999999
  7082   1      29.007667000000001     0.76260300000000003      16.609584999999999
  7083   8               37.885939      8.5047080000000008      28.165517999999999
  7084   1      38.747796999999998      8.1461240000000004      28.389887000000002
  7085   1               37.542963      7.9025480000000003      27.500375999999999
  7086   8      15.125745999999999      3.7265000000000001      35.684840999999999
  7087   1               15.308292      4.3752060000000004      36.368640999999997
  7088   1      15.980047000000001                3.562662      35.277447000000002
  7089   8      20.786000999999999      4.2731000000000003      41.123531999999997
  7090   1      21.349547999999999      3.6571289999999999      41.597575999999997
  7091   1      21.303515000000001      5.0808540000000004      41.075014000000003
  7092   8               11.958999      29.873716999999999      40.607367000000004
  7093   1               12.279102      29.009063000000001      40.875008999999999
  7094   1               11.398161               29.695815      39.848120999999999
  7095   8      7.8926220000000002      14.539694000000001      17.729255999999999
  7096   1      7.7351749999999999      15.401469000000001      18.122039000000001
  7097   1      8.5206300000000006      14.710767000000001      17.022867999999999
  7098   8      27.214604000000001      37.048402000000003      30.326530000000002
  7099   1               27.780358      36.451456999999998               29.831249
  7100   1      27.788989999999998                37.78172      30.560981999999999
  7101   8      4.1935630000000002               17.722994               15.339117
  7102   1      4.2421059999999997      18.564264999999999      15.799151999999999
  7103   1      4.3510299999999997      17.945474000000001               14.418059
  7104   8               13.656359      24.030494999999998      20.751100000000001
  7105   1               13.646015      24.920535000000001      20.391314000000001
  7106   1               14.573276      23.754041000000001               20.677083
  7107   8      37.254100999999999      17.956326000000001               12.356097
  7108   1      37.713490999999998      18.766649999999998      12.123583999999999
  7109   1      37.737744999999997      17.616955999999998      13.113433000000001
  7110   8      18.691151000000001      36.764569999999999      21.144667999999999
  7111   1      18.800371999999999      36.110933000000003      21.839328999999999
  7112   1               18.192394      36.307063999999997      20.463073000000001
  7113   8                7.721946      32.617714999999997               21.289662
  7114   1      7.2447660000000003      31.877448000000001      21.671797999999999
  7115   1      7.8167140000000002               33.240271      22.014980000000001
  7116   8      16.481580000000001      17.918931000000001               32.805698
  7117   1               15.831856      17.232057000000001      32.972397000000001
  7118   1      16.086735999999998      18.458266999999999      32.115873999999998
  7119   8               30.289178      8.6134880000000003      20.062819999999999
  7120   1               29.933888      8.0506039999999999      19.370971000000001
  7121   1      31.162337000000001                8.253603               20.238087
  7122   8      8.8052130000000002      37.345567000000003      41.154040999999999
  7123   1      7.9074590000000002      37.654262000000003      41.010966000000003
  7124   1      9.0559189999999994      37.725225999999999                      42
  7125   8                 2.41588      41.060040999999998               22.431009
  7126   1      3.0253139999999998               41.648356      22.882895000000001
  7127   1      2.8341919999999998      40.888587999999999      21.583507000000001
  7128   8               18.334018      32.778872999999997      6.3018380000000001
  7129   1      19.029330999999999      33.072493999999999      6.8951779999999996
  7130   1      18.581081000000001               31.879683                6.071491
  7131   8      34.673862999999997               15.111729      3.2650489999999999
  7132   1      34.382745999999997      15.971590000000001      3.5774840000000001
  7133   1      35.195354999999999                 15.3065      2.4822639999999998
  7134   8               25.999627      28.124974999999999               21.427629
  7135   1      25.149830000000001      28.551767999999999      21.559605999999999
  7136   1               26.015708               27.910107      20.491565000000001
  7137   8               25.169238      26.901779999999999               36.305985
  7138   1      24.731515999999999      26.885812999999999      37.160308999999998
  7139   1      24.597815000000001      27.443034000000001      35.755383999999999
  7140   8      23.578835999999999                0.970584      10.862062999999999
  7141   1      23.204360999999999                1.798943               10.553333
  7142   1      22.815062999999999     0.42603999999999997      11.068860000000001
  7143   8      7.3881459999999999      25.897037000000001      22.007605999999999
  7144   1      7.5937099999999997      26.834814999999999               22.001303
  7145   1      6.6571709999999999      25.817326000000001      22.625640000000001
  7146   8      22.449304999999999      33.501240000000003               11.489644
  7147   1      22.407333000000001      34.395003000000003               11.837712
  7148   1      23.291865999999999      33.463715999999998      11.029942999999999
  7149   8      14.968662999999999               22.933747               41.198566
  7150   1               15.495079      22.885636999999999                      42
  7151   1               15.302306      23.709219000000001      40.740343000000003
  7152   8               32.042178      27.970427999999998      38.642336999999998
  7153   1               31.104239      28.065677000000001      38.823785999999998
  7154   1      32.204545000000003               28.566768      37.907041999999997
  7155   8      25.674392000000001               30.293872               13.938654
  7156   1               26.330949      29.618424999999998      14.124204000000001
  7157   1      25.762962000000002               30.917966      14.663432999999999
  7158   8      35.563203000000001               22.344614      2.7863660000000001
  7159   1      35.708271000000003      22.966833999999999      2.0697610000000002
  7160   1      36.165376999999999      22.632076000000001      3.4773040000000002
  7161   8      39.299168999999999      34.222551000000003      35.627735000000001
  7162   1      38.745790999999997      34.942931000000002      35.938462000000001
  7163   1      38.756570000000004      33.438341999999999      35.742812000000001
  7164   8      25.962489000000001               14.124777      2.0642520000000002
  7165   1      25.142834000000001      13.656363000000001      1.8896660000000001
  7166   1               26.650174               13.509853                 1.79667
  7167   8               25.036555      9.7811339999999998     0.24434600000000001
  7168   1      25.406027000000002      10.666876999999999     0.27032400000000001
  7169   1      24.985406000000001      9.5169890000000006      1.1664380000000001
  7170   8      39.662618000000002               21.767899      1.4136850000000001
  7171   1      39.443514999999998      20.969601999999998     0.92743299999999995
  7172   1      40.425989999999999      21.522887999999998      1.9427179999999999
  7173   8      2.3272849999999998                27.19192               34.860495
  7174   1                3.070522      27.776679999999999      35.025962999999997
  7175   1      2.4774370000000001               26.444329      35.444622000000003
  7176   8      23.385798000000001      15.567119999999999      1.3605719999999999
  7177   1      22.526524999999999      15.835400999999999      1.6943379999999999
  7178   1      24.013310000000001      16.069196999999999      1.8866799999999999
  7179   8      26.133327000000001      5.5349779999999997      24.304563000000002
  7180   1               25.696009                6.371747      24.130507000000001
  7181   1      26.243604000000001      5.5174960000000004      25.258593999999999
  7182   8      9.6329689999999992                 6.92591      33.013285000000003
  7183   1      9.8276730000000008      6.7156900000000004               32.096975
  7184   1               10.058869      7.7744619999999998      33.158923999999999
  7185   8      2.4013819999999999      35.722302999999997      33.679876999999998
  7186   1      1.6914720000000001      36.263224000000001      34.033653999999999
  7187   1                1.989738      35.223252000000002      32.969849000000004
  7188   8               12.493641      12.357056999999999                34.45243
  7189   1      12.808524999999999               13.076029      35.005288999999998
  7190   1      13.062775999999999      11.616626999999999               34.677132
  7191   8               14.991332      21.790054999999999               34.370466
  7192   1      15.258732999999999               21.252678      33.621167999999997
  7193   1      15.809150000000001      22.182531999999998      34.686342000000003
  7194   8      19.397918000000001               38.633699      32.885244999999998
  7195   1      19.628492000000001      38.864291999999999               31.982256
  7196   1      18.783999000000001      39.320498000000001                33.15737
  7197   8      40.765900999999999      37.911070000000002      10.676429000000001
  7198   1      41.185923000000003      38.232618000000002               11.477624
  7199   1      41.495741000000002      37.612613000000003               10.127886
  7200   8      39.032563000000003      9.3041300000000007      18.940536999999999
  7201   1      38.383968000000003      9.9593889999999998      19.208279000000001
  7202   1      39.518315000000001      9.7268319999999999      18.227789000000001
  7203   8      34.147207000000002      22.094812999999998      39.520710999999999
  7204   1      33.686323999999999      22.637637000000002      40.164647000000002
  7205   1      34.876277000000002               21.708617      40.012597999999997
  7206   8      32.080285000000003      4.8860590000000004      1.2776019999999999
  7207   1      32.585721999999997      4.2301289999999998                1.763414
  7208   1      32.084760000000003                4.567374     0.37147799999999997
  7209   8      7.0650500000000003                2.454974               23.148429
  7210   1      7.5094320000000003      2.4394429999999998      23.999314999999999
  7211   1      7.7746529999999998      2.5672769999999998               22.510859
  7212   8               27.769707      12.511563000000001               11.126892
  7213   1      28.580839000000001               11.999202      11.091176000000001
  7214   1      27.989273000000001               13.336618               10.686759
  7215   8      40.053035999999999      18.725491999999999      34.450215999999998
  7216   1      40.649182000000003      19.439447000000001      34.688129000000004
  7217   1      39.629952000000003      18.482430999999998                 35.2776
  7218   8               29.971463     0.67073199999999999      25.223372999999999
  7219   1      29.285554000000001                       0      25.186337999999999
  7220   1               30.628898                0.306672      25.821605000000002
  7221   8      36.432619000000003      38.062772000000002      19.417342999999999
  7222   1      36.018946999999997      38.892688999999997      19.168672000000001
  7223   1      36.931862000000002      37.802599999999998                18.63907
  7224   8      25.679124000000002      38.306807999999997                22.69313
  7225   1      25.299175000000002      38.591487999999998      23.527588000000002
  7226   1      25.792117000000001      39.119132999999998      22.193128000000002
  7227   8      40.253597999999997      19.364706999999999      6.1542649999999997
  7228   1               40.969158      20.004007000000001      6.1227349999999996
  7229   1      40.424005999999999      18.779302999999999      5.4120359999999996
  7230   8      24.725733000000002      17.848718000000002      24.452718000000001
  7231   1      25.004843999999999               18.694274      24.093751000000001
  7232   1      24.304006999999999               18.071199               25.286559
  7233   8                0.726109      36.568841999999997               27.974169
  7234   1      1.5121560000000001      36.597537000000003               28.524652
  7235   1                 1.00712      36.105226000000002               27.181241
  7236   8      36.563533999999997                1.515117      32.617240000000002
  7237   1      37.407865000000001      1.7826090000000001      32.987751000000003
  7238   1      36.658608999999998     0.57167400000000002      32.463883000000003
  7239   8      6.4558090000000004               27.508633               30.638465
  7240   1      6.1293800000000003      26.639251000000002      30.394860999999999
  7241   1      7.0648439999999999               27.340529      31.361969999999999
  7242   8      30.890364000000002      21.998595999999999                       0
  7243   1      31.154122999999998      22.902888999999998                  0.1855
  7244   1               29.951338               21.978092                0.201126
  7245   8      38.663642000000003      9.5598600000000005      34.403858999999997
  7246   1      38.834367999999998      8.6775179999999992      34.066147000000001
  7247   1               37.706564      9.6399299999999997      34.388643000000002
  7248   8               22.680557                2.421281      27.113624999999999
  7249   1               23.580292                2.248634      27.400673000000001
  7250   1      22.288506000000002                 2.91214      27.840257999999999
  7251   8      40.760598999999999      5.0779709999999998               32.144624
  7252   1               40.197156      5.8354850000000003      31.970185000000001
  7253   1      40.148822000000003      4.3728040000000004      32.370699999999999
  7254   8      41.264750999999997      5.8581219999999998      23.559785999999999
  7255   1                      42      5.3736949999999997      23.177078999999999
  7256   1      41.672674999999998      6.4373570000000004      24.208421000000001
  7257   8      26.770140000000001      17.418486000000001      31.967738000000001
  7258   1      27.666944000000001      17.097905999999998      32.088968000000001
  7259   1                 26.2212      16.637658999999999      32.075516999999998
  7260   8                2.159929               31.427436               11.710564
  7261   1                2.914412      31.613468999999998               12.274364
  7262   1      2.4386610000000002      30.677510000000002      11.178998999999999
  7263   8      27.166471999999999      22.555876999999999      35.756613000000002
  7264   1      26.938603000000001                 23.3035      35.199064999999997
  7265   1      26.340340999999999                  22.317      36.184500999999997
  7266   8      24.996335999999999               10.238878               12.477819
  7267   1      25.414967000000001      9.4697060000000004               12.871323
  7268   1      24.737939999999998      9.9467669999999995      11.600013000000001
  7269   8      23.498031000000001      20.763456999999999      18.740791000000002
  7270   1      22.627507999999999               20.384701      18.883825000000002
  7271   1      23.766867000000001      21.077386000000001               19.607865
  7272   8               18.003187      36.842959999999998      37.181559999999998
  7273   1      17.827287999999999      37.552813999999998      36.559553999999999
  7274   1               17.650447      37.163741000000002      38.015416000000002
  7275   8      40.836312999999997      2.5153319999999999      7.9394470000000004
  7276   1      40.732747000000003      3.2880379999999998      7.3791580000000003
  7277   1      41.562688000000001                2.028346      7.5421230000000001
  7278   8               22.562438      40.318676000000004                2.604555
  7279   1      23.388228999999999      40.404111999999998      3.0867309999999999
  7280   1      21.882981000000001      40.465209000000002                3.267509
  7281   8      30.618524000000001               17.414717      40.160079000000003
  7282   1      30.505195000000001               16.556576      39.744776999999999
  7283   1                30.45861      17.251103000000001      41.092978000000002
  7284   8      12.550255999999999      29.312999999999999      21.305413000000001
  7285   1               12.027861               29.094818                 22.0808
  7286   1               13.041556      28.509830000000001      21.115193000000001
  7287   8      20.180451000000001                3.112371               10.374552
  7288   1      20.983433000000002      3.4984229999999998               10.732196
  7289   1      20.221869999999999      3.3043360000000002      9.4342980000000001
  7290   8      28.406666000000001      27.267517999999999      30.293185000000001
  7291   1      28.784234000000001      28.145928999999999      30.380144000000001
  7292   1      28.411273000000001      26.916433999999999               31.187255
  7293   8      32.381374999999998     0.88292000000000004      28.604313999999999
  7294   1      31.864720999999999     0.28658099999999997      28.057345999999999
  7295   1      31.740044999999999      1.2722990000000001      29.204080999999999
  7296   8      18.643446000000001      12.255171000000001      21.061444999999999
  7297   1      18.798711000000001               13.196496               20.954089
  7298   1      19.406282000000001               11.839439               20.651702
  7299   8      5.4239290000000002               11.264182      27.827691000000002
  7300   1      4.9145799999999999               10.578386      27.389544999999998
  7301   1      5.1316069999999998               12.079893               27.413197
  7302   8      32.784916000000003      31.225467999999999               35.810997
  7303   1      32.142231000000002               31.807406      35.398651000000001
  7304   1      33.403736000000002      31.820665000000002      36.241630999999998
  7305   8                28.37236      21.856822999999999      33.813972999999997
  7306   1      29.090803999999999               22.449724      34.046421000000002
  7307   1                28.75235      21.267745999999999      33.157285000000002
  7308   8               25.585597      5.0602330000000002      38.611002999999997
  7309   1      25.219691999999998      5.5667220000000004      39.339910000000003
  7310   1      26.473905999999999      4.8354059999999999      38.899104999999999
  7311   8      17.246853000000002      25.113171000000001               23.339129
  7312   1               17.003041      24.199041999999999      23.502368000000001
  7313   1      16.408031999999999      25.566669999999998      23.223545999999999
  7314   8      39.929160000000003      36.866464999999998               17.706125
  7315   1      40.232674000000003      36.317120000000003      18.432639999999999
  7316   1      40.730459000000003      37.266057000000004               17.358435
  7317   8                21.14264      33.234890999999998      8.7395549999999993
  7318   1      20.852889999999999      32.402982999999999      9.1212599999999995
  7319   1      20.797529000000001      33.903968999999996      9.3361090000000004
  7320   8      10.340306999999999      26.160872000000001      39.018062999999998
  7321   1               11.279959      26.009098000000002      38.892583000000002
  7322   1               10.031539      25.376605000000001      39.478746000000001
  7323   8      4.2501110000000004      37.011420000000001      2.7815319999999999
  7324   1      5.0755049999999997      37.059817000000002      2.2935699999999999
  7325   1                4.518904      36.993358000000001                3.703522
  7326   8      5.1815179999999996                3.993649      33.027348000000003
  7327   1                4.776192      3.1818580000000001      32.713608999999998
  7328   1      4.4855530000000003      4.4310739999999997      33.524273000000001
  7329   8     0.55288000000000004      25.426342000000002      35.764740000000003
  7330   1     0.36795699999999998      26.027460999999999      36.490125999999997
  7331   1                       0      25.742913000000001               35.045887
  7332   8      41.168053999999998      34.639521000000002               10.822569
  7333   1      41.491481999999998      33.942585999999999      10.246893999999999
  7334   1      41.915869999999998      35.234408000000002      10.920151000000001
  7335   8      1.7559309999999999               38.812351                3.229619
  7336   1      1.8825400000000001      38.769120999999998      4.1803160000000004
  7337   1                 1.70442      37.893666000000003      2.9539249999999999
  7338   8                26.07958      4.1485890000000003               27.202088
  7339   1               25.216611      3.8744930000000002      26.882898999999998
  7340   1      25.887063000000001      4.8078820000000002      27.873588000000002
  7341   8               19.085818      37.103588000000002      28.679742000000001
  7342   1      18.573474999999998      37.875692000000001               28.930909
  7343   1               19.754686      37.445658000000002      28.081206000000002
  7344   8               10.320008      14.961899000000001      5.2932560000000004
  7345   1                9.862088      14.520170999999999      6.0122200000000001
  7346   1                9.796856      15.749878000000001      5.1257950000000001
  7347   8      18.429196000000001      33.557054999999998      38.539088999999997
  7348   1      17.693003999999998      33.024133999999997      38.229666000000002
  7349   1      19.046106000000002      32.920037999999998      38.908242000000001
  7350   8      25.689368000000002      13.720988999999999               30.632019
  7351   1      26.610811000000002                13.65208               30.892636
  7352   1      25.207367000000001               13.294604      31.345120000000001
  7353   8                 29.6568      18.152004999999999      31.023050999999999
  7354   1      30.511724000000001      18.367346999999999               30.642975
  7355   1      29.388946000000001      17.349526999999998      30.568159999999999
  7356   8      23.838360999999999      17.213411000000001      38.634642999999997
  7357   1               23.996731      17.725688000000002      37.838265999999997
  7358   1      24.608612000000001      17.381489999999999      39.183374000000001
  7359   8      33.614524000000003      3.0488499999999998      28.623457999999999
  7360   1               33.633896      2.7248839999999999      29.527004000000002
  7361   1      34.131968000000001      2.4080279999999998      28.129252000000001
  7362   8               27.781461               40.163052               20.645125
  7363   1      28.122844000000001               40.790664      21.286439999999999
  7364   1               27.043706               40.620179      20.233550000000001
  7365   8               13.774561                13.58597      5.4821460000000002
  7366   1               14.278328               14.381674      5.2956019999999997
  7367   1      13.121843999999999               13.863398      6.1299400000000004
  7368   8      26.294830999999999                      42      22.149052000000001
  7369   1      25.505372999999999      41.456952000000001               22.089223
  7370   1               26.681583      41.765912999999998      22.996559000000001
  7371   8      41.174546999999997               13.682947      21.277553000000001
  7372   1                      42               13.778483      21.758413000000001
  7373   1      40.574770999999998               13.280858      21.910983999999999
  7374   8      24.402391000000001               30.777566      41.953254000000001
  7375   1      24.517361999999999               31.039479      41.036788999999999
  7376   1      23.495201999999999      30.465371999999999                      42
  7377   8      4.3698990000000002      7.0016379999999998      6.8962079999999997
  7378   1      4.9179519999999997      6.3656110000000004                6.430555
  7379   1      4.5208659999999998      7.8300210000000003      6.4340029999999997
  7380   8      8.8278099999999995               10.584752      2.3111259999999998
  7381   1      8.0952070000000003      11.179399999999999      2.1338949999999999
  7382   1      9.4969669999999997               10.832554                1.668113
  7383   8      39.150357999999997      36.340770999999997      24.434961999999999
  7384   1      39.775610999999998      35.679915000000001      24.741641999999999
  7385   1      38.630405000000003      35.885604000000001      23.767793999999999
  7386   8      16.961649999999999      26.280418999999998      3.6307550000000002
  7387   1               17.753117               25.746461      3.5297900000000002
  7388   1      16.239581999999999      25.672470000000001      3.4528289999999999
  7389   8      8.9811829999999997               29.043851      6.7277779999999998
  7390   1      9.2614230000000006               29.357471      5.8647410000000004
  7391   1      8.8384579999999993               29.845157                7.237857
  7392   8      27.950824999999998      34.105438999999997      16.296009999999999
  7393   1      27.936316999999999      33.327711999999998      15.733288999999999
  7394   1               28.077859      34.837696999999999      15.687485000000001
  7395   8                25.85136      9.0181319999999996      17.106566000000001
  7396   1      26.353145000000001      9.8221950000000007               16.953533
  7397   1      24.953548999999999      9.3229930000000003               17.260313
  7398   8      38.783250000000002      41.260590999999998      36.483215999999999
  7399   1      38.635362000000001               40.986708      37.391424999999998
  7400   1      38.985861999999997                40.44491      36.018183999999998
  7401   8      17.576077000000002               24.266966      36.405473000000001
  7402   1               16.838583      24.750530999999999      36.784936999999999
  7403   1      17.184560999999999               23.453056      36.078507000000002
  7404   8               15.535843      41.246405000000003               22.566347
  7405   1               15.117416      40.501503999999997               22.128435
  7406   1      14.989471999999999                      42               22.329248
  7407   8      28.914397999999998      37.069183000000002      4.6228210000000001
  7408   1      29.090447000000001      37.923076999999999      5.0248109999999997
  7409   1      28.187456999999998      36.708910000000003                5.137022
  7410   8                30.33146      16.969041000000001      11.958526000000001
  7411   1               29.419069      16.920127999999998      12.253272000000001
  7412   1               30.280649      17.383168000000001               11.093332
  7413   8               11.511559               10.274111      30.092804999999998
  7414   1               11.695351      11.202087000000001               29.929081
  7415   1               10.946545      10.010427999999999                29.36214
  7416   8      5.9229039999999999      2.1040380000000001      17.471568000000001
  7417   1      6.6809339999999997      1.7951760000000001               17.973284
  7418   1      5.4730480000000004      2.7086199999999998      18.067178999999999
  7419   8      39.812280999999999      25.042877000000001      38.801383000000001
  7420   1      40.727955000000001      25.272898000000001      38.975611999999998
  7421   1      39.860045999999997      24.390001000000002      38.098450999999997
  7422   8      31.947876999999998                2.328033                      42
  7423   1               31.331014      1.6959599999999999      41.623587000000001
  7424   1      32.680684999999997                2.344697      41.379229000000002
  7425   8      7.3347949999999997      39.121422000000003      34.667974000000001
  7426   1                6.966399      38.521777999999998      35.320995000000003
  7427   1      6.6232499999999996      39.252209999999998      34.036119999999997
  7428   8      7.4943479999999996               38.436391                1.903511
  7429   1      8.2962919999999993      38.929240999999998                 1.71454
  7430   1      7.7594380000000003      37.515478000000002                1.838023
  7431   8      36.588579000000003      22.852008999999999      41.944119999999998
  7432   1               36.725158      23.682531999999998      41.482273999999997
  7433   1      36.775969000000003      22.178986999999999      41.284900999999998
  7434   8      5.3291019999999998      7.0376180000000002      12.358466999999999
  7435   1      6.0537890000000001      6.5223800000000001                12.72052
  7436   1      4.9852679999999996      6.4959629999999997      11.643603000000001
  7437   8               16.543298      36.941479999999999               10.419195
  7438   1      17.289197999999999      37.545071999999998      10.387040000000001
  7439   1      16.785730999999998               36.230739      9.8202660000000002
  7440   8      33.672851999999999      25.755144000000001      34.765878999999998
  7441   1      32.821860000000001      25.327912999999999      34.888393000000001
  7442   1      34.240749999999998      25.061081000000001               34.421771
  7443   8      35.417464000000002      38.393121000000001               41.714779
  7444   1      35.423544999999997      39.309820000000002                      42
  7445   1      36.070483000000003               38.357979      41.011235999999997
  7446   8               28.176586                7.003679      2.7837160000000001
  7447   1      27.514375000000001      6.3573250000000003                2.527927
  7448   1               28.569302      6.6398659999999996                3.581248
  7449   8      38.206505999999997                1.239992               16.897803
  7450   1      38.774543999999999     0.50689600000000001      17.146052999999998
  7451   1                37.66968     0.89342299999999997      16.180620999999999
  7452   8      32.537058999999999      24.735582000000001               23.062065
  7453   1               33.246077               25.368945      22.928384000000001
  7454   1      31.745622999999998      25.200334999999999      22.778735000000001
  7455   8      37.028795000000002               13.645166               29.370203
  7456   1      36.941048000000002      13.642758000000001      28.414159000000001
  7457   1      37.345241999999999      12.763519000000001      29.582812000000001
  7458   8      31.913630999999999      28.665248999999999      28.163346000000001
  7459   1      32.638952000000003      29.262357000000002      28.361073000000001
  7460   1      31.357735000000002      28.697977999999999               28.946002
  7461   8      19.549216000000001      3.5614460000000001      29.784766000000001
  7462   1      19.595897000000001                4.090668      30.584434999999999
  7463   1                19.39106      2.6677170000000001      30.099215000000001
  7464   8      14.994028999999999      18.748951999999999      6.3403790000000004
  7465   1               14.704765      17.841557000000002      6.4615679999999998
  7466   1      14.440481999999999      19.082795000000001      5.6299029999999997
  7467   8      8.9219399999999993      4.2084520000000003      16.695827999999999
  7468   1                7.964302                4.209829      16.764050000000001
  7469   1      9.2066330000000001      4.8777429999999997      17.323236999999999
  7470   8      2.6056059999999999      33.568739000000001      17.969456999999998
  7471   1      2.5775380000000001      33.922519999999999      17.077394000000002
  7472   1      2.7090399999999999      32.621639999999999      17.847201999999999
  7473   8               30.070304               28.266126               24.203702
  7474   1      30.107286999999999      29.225391999999999      24.190802999999999
  7475   1      30.768972000000002      28.008721000000001      24.810535999999999
  7476   8      21.228155000000001      18.399792000000001               20.133101
  7477   1      21.084530999999998               17.693258               20.767063
  7478   1               21.231341      17.957885000000001      19.280252999999998
  7479   8      22.097373000000001      28.973655000000001      18.246258000000001
  7480   1      22.810359999999999      29.569199999999999      18.003975000000001
  7481   1               21.614856               29.445128               18.930021
  7482   8      36.981152000000002               34.414285      20.084506999999999
  7483   1      37.731543000000002      34.970883999999998      19.863517999999999
  7484   1      37.163654999999999      34.111584999999998      20.977651999999999
  7485   8      26.227582999999999      32.870941999999999      19.959008999999998
  7486   1      26.815850000000001      32.195534000000002      19.613334999999999
  7487   1      25.889908999999999      33.315736999999999               19.177488
  7488   8               10.116301     0.58733100000000005                3.568622
  7489   1      9.1874409999999997     0.49530600000000002      3.7932899999999998
  7490   1      10.580819999999999                0.175145      4.3014020000000004
  7491   8      18.122547000000001               16.461254      30.856435000000001
  7492   1      18.912368000000001               15.954763               30.653029
  7493   1      18.360977999999999      16.972899999999999      31.633617000000001
  7494   8      13.835646000000001      40.876013999999998               10.802085
  7495   1               13.462633      40.103282999999998      10.371420000000001
  7496   1               13.350277      41.615377000000002      10.427383000000001
  7497   8      13.153325000000001      24.571795000000002      6.8257430000000001
  7498   1               13.610042                24.93798      7.5866920000000002
  7499   1               13.840252      24.117805000000001      6.3311039999999998
  7500   8      14.729245000000001               28.027898                4.007333
  7501   1      13.916071000000001      28.321470000000001                3.589855
  7502   1      15.229048000000001      27.620305999999999      3.2954979999999998
  7503   8               23.133568               17.588234      35.339337999999998
  7504   1      22.503298000000001               18.031012      34.766247999999997
  7505   1      22.983163000000001      16.652774000000001      35.181426999999999
  7506   8               14.683766      37.622653999999997      18.055911999999999
  7507   1      15.562307000000001      37.477986999999999      17.696801000000001
  7508   1               14.592278      38.578401999999997      18.084506000000001
  7509   8      17.648568999999998      16.329273000000001      40.478886000000003
  7510   1               16.862924               15.795811      40.337797999999999
  7511   1      18.070612000000001      16.364830999999999      39.616762999999999
  7512   8      38.845865000000003               37.409523               15.431409
  7513   1      39.699716000000002      37.032826999999997      15.656719000000001
  7514   1      38.589565999999998      37.904240999999999               16.213846
  7515   8               15.448656               22.397354      16.259706999999999
  7516   1                15.34459      22.978808000000001      17.016546999999999
  7517   1               16.116094      21.764054000000002      16.535568999999999
  7518   8               18.689857      5.3932589999999996               27.655884
  7519   1      18.713239000000002      6.2965809999999998      27.331558999999999
  7520   1      18.690004999999999      5.4832000000000001               28.612206
  7521   8      8.5938130000000008      6.4464509999999997      6.4961640000000003
  7522   1      8.2208450000000006      6.9645219999999997      7.2132569999999996
  7523   1      8.2046010000000003      5.5749589999999998      6.6041309999999998
  7524   8      2.6725639999999999      8.3895759999999999      27.573893999999999
  7525   1                1.775204      8.5193030000000007               27.889554
  7526   1      2.7858969999999998      7.4358069999999996               27.562873
  7527   8      21.872686000000002               11.873013      39.182671999999997
  7528   1      22.260667000000002               12.722156      39.406616999999997
  7529   1      22.444161000000001               11.523935      38.494047999999999
  7530   8               30.100009      35.136659999999999      35.590366000000003
  7531   1      29.879204999999999               36.064954      35.696385999999997
  7532   1      30.898561999999998      35.140977999999997      35.056570999999998
  7533   8      36.050035000000001      41.866176000000003      19.519162000000001
  7534   1      35.646062000000001      40.995494999999998               19.498037
  7535   1      36.769167000000003      41.780116999999997      20.150100999999999
  7536   8      40.925248000000003      17.852274000000001      36.935937000000003
  7537   1      41.090164000000001      17.963329000000002      37.875188999999999
  7538   1      41.156438000000001               18.701501      36.551219000000003
  7539   8      32.088954000000001      17.497043999999999               13.380984
  7540   1      32.565843000000001      18.086355000000001               13.970063
  7541   1      31.748926999999998      16.807815000000002               13.957167
  7542   8      28.679501999999999      10.465208000000001                18.38982
  7543   1      28.397635999999999               11.374321      18.264157999999998
  7544   1      27.923131999999999               10.035155               18.796761
  7545   8      14.950341999999999               11.990038      37.358938000000002
  7546   1      15.759365000000001               12.269114      36.923825000000001
  7547   1               14.386803      11.686700999999999      36.642662000000001
  7548   8      24.429756999999999               22.060793      32.340058999999997
  7549   1      23.573260000000001               22.004044      31.910039000000001
  7550   1               24.634732      22.999210000000001                32.34028
  7551   8               17.549737      14.175541000000001               22.526007
  7552   1      17.311706000000001      14.011919000000001      23.441590999999999
  7553   1               17.103486               14.997413               22.306853
  7554   8               34.788145      20.062128999999999               29.688018
  7555   1      34.100940000000001               20.673354      29.963477000000001
  7556   1               35.463217               20.622702      29.297277999999999
  7557   8               27.060464      32.735256999999997      30.567913000000001
  7558   1               27.908237      32.396816000000001      30.270485000000001
  7559   1               26.653292      31.992958000000002      31.021616000000002
  7560   8      26.387644000000002      17.559867000000001      13.168620000000001
  7561   1               26.905192      17.964808000000001      12.468697000000001
  7562   1               26.706267      17.977416999999999      13.972842999999999
  7563   8      22.649007000000001      9.4172360000000008               25.586326
  7564   1      23.305109000000002               10.031343      25.248498000000001
  7565   1      22.522839999999999      8.7867320000000007      24.872751999999998
  7566   8      20.137961000000001               22.558121      17.410875000000001
  7567   1      19.455687000000001               22.880817      16.817499000000002
  7568   1      20.866841999999998      22.323461000000002      16.830953999999998
  7569   8      34.647253999999997      39.140652000000003      32.635987999999998
  7570   1      35.210751999999999               38.370182               32.533175
  7571   1      34.716414999999998      39.364016999999997      33.567635000000003
  7572   8      14.435067999999999      6.5517789999999998      25.236478000000002
  7573   1               13.581695      6.2234600000000002      25.529199999999999
  7574   1               14.239314      7.4046979999999998      24.840433000000001
  7575   8      2.2764440000000001      17.315474999999999      17.414421999999998
  7576   1      3.1686139999999998               17.542638      17.686734999999999
  7577   1      2.3394599999999999      17.201056999999999      16.462803000000001
  7578   8      40.260269000000001      12.557729999999999      39.970829000000002
  7579   1      41.132111999999999      12.225281000000001      39.744793999999999
  7580   1      40.208303999999998               12.461193      40.925094999999999
  7581   8               10.459118      17.938752000000001      30.431163999999999
  7582   1      9.6438819999999996      18.431301000000001      30.310701999999999
  7583   1      10.231412000000001      17.251508999999999      31.062422999999999
  7584   8      21.101272999999999                5.350625               19.942363
  7585   1               20.605563      4.8616820000000001      20.603370999999999
  7586   1      21.872361000000001      5.6751170000000002      20.414346999999999
  7587   8      19.805261999999999      29.232306999999999      4.1941329999999999
  7588   1      18.908428000000001      28.894297000000002                4.137886
  7589   1                20.34299               28.551361      3.7820610000000001
  7590   8      29.538865000000001      20.519003999999999      14.746962999999999
  7591   1      30.257383999999998               19.920036               14.530878
  7592   1               28.986566               20.522154      13.961088999999999
