        7592
  Built with Packmol                                             
  N           36.607498       22.619374       12.113903
  C           37.614440       21.965275       11.273238
  C           38.950587       21.777592       11.970957
  N           39.550249       23.034402       12.450517
  C           40.131658       23.824032       11.361970
  C           40.353591       25.282850       11.731981
  N           39.112965       26.015951       12.046231
  C           38.357518       26.367321       10.839883
  C           36.898816       26.691308       11.131070
  N           36.160771       25.551345       11.712321
  C           35.861623       24.532598       10.699205
  C           35.523500       23.176756       11.292126
  C           36.032057       21.701574       13.116541
  C           35.137728       22.461397       14.114510
  O           35.525278       23.667654       14.379214
  O           34.162245       21.895556       14.574460
  C           40.536935       22.716603       13.504996
  C           39.846844       22.116299       14.744364
  O           38.646051       22.566974       14.931950
  O           40.445382       21.318980       15.434614
  C           39.464023       27.223533       12.821299
  C           39.953710       26.890750       14.238676
  O           39.461642       25.796238       14.718908
  O           40.705146       27.665377       14.796579
  C           34.940262       26.004297       12.374480
  C           35.242665       26.670578       13.701519
  O           36.355319       26.601735       14.232236
  N           34.224351       27.331634       14.265997
  La          37.743215       24.447421       13.894084
  H           37.258842       20.981287       10.930950
  H           37.744314       22.567327       10.370708
  H           38.819583       21.127159       12.835401
  H           39.637706       21.254722       11.291037
  H           41.092193       23.394776       11.041021
  H           39.466146       23.755904       10.498466
  H           40.900466       25.777121       10.917185
  H           40.994036       25.339739       12.612399
  H           38.806830       27.228161       10.319977
  H           38.417358       25.531987       10.139530
  H           36.836604       27.522886       11.833459
  H           36.420425       27.047677       10.205714
  H           35.034228       24.854193       10.046847
  H           36.735028       24.442849       10.052074
  H           34.631507       23.247904       11.913285
  H           35.267534       22.490894       10.471389
  H           35.567246       32.952608        9.641661
  H           36.771876       32.683933        8.383335
  H           34.344779       26.681389       11.741652
  H           41.310048       22.031446       13.141139
  H           41.015121       23.640388       13.838113
  H           34.315440       25.141632       12.618307
  H           40.213024       27.828922       12.300290
  H           38.566113       27.831096       12.950985
  C           34.290465       27.910349       15.600684
  H           33.321782       27.299335       13.815731
  H           30.288159       27.403410       16.493139
  H           34.017247       25.302230       16.114233
  C           32.914740       27.871983       16.264269
  C           32.238741       26.522923       16.304253
  H           33.056600       28.274211       17.271120
  H           32.265337       28.594757       15.759094
  H           30.372182       23.118354       16.414063
  C           30.848373       26.476166       16.436131
  C           32.940075       25.318790       16.222419
  H           29.101925       25.240565       16.590089
  C           32.273208       24.098703       16.256269
  H           32.841909       23.185593       16.133426
  C           30.181309       25.259377       16.492214
  C           30.892043       24.068419       16.396307
  C           34.789741       29.366613       15.602937
  H           35.014081       27.332405       16.179078
  O           34.828992       30.000936       16.642349
  N           35.161612       29.857974       14.401415
  C           35.413054       31.260151       14.184239
  C           36.239449       31.465834       12.910811
  S           35.521674       30.554907       11.483241
  N           34.162120       33.292150       14.574783
  C           34.092590       32.038750       14.084002
  O           33.108565       31.557338       13.545276
  H           38.712257       28.016524        6.975743
  H           37.250629       31.090663       13.066039
  H           36.283528       32.526480       12.662862
  C           33.100296       34.270046       14.446496
  C           33.778173       35.555897       13.980089
  O           29.996248       29.764058       17.729983
  C           32.378070       34.521633       15.787413
  O           34.764020       35.985278       14.572203
  H           32.467388       30.625807       18.331538
  N           33.250731       36.146249       12.898054
  H           29.877729       33.535905       15.300782
  H           30.574468       29.326313       18.361782
  C           31.883870       31.271682       17.685928
  C           30.592622       30.918133       17.308672
  H           33.460479       32.693410       17.492546
  H           32.395210       33.883467       13.708810
  C           31.737919       33.284181       16.346612
  H           33.118661       34.920876       16.485477
  H           31.631894       35.304580       15.620253
  C           30.444767       32.908653       15.980198
  H           28.863225       31.452450       16.172616
  C           32.445969       32.444985       17.204390
  C           29.867399       31.741593       16.454671
  C           33.828544       37.330090       12.310087
  C           33.592973       38.623250       13.148698
  H           32.412736       35.798139       12.454870
  H           32.863161       37.969706       15.898253
  C           33.247578       37.433277       10.904362
  H           30.464132       38.382241       16.496074
  C           32.301794       38.691016       13.883140
  H           34.910561       37.182445       12.250053
  O           32.093216       37.118770       10.667389
  H           34.404569       38.667380       13.874823
  H           33.706411       39.482987       12.482080
  C           32.135202       38.345203       15.198525
  C           30.116319       39.023610       14.507880
  C           31.017921       39.126944       13.416179
  N           30.825723       38.534373       15.573979
  H           28.104057       39.303194       15.252039
  C           28.336027       39.850357       13.181494
  H           27.298256       40.136260       13.069057
  H           31.193988       39.653056       11.329995
  H           28.819072       40.305060       11.136390
  C           28.776977       39.381925       14.406766
  C           30.537551       39.594005       12.188532
  C           29.205369       39.949692       12.083142
  N           34.105328       37.928136        9.974273
  O           34.075734       35.406605        9.079409
  H           35.076747       37.910652       10.237804
  C           33.838623       37.758451        8.553563
  C           32.666484       38.613514        8.063717
  C           32.855140       40.104573        8.331619
  C           33.718571       36.240179        8.259806
  N           33.266691       35.911344        7.036410
  C           31.717131       40.963320        7.781428
  H           32.956624       40.277050        9.408151
  H           33.799128       40.428215        7.880300
  C           30.428188       40.871166        8.586264
  H           32.018007       42.012638        7.743029
  H           31.507964       40.670125        6.745098
  N           29.384495       41.656096        7.928872
  H           30.156093       39.814263        8.740455
  H           30.591286       41.299015        9.580537
  H           29.197394       41.275378        7.008516
  H           28.512876       41.593696        8.439535
  C           33.013732       34.534188        6.665138
  H           32.856267       36.604385        6.432174
  C           34.209134       33.633928        7.002253
  H           33.002882       32.337365        4.913017
  C           32.764397       34.475829        5.156430
  O           35.320832       33.838788        6.547441
  C           35.385979       30.847402        6.852383
  N           33.903870       32.549394        7.751952
  N           36.622470       30.333549        6.872931
  S           36.898163       30.980563       10.028485
  H           34.386577       30.822441        8.718483
  C           34.908244       31.576928        8.121258
  H           32.565554       38.475380        6.982934
  O           34.632884       30.714241        5.884619
  C           36.012156       32.196200        8.996847
  H           31.749072       38.245869        8.523481
  C           37.187779       29.637032        5.726922
  H           36.914284       30.189950        4.822654
  C           32.270578       33.116815        4.701846
  O           31.799895       35.507502        4.887756
  H           32.116203       34.172824        7.184445
  H           31.566561       35.460108        3.956239
  H           31.330304       32.869183        5.198365
  H           32.092243       33.123116        3.624205
  H           37.141855       30.265204        7.739630
  C           38.711392       29.570457        5.864916
  H           34.923072       29.099076        5.362964
  H           40.441865       30.832329        5.956010
  C           36.585420       28.225347        5.634473
  O           39.049664       28.919274        7.085716
  O           37.246512       27.229020        5.808020
  C           39.362803       30.936337        5.854091
  O           35.286700       28.176839        5.377239
  H           34.746201       38.095193        8.040562
  H           39.075787       28.976082        5.019210
  H           39.152251       31.456281        4.919650
  H           39.001778       31.554218        6.676630
  H           34.953364       29.305942       13.584677
  H           35.999731       31.633328       15.027918
  H           35.009038       33.623937       15.011572
  H           33.009658       32.512921        8.208825
  H           33.713945       34.720539        4.664597
  H           35.454465       20.899328       12.643907
  H           36.844131       21.259260       13.697469
  O           30.939532       13.036144       24.791949
  H           30.931263       13.953319       25.075581
  H           31.298364       12.557413       25.543413
  O           10.007665        8.751878       16.713329
  H            9.885801        9.436526       17.375245
  H            9.671701        7.954499       17.130411
  O           39.510221       17.680578       32.225366
  H           40.125907       18.385464       32.439356
  H           39.093908       17.464955       33.063717
  O           38.410864       14.750471        4.316857
  H           38.228174       14.818156        5.256947
  H           38.094095       13.876590        4.074720
  O           39.777590       40.533631       11.293065
  H           40.004640       39.863543       11.942030
  H           40.541192       40.570782       10.711538
  O            7.917262       18.494343       34.966657
  H            7.910526       17.741494       34.370923
  H            7.239566       19.079575       34.618988
  O           11.791124       18.528959        0.583123
  H           11.134929       18.951214        0.023807
  H           12.239511       17.911254        0.000001
  O           12.017231       30.585439       35.653023
  H           11.910660       29.641317       35.790870
  H           12.893337       30.779070       35.995933
  O           33.088274       26.165884       19.391058
  H           33.296881       27.050875       19.082838
  H           32.478919       26.304890       20.120445
  O           15.940927        0.342991       37.770800
  H           16.164608        0.946748       38.482959
  H           15.445932        0.881560       37.148253
  O            1.649720       12.888946       32.750255
  H            2.288794       13.599941       32.661964
  H            1.186116       13.085281       33.568281
  O           36.620663       20.087343       38.630343
  H           37.170576       19.914469       37.862597
  H           36.185221       20.919557       38.429215
  O           24.148572       27.492918        7.857934
  H           24.528639       26.614486        7.782887
  H           24.868853       28.084891        7.626839
  O           16.342228        8.017989        1.631459
  H           15.680322        7.323839        1.589482
  H           16.593104        8.052503        2.558018
  O           19.410128        0.467430       32.178184
  H           18.455377        0.499307       32.273889
  H           19.576090        0.852166       31.313848
  O           18.347934       39.117510       26.234836
  H           18.290857       38.159222       26.222496
  H           17.914991       39.371625       27.053755
  O           30.978006       21.597992        7.628153
  H           30.345833       21.599635        6.905602
  H           31.815121       21.377223        7.212051
  O           39.867854       37.883985       19.887175
  H           39.033909       37.448092       19.696760
  H           40.261613       37.351779       20.583131
  O           28.110389       26.941401       17.606478
  H           27.677637       26.833127       16.756344
  H           27.501794       27.481676       18.116730
  O           17.158467       13.361866        3.682790
  H           16.397779       13.898222        3.918164
  H           17.182781       12.675065        4.353875
  O           16.014784       29.579831       34.346004
  H           15.892521       29.966672       33.475872
  H           15.143670       29.618883       34.748840
  O           13.336378       20.295601       25.284570
  H           12.880038       20.030582       26.086596
  H           12.758470       20.951931       24.887212
  O            8.272867        2.737671       28.151191
  H            8.668124        3.397405       27.576519
  H            9.019872        2.236315       28.487743
  O           12.308996       36.794840       18.336844
  H           12.677463       36.779215       19.223248
  H           12.442430       35.902480       18.007403
  O           41.124292        4.294449       20.463996
  H           40.775582        3.402128       20.526361
  H           42.000000        4.182315       20.085574
  O           25.589300       22.031063       19.969173
  H           25.215935       22.379919       19.156386
  H           26.489395       21.791477       19.734503
  O            9.591090       41.031035       32.180261
  H           10.125721       40.900766       31.393543
  H           10.067676       41.694775       32.685195
  O           17.517738       16.609430       37.710259
  H           17.046331       16.787354       36.893042
  H           17.638700       15.656538       37.713128
  O           10.762379       37.201981       22.845698
  H           10.001875       37.360178       23.409909
  H           10.956042       36.268476       22.962764
  O           20.904166        8.678314       40.419870
  H           21.623640        8.345202       40.961274
  H           20.853246        9.612080       40.639254
  O           11.880419       14.488024       36.076276
  H           11.174166       14.305840       36.700568
  H           11.717119       15.389610       35.787974
  O           17.250084       40.862829       36.729197
  H           17.603122       40.009242       36.467515
  H           17.981845       41.297017       37.174898
  O           41.664166        1.127060       19.866522
  H           41.324557        0.297445       19.522824
  H           41.197491        1.801280       19.366237
  O           32.957356        4.393303       36.678361
  H           33.642303        3.891678       36.230093
  H           33.436954        4.959103       37.288687
  O           25.325094       27.076003       40.111130
  H           25.581421       26.860707       39.211314
  H           24.751197       26.352424       40.375171
  O           38.202919       33.336376       40.795486
  H           39.152210       33.192962       40.793623
  H           38.045509       33.880509       41.571234
  O           13.194371       23.661973       17.225144
  H           13.247914       24.609220       17.372052
  H           12.526187       23.564021       16.542079
  O           14.706262        6.736348       19.461315
  H           14.004521        6.543033       18.835285
  H           15.325638        7.277799       18.965488
  O            6.234727       35.734690       11.336495
  H            6.380440       35.289980       12.174783
  H            7.027526       35.548823       10.827020
  O           39.314667       21.349912        4.259898
  H           38.408756       21.301785        3.945678
  H           39.452786       22.281783        4.447466
  O           21.847563       35.479940       34.448582
  H           21.831995       34.521190       34.400819
  H           22.083832       35.669450       35.360122
  O           27.733935       26.520008       10.126752
  H           27.533028       26.994343        9.316586
  H           28.263558       27.136380       10.638833
  O            9.856655       35.114874       41.937901
  H           10.610223       35.625027       41.631954
  H           10.047770       34.216074       41.658121
  O           22.395146       41.996637       18.699191
  H           23.248059       41.999999       18.258448
  H           21.919818       41.267362       18.293159
  O            5.855239       19.911055       16.828739
  H            5.711419       20.854284       16.722148
  H            5.381370       19.687078       17.633676
  O           38.670950       21.537556       20.300202
  H           37.799492       21.940396       20.302810
  H           38.607329       20.827519       20.943974
  O           30.701812       33.977680       39.545695
  H           29.816340       34.341203       39.471436
  H           31.204159       34.432549       38.864972
  O           39.420837       33.677669       28.403399
  H           40.329622       33.946037       28.557714
  H           38.908956       34.200049       29.026085
  O           16.369232       26.497557        5.741117
  H           15.422283       26.607558        5.854753
  H           16.706343       27.394033        5.668118
  O           21.766638       17.814174        2.696655
  H           20.852248       17.654031        2.451764
  H           22.079900       18.448484        2.046917
  O            9.345649       12.881300       37.889668
  H            9.508474       13.550209       38.558827
  H           10.216280       12.679063       37.537896
  O           31.251146       38.815306       20.011667
  H           32.207520       38.893145       19.979827
  H           31.088880       38.139328       20.674513
  O            6.591822       18.479856       30.195469
  H            7.399153       18.719042       30.656697
  H            6.666195       17.531732       30.060668
  O           39.865217       12.145090       23.957524
  H           39.131152       12.052977       24.569397
  H           40.145541       13.058394       24.057207
  O           38.584040       21.515232       17.983600
  H           37.830133       20.965214       17.758149
  H           39.203739       20.911158       18.400386
  O           31.774957       24.242636       18.279996
  H           31.765547       25.123009       17.897137
  H           31.534457       24.380031       19.199737
  O           13.374782       26.013465        4.661657
  H           12.523167       25.582051        4.559874
  H           13.258189       26.596177        5.416306
  O           26.617518        0.000000       38.390295
  H           26.871640        0.761042       38.917517
  H           26.891630        0.225938       37.497851
  O           41.296836       33.381956       36.005516
  H           40.758916       32.589893       36.076250
  H           42.000000       33.250663       36.646581
  O           28.475334        2.013986       31.113598
  H           28.106719        2.740829       31.621090
  H           29.411342        2.219502       31.048063
  O           32.850498       13.491684       32.858544
  H           33.717539       13.849665       32.654058
  H           32.286487       14.264906       32.940152
  O           28.602655       23.457277        8.838943
  H           28.316027       22.630158        8.444680
  H           27.901587       24.078438        8.626094
  O           18.239240       32.620533       41.312630
  H           18.756407       31.927157       40.896105
  H           17.472429       32.720960       40.742932
  O            0.000000       30.744701       31.736435
  H            0.489790       30.022633       31.335875
  H            0.621682       31.142334       32.351287
  O           18.807048       38.358801        8.334100
  H           17.961760       38.090220        7.966571
  H           19.234274       37.533612        8.577374
  O           27.645345       38.114127        3.308226
  H           28.344133       37.775811        2.743459
  H           27.138830       37.335616        3.553184
  O           33.667376       12.890687       15.878438
  H           33.951073       11.979953       15.987086
  H           34.039539       13.348397       16.636487
  O            3.143331       24.722780       22.302231
  H            2.491658       24.370026       21.691813
  H            3.694541       23.968275       22.524791
  O           20.810892       38.865540       19.689577
  H           21.050342       38.163334       20.298917
  H           20.463823       38.406050       18.920777
  O           11.484823       41.386110       22.308173
  H           12.329480       41.788339       22.092558
  H           11.079074       42.000000       22.925546
  O           41.999999       39.173958       20.017930
  H           41.511107       38.838019       19.263044
  H           41.900308       38.493525       20.688537
  O            5.823052       39.794656       29.462693
  H            4.903947       39.942117       29.227692
  H            5.862231       38.864718       29.700012
  O           12.964831        9.040997       36.293268
  H           12.217755        8.570350       35.916314
  H           13.642428        8.368227       36.397602
  O           31.295991       25.266733       38.869173
  H           31.253355       25.957038       38.203300
  H           30.927517       25.673009       39.657722
  O           22.855360       19.778298       33.262430
  H           22.126574       20.009735       33.842975
  H           22.488930       19.854400       32.377795
  O            0.489048        1.391376       26.739450
  H            1.409265        1.645385       26.637450
  H            0.079559        2.146369       27.169504
  O           12.612732       17.845558       16.610860
  H           12.039321       17.334420       17.186762
  H           12.257706       17.699604       15.730351
  O           28.141794        3.169703       39.055062
  H           28.194180        3.789647       39.786260
  H           28.333125        2.316175       39.451955
  O           42.000000       30.528126       28.591759
  H           41.368892       30.429089       29.308432
  H           41.970393       31.463550       28.375547
  O           34.045608       30.832494       40.778712
  H           34.729327       31.422211       41.105036
  H           34.510848       30.227899       40.195052
  O            0.561106       38.869147       22.564144
  H            1.064933       38.154402       22.960405
  H            1.227914       39.465613       22.214517
  O           14.574523       15.020884        1.967039
  H           14.548714       14.099380        1.698916
  H           14.596314       14.989422        2.926818
  O            6.624038       31.340263       18.875965
  H            7.056450       31.843785       19.569659
  H            5.823894       31.004877       19.288189
  O           26.509939       30.014843       11.792220
  H           26.948399       30.823981       12.065668
  H           27.062958       29.670874       11.086176
  O            6.960707       37.449731       14.649547
  H            7.674198       38.026710       14.931950
  H            7.199571       37.195678       13.754537
  O           15.267344       28.795340       25.951310
  H           14.892437       28.880198       26.831065
  H           15.888132       28.066171       26.025995
  O           33.917480        9.533967        5.570553
  H           33.671598       10.263127        6.144655
  H           33.529894        9.758375        4.720811
  O           31.663934       14.461580       15.135877
  H           30.704084       14.472388       15.118629
  H           31.883273       14.188908       16.030405
  O            2.610683        8.133549       13.910275
  H            2.780362        8.166973       12.965915
  H            2.672601        9.048463       14.196178
  O            0.668347        2.066150       10.405007
  H            0.000000        1.514994       10.818848
  H            0.201968        2.513362        9.694279
  O           26.308279       17.343487        5.833846
  H           25.436740       17.013196        6.064177
  H           26.153090       17.922817        5.083556
  O           10.971184       39.585062       38.426054
  H           10.659896       40.314414       38.967228
  H           10.711231       39.823230       37.532554
  O           14.533938       36.812512        7.792023
  H           13.808736       37.423527        7.941913
  H           14.985654       36.766365        8.638466
  O           11.824705       31.816913       21.997777
  H           10.925998       31.598562       21.740147
  H           12.024607       31.203182       22.709124
  O           19.268444        9.127781        4.016675
  H           18.721284        8.388234        4.291287
  H           18.945156        9.351020        3.140152
  O           41.767297       26.751699       24.462841
  H           41.999846       25.830984       24.604009
  H           41.341450       26.760759       23.601903
  O           33.319368       36.795125       26.742812
  H           32.413857       36.750017       27.058630
  H           33.261147       36.549607       25.816004
  O           41.301064        9.723097       11.594002
  H           41.365236        9.112661       12.332227
  H           40.676261        9.307371       10.994473
  O            9.525284        9.635925        5.411319
  H            9.645070        8.713869        5.650461
  H            8.892147        9.614669        4.689289
  O           40.352997       10.535248       37.568138
  H           40.095338       11.355635       37.995106
  H           41.139991       10.764092       37.067226
  O           20.374792       28.867841       25.899849
  H           21.036253       28.191176       26.062082
  H           20.870699       29.601844       25.528423
  O           37.838054       40.057787       29.159455
  H           37.663681       39.282748       28.620350
  H           38.113654       39.701123       30.007675
  O           26.883714       34.619221       26.582922
  H           26.107305       34.061452       26.494565
  H           27.544618       34.197575       26.027888
  O            7.891291        2.242709       31.561450
  H            8.795112        2.102692       31.853387
  H            7.713265        1.503801       30.974113
  O           38.161375       25.826332       33.597374
  H           38.617133       25.623731       32.777031
  H           38.863463       26.067588       34.206890
  O           33.117957       31.459390       23.198172
  H           32.844513       30.552172       23.352797
  H           33.635467       31.688029       23.974412
  O            1.369629       30.117422       13.563345
  H            1.484305       31.037253       13.813314
  H            2.139459       29.919101       13.024205
  O           19.531261        3.216999        1.002900
  H           19.489590        3.908290        1.667810
  H           19.602642        2.403593        1.508782
  O           25.941757       14.457600       25.081863
  H           25.397740       13.936559       24.486643
  H           25.500417       15.309712       25.123897
  O           19.865953       18.363151        7.047054
  H           19.068751       18.361466        6.512086
  H           20.222480       19.248732        6.940864
  O           26.730123       20.351881        6.811379
  H           27.537483       20.857058        6.932585
  H           26.546582       19.983820        7.679414
  O           14.187649       21.698388       19.179881
  H           13.670488       21.208230       19.823321
  H           14.710623       21.027650       18.733507
  O           37.481722       17.605201       39.508944
  H           37.746117       16.868364       38.953163
  H           36.677376       17.935247       39.100607
  O           19.319675       14.954926        0.658739
  H           18.584959       15.567858        0.579806
  H           19.019804       14.304424        1.298714
  O            8.227393       41.449182       27.642799
  H            8.819109       41.441169       26.886801
  H            8.674949       42.000000       28.290051
  O           13.705601       11.369043       32.169532
  H           14.556112       11.282912       31.732568
  H           13.163164       10.682698       31.772877
  O           13.636376       12.144191       39.918632
  H           12.816082       12.578897       40.163320
  H           13.995707       12.691348       39.215679
  O           16.683736       27.554366        0.217263
  H           17.441192       28.102802        0.000000
  H           16.277468       27.995359        0.967672
  O           17.927887       11.858566       15.743147
  H           17.626938       10.959991       15.897154
  H           17.634662       12.344352       16.518178
  O           31.866217       28.179794       35.451625
  H           31.827654       27.221733       35.403070
  H           31.812783       28.467245       34.536661
  O           39.514363       23.433741        7.437564
  H           38.837512       22.756459        7.367652
  H           39.511169       23.863583        6.578572
  O           23.047020       36.560425       18.624066
  H           22.187970       36.895031       18.892016
  H           23.321623       37.148411       17.915894
  O           31.611767       11.678071       40.164913
  H           32.479216       11.274986       40.082576
  H           31.499193       12.170577       39.347963
  O           16.946060        0.419718       30.506403
  H           16.729544        0.053138       31.366906
  H           17.443423        1.217058       30.705201
  O           12.524963        9.610430       14.031577
  H           12.765179       10.469273       14.387120
  H           11.767785        9.788930       13.468140
  O           17.446844       41.665340       13.507189
  H           16.675766       41.157026       13.769450
  H           17.756559       41.233127       12.707245
  O           26.874386       16.084303        4.106830
  H           27.713280       16.532470        3.975958
  H           26.534037       15.951212        3.218522
  O            0.762689        5.500283       34.467147
  H            0.000000        5.364021       35.034124
  H            0.404302        5.924012       33.683148
  O           30.736087       13.951058       37.063972
  H           30.751252       14.907631       37.144373
  H           30.619879       13.637903       37.964567
  O            9.628284       37.235422       29.601683
  H            8.755725       37.632266       29.548003
  H           10.036745       37.442486       28.757334
  O           29.867352       10.800105       33.719166
  H           28.937648       10.682994       33.928118
  H           30.329989       10.341510       34.425070
  O           28.897294        2.932404       20.316183
  H           29.286410        3.769879       20.053600
  H           28.307140        3.159935       21.039086
  O           41.382778       33.284428       38.757952
  H           41.332931       34.203048       39.032500
  H           40.506375       32.934265       38.936685
  O            8.194499       23.230824       40.081988
  H            8.851412       23.802658       40.485963
  H            8.685405       22.444597       39.829994
  O           41.726893        1.518627       31.258199
  H           41.667039        2.002289       30.431027
  H           41.072913        1.934671       31.825525
  O           36.487275       32.214734       25.027637
  H           35.907543       31.461502       24.892440
  H           37.168939       32.114105       24.358420
  O           15.068031        5.826802       21.769375
  H           14.789612        6.733843       21.915949
  H           15.821822        5.901262       21.178701
  O            2.372750       30.290004       15.552635
  H            2.220695       31.194607       15.836001
  H            3.087793       30.356957       14.914770
  O           25.683051        9.623871        4.006958
  H           25.089205        8.901583        4.224611
  H           25.992980        9.419052        3.121161
  O           27.915581        6.583751       34.975907
  H           28.830634        6.698346       35.242874
  H           27.579125        7.479074       34.887384
  O           10.092595       38.292205        3.926752
  H           10.042686       38.565642        3.007804
  H           10.175902       39.114585        4.416030
  O            7.367763        4.789608       32.308315
  H            7.466127        5.721148       32.518750
  H            7.594810        4.730314       31.376878
  O           38.513986        2.512324       36.630313
  H           37.950706        1.748825       36.776975
  H           38.308399        3.103738       37.358740
  O           11.661181       20.572864        1.070555
  H           11.436786       21.451685        0.755839
  H           12.517791       20.389944        0.676346
  O           14.604415       29.073101        6.906106
  H           15.449873       28.639261        7.042882
  H           14.325596       28.782457        6.034081
  O           31.631582        3.119542        4.537474
  H           31.288046        3.994180        4.734237
  H           32.340633        3.277687        3.909081
  O            8.766487       22.661283       30.198695
  H            7.872816       22.443169       29.923915
  H            8.688151       23.532901       30.594659
  O           11.521945       19.424328       39.607068
  H           10.918325       20.051847       40.011528
  H           12.392986       19.717265       39.886565
  O           21.259175       35.314637       17.082452
  H           22.101237       34.989176       17.409152
  H           20.768151       34.520636       16.856399
  O           24.201303        7.705835       10.908430
  H           23.494687        8.256127       10.562602
  H           24.424345        7.119255       10.181231
  O            4.349233       27.062258        8.451348
  H            3.820386       26.305596        8.187705
  H            3.847649       27.822049        8.145123
  O           39.723886        0.391875        8.586222
  H           40.254175        0.926630        9.181668
  H           38.859823        0.811361        8.594572
  O           19.631639       10.378161       23.042415
  H           18.764764       10.701258       22.785778
  H           20.242787       10.867082       22.485553
  O           18.447911       19.263789       21.387154
  H           18.668924       18.558945       22.000401
  H           19.002539       19.999279       21.659338
  O            2.656353       41.326791       38.005772
  H            3.400374       41.671091       37.506157
  H            1.941604       41.278013       37.365932
  O           17.382834        0.236708        1.080072
  H           16.452073        0.423725        1.223015
  H           17.789796        1.102670        0.995606
  O           36.443938       31.099162        0.958302
  H           37.069397       30.405994        0.734596
  H           36.978298       31.773988        1.384579
  O           32.764769       18.811240       36.283109
  H           33.443067       18.441826       35.712872
  H           32.736564       19.742122       36.047938
  O           11.142522       29.406498        0.716268
  H           10.989341       30.336977        0.536078
  H           10.345140       29.116396        1.166451
  O           12.198781       11.916251       24.532754
  H           11.662349       11.169669       24.809487
  H           11.668273       12.355987       23.863549
  O           37.827240       36.998027        8.645485
  H           37.103915       36.374467        8.743959
  H           38.378881       36.847100        9.417208
  O           42.000000        9.158135        8.083195
  H           41.533550        8.350804        8.312030
  H           41.487391        9.533673        7.362885
  O           35.264932       35.493320       20.040494
  H           35.932083       36.172234       19.915161
  H           34.435931       35.932865       19.835070
  O           11.362059       18.601142       36.472365
  H           11.285189       19.001922       37.341383
  H           10.688873       19.040638       35.946717
  O           40.200346       17.315480       25.604218
  H           39.713135       18.017379       25.166395
  H           40.593754       17.740447       26.370556
  O           30.368699       16.554103        7.989097
  H           31.040215       16.382953        7.324642
  H           30.690302       16.104255        8.774495
  O           36.471097        3.198498       35.666315
  H           35.553956        3.208042       35.382612
  H           36.907372        2.612082       35.043079
  O           32.195523       29.360793       13.336130
  H           32.489557       28.882632       12.557265
  H           32.937315       29.305730       13.943875
  O            5.949970        2.559902       28.730562
  H            6.361736        3.310518       28.296109
  H            6.670439        2.130892       29.199088
  O           39.790850       33.498228       23.590869
  H           39.087817       32.844421       23.588284
  H           39.570807       34.087825       22.865198
  O           25.080530       34.589050       12.670353
  H           24.635244       33.742186       12.749528
  H           24.415334       35.174453       12.299597
  O            3.607904        5.730294       37.499020
  H            3.589194        4.778227       37.376773
  H            4.335650        5.878201       38.108242
  O           13.807189       10.391780       22.630030
  H           14.052697       11.307135       22.783574
  H           13.001249       10.272518       23.138832
  O            9.924722       13.903445       22.055890
  H            9.245475       14.362768       22.555261
  H           10.149578       14.509773       21.345645
  O           18.488070       24.045063       31.048601
  H           18.367040       23.301200       30.453837
  H           18.347517       24.817794       30.495633
  O           12.541423       20.974723       13.224297
  H           11.849731       20.664236       12.635328
  H           12.194951       21.793309       13.588325
  O           34.899555        9.351556       25.653818
  H           35.820599        9.340013       25.924500
  H           34.897696        8.919294       24.796037
  O           36.860339       38.932100       37.634146
  H           36.883702       38.522239       38.502013
  H           37.779980       38.958496       37.358094
  O           11.785609       41.610522       35.514411
  H           12.694142       41.815113       35.281099
  H           11.266387       41.974718       34.793015
  O           20.314203        7.092275        1.759777
  H           20.436054        7.156663        0.809656
  H           20.605580        7.943657        2.095768
  O           19.998072       30.384330       33.897217
  H           19.543104       29.928234       34.609050
  H           20.929980       30.285719       34.108086
  O           12.283362       32.601330        5.054021
  H           11.890167       33.471368        4.953245
  H           11.979645       32.300608        5.914233
  O           39.583853       12.149079       35.009507
  H           38.759966       11.814388       34.647684
  H           39.799130       12.902984       34.454596
  O           21.461763       12.012632       32.509122
  H           21.536094       11.312959       33.162312
  H           20.873244       11.653098       31.840525
  O           29.722191        5.786305       20.840505
  H           30.205221        5.948979       20.026905
  H           29.688499        6.643213       21.273189
  O            5.438158       31.521056       11.016648
  H            4.710459       30.950520       10.758448
  H            5.882437       31.038154       11.718121
  O           21.626561       19.682551       27.773648
  H           22.028986       18.910305       27.369401
  H           20.950960       19.323043       28.354131
  O            0.717772       19.661886        2.244576
  H            0.498866       20.318817        1.579561
  H            0.324740       20.000719        3.052883
  O           35.702277        3.375041       30.151604
  H           36.646020        3.466330       30.302403
  H           35.547784        3.834505       29.322347
  O           40.579914       15.229803        2.201385
  H           41.140297       15.827793        2.701489
  H           41.170341       14.523929        1.926104
  O           12.787455       11.407477       27.855678
  H           13.723356       11.603895       27.770629
  H           12.394989       11.765599       27.055452
  O            1.227685        3.687581       31.897439
  H            1.026508        3.558799       32.827315
  H            1.333100        4.637903       31.805688
  O           36.279569       28.449293        8.323088
  H           36.952071       27.765852        8.371831
  H           35.820212       28.273383        7.498050
  O           40.490333       21.421269       23.076122
  H           39.914775       22.188562       23.117584
  H           40.702539       21.232531       23.993722
  O           13.303951       11.572243        8.671005
  H           13.265685       12.498980        8.423175
  H           12.575912       11.460029        9.287454
  O            6.860086        4.693322        8.488996
  H            6.238035        4.162388        7.986117
  H            6.475898        5.573686        8.489946
  O           13.504843       33.753700        3.131405
  H           14.079985       33.077198        2.766327
  H           14.091448       34.312046        3.647919
  O            5.645920       39.312066       39.531890
  H            6.244888       38.591985       39.321070
  H            6.061093       39.757876       40.274538
  O            8.380702       23.694848        8.328513
  H            7.594340       23.210059        8.589928
  H            8.054184       24.564088        8.082648
  O           40.528742       15.923677       29.940836
  H           39.912048       16.008817       29.209971
  H           40.016231       15.506422       30.637882
  O           25.417865        0.000000        1.421296
  H           24.565030        0.427774        1.528102
  H           25.910364        0.590492        0.845618
  O           35.625111       38.027686       35.225706
  H           35.253991       38.808445       35.643331
  H           34.925458       37.371952       35.281751
  O            8.417520       37.132925       11.502887
  H            9.115463       37.574893       11.013740
  H            7.773453       37.824098       11.676381
  O            9.206209       21.268907       35.682504
  H            9.609702       21.777827       34.975455
  H            8.370205       20.971228       35.314910
  O            4.987143       28.643547       12.191920
  H            4.596329       29.479624       12.456429
  H            5.649504       28.885687       11.539780
  O           32.150902        2.633349       27.033987
  H           31.590651        2.931841       27.754228
  H           31.537175        2.278763       26.385720
  O            9.645469       26.188181       26.564366
  H            9.443362       27.086196       26.837216
  H            8.940544       25.658755       26.945720
  O           21.158825       28.632907       40.874364
  H           20.947024       28.387291       41.777989
  H           20.407585       28.324771       40.361203
  O           26.236811       41.438919        9.181828
  H           25.420884       41.282316        8.700721
  H           26.385170       40.625553        9.670773
  O           24.796713       36.919702       13.571310
  H           24.668971       37.667464       14.159748
  H           25.316038       37.273851       12.845002
  O           40.215340        5.945275        7.465040
  H           41.136022        5.903279        7.733935
  H           39.736143        6.112335        8.280578
  O           33.774389       13.439064       18.991745
  H           34.252549       14.205028       18.665574
  H           32.873174       13.573349       18.687737
  O            2.772792       29.460089       18.344903
  H            3.020256       30.279748       17.910568
  H            2.577751       29.718853       19.249139
  O           25.644962       28.810000       37.901213
  H           26.569565       28.642215       37.704534
  H           25.268947       29.086367       37.061643
  O           36.112408       38.034434       21.736045
  H           36.986343       38.060883       21.339483
  H           35.747089       38.906437       21.566356
  O            9.205874        1.466458       16.439532
  H            8.531349        2.100725       16.185667
  H            8.805239        0.965717       17.154649
  O            5.394349       38.990586       16.391987
  H            6.242461       39.334584       16.101993
  H            5.094795       39.620446       17.052430
  O           11.347452       12.135165       14.461371
  H           11.131763       12.994183       14.831900
  H           11.945088       12.331818       13.735561
  O           41.136633       27.884327        2.149945
  H           40.466897       28.480790        2.492597
  H           41.245089       28.149088        1.233004
  O           10.899786       24.197696       19.067361
  H           11.822731       24.462022       19.062011
  H           10.890608       23.354424       18.607524
  O           40.595940       30.935614        8.872638
  H           40.248606       30.499159        8.091234
  H           40.535772       31.872409        8.669079
  O           34.856556        0.637244       10.596658
  H           34.475299        1.351393       11.112758
  H           35.429826        1.079109        9.965184
  O           28.286758       20.610369       36.244039
  H           28.951842       20.533812       35.555906
  H           27.463971       20.375455       35.807599
  O           16.995856        1.262104       12.031055
  H           17.947159        1.356626       11.942671
  H           16.772271        1.802861       12.792786
  O           40.452596        6.210334        3.529715
  H           40.634389        6.281498        2.589709
  H           40.402835        5.264915        3.692037
  O            1.957947       17.292751       22.344675
  H            1.186718       17.805581       22.091819
  H            1.643075       16.719862       23.048447
  O           11.320908       37.683553        0.940217
  H           11.915092       38.316675        1.349883
  H           11.501689       37.760710        0.000000
  O           19.373889       16.720430       33.965273
  H           18.598615       16.921456       34.494673
  H           19.416151       15.760837       33.959151
  O           21.658533       41.874658       34.119956
  H           21.675539       41.028867       34.573909
  H           21.429953       41.654161       33.213439
  O           19.185153        5.433752       35.420709
  H           18.254675        5.509119       35.644887
  H           19.428908        6.311546       35.116236
  O            1.726063       40.379289       41.334591
  H            1.925262       41.042067       42.000000
  H            1.335344       39.654599       41.829370
  O           33.849686       22.509848       19.933875
  H           33.048458       22.910349       19.588395
  H           33.568564       22.072697       20.741657
  O           34.602995       12.550403       40.585770
  H           34.417267       11.717224       41.025138
  H           34.416218       12.378277       39.659417
  O           16.924116        7.609260       36.093653
  H           17.843347        7.663750       35.822046
  H           16.900401        8.053025       36.945212
  O           19.687905       40.860553       27.771691
  H           19.660800       41.067503       26.834588
  H           18.776717       40.950184       28.062114
  O            3.574142        4.160808       18.600241
  H            4.336142        4.742295       18.545896
  H            2.827254        4.725985       18.387224
  O           39.995399       18.400191       22.567643
  H           40.747409       17.811064       22.663230
  H           39.662524       18.220579       21.684707
  O           40.529348       26.446958       40.828998
  H           39.609409       26.290533       40.603236
  H           40.720556       25.799575       41.512355
  O           11.000045       40.298995       17.696494
  H           11.357106       41.189309       17.736153
  H           10.221907       40.328907       18.258854
  O            5.112630       41.155616       12.415623
  H            5.995701       41.403012       12.131535
  H            4.661373       40.909351       11.604227
  O            1.960676       31.905704        9.188004
  H            1.753200       32.079233        8.266828
  H            2.657492       32.532705        9.397670
  O            3.679164       14.654038       35.645310
  H            3.421947       15.578804       35.664566
  H            4.604543       14.658532       35.902793
  O           28.913861       20.947016        9.374231
  H           29.311621       21.373415       10.136921
  H           27.969868       20.978111        9.549027
  O            5.609373        2.988218       25.988464
  H            6.416533        3.494308       25.869761
  H            5.152893        3.432566       26.707368
  O           41.289133       18.242175       41.547566
  H           40.989607       17.447695       41.995685
  H           40.834200       18.957004       42.000000
  O           27.987610        7.730986       25.603190
  H           28.046517        6.806253       25.854438
  H           27.309429        7.750586       24.923243
  O           40.424768       10.062849       24.678655
  H           39.530074        9.822003       24.427179
  H           40.639727        9.463681       25.397983
  O           32.236741        3.709528       38.644434
  H           31.631877        3.208750       38.092088
  H           32.079752        3.377359       39.531937
  O           17.442793       24.149222       14.933141
  H           16.909219       24.529226       14.231271
  H           16.830435       24.038477       15.664849
  O            3.855603       29.624089       32.215203
  H            3.809169       28.667788       32.144078
  H            4.766066       29.800653       32.465252
  O           18.310417       22.312559        7.040853
  H           18.951221       21.975438        7.671285
  H           17.553621       22.558812        7.578684
  O           10.315656       15.343768        2.491472
  H           10.959712       15.661965        3.128392
  H            9.490893       15.310501        2.982696
  O            0.605831       19.430366       14.960457
  H            1.045423       19.984336       14.311149
  H            1.287362       18.820499       15.254088
  O            9.998556       24.229939        2.079746
  H            9.861015       24.618048        2.947028
  H            9.151197       23.835765        1.857819
  O           12.233746       35.469704       13.657780
  H           11.967360       36.259801       14.133711
  H           12.846746       35.788576       12.990551
  O           16.895521       19.841471       14.267000
  H           17.070485       20.755105       14.504454
  H           17.262007       19.750279       13.383816
  O           21.503655       38.110413       35.096621
  H           22.103689       38.858604       35.140146
  H           20.633225       38.494911       35.227602
  O           23.674598       11.314704       34.304320
  H           23.980021       12.152607       33.948848
  H           24.049905       10.654969       33.715647
  O           14.206574       25.610291       22.602211
  H           13.545460       25.021159       22.973125
  H           13.719190       26.408964       22.384905
  O           22.936690        1.535409       41.246292
  H           23.103010        0.849535       41.897168
  H           21.981802        1.538898       41.142279
  O           10.927903        6.120070       16.062470
  H           11.647430        6.186997       16.694552
  H           10.841558        5.177590       15.898403
  O           31.833969       22.533927       37.163693
  H           31.927132       21.672373       36.750449
  H           32.155055       22.404575       38.059691
  O           21.428008       25.062337       18.177611
  H           20.883754       25.850598       18.242085
  H           20.888320       24.367747       18.563518
  O           23.322377       32.030844       25.103620
  H           22.640540       32.706380       25.125436
  H           24.138948       32.520299       24.976000
  O           26.597861       12.171550       26.550495
  H           26.271366       11.728291       25.763954
  H           26.008080       11.880306       27.250479
  O            4.452315       13.169404       31.780296
  H            5.230208       13.693321       31.575070
  H            4.453957       12.471518       31.120300
  O           13.081054       24.939167       26.807495
  H           12.260851       24.445498       26.734815
  H           13.642019       24.389436       27.360447
  O           31.312262       18.272123       15.838099
  H           32.014177       18.913926       15.707217
  H           30.601493       18.775419       16.243244
  O           19.186775       20.390997       24.627815
  H           19.816869       19.749036       24.292268
  H           19.569367       20.689878       25.456632
  O           40.362031       31.305622       24.296707
  H           40.784858       30.503337       24.611795
  H           41.091170       31.904210       24.115899
  O           13.634347        1.628089       18.224783
  H           13.590607        1.789647       19.170145
  H           13.070838        0.862432       18.087419
  O           38.040788        1.051025        5.700494
  H           38.767709        0.957268        6.320591
  H           38.463627        1.067744        4.838189
  O            2.893201       30.109459       41.426187
  H            3.020982       29.554821       40.653028
  H            3.632351       29.892579       42.000000
  O           25.690449       14.240782       13.921669
  H           24.977063       14.575657       13.373341
  H           25.278297       13.560066       14.459626
  O            7.385074       40.831972       41.665003
  H            6.513394       41.054851       42.000000
  H            7.688621       41.636235       41.236444
  O            4.562250       24.496487       14.159099
  H            3.794099       24.607534       14.724197
  H            4.423087       25.120487       13.442231
  O           37.891659       42.000000       13.530268
  H           38.808532       41.897836       13.796036
  H           37.776807       41.363192       12.820390
  O           34.089586       20.266136       38.280223
  H           34.329118       19.594549       37.637324
  H           33.154498       20.421818       38.125256
  O           28.941993       26.079564        1.866389
  H           28.512234       26.938070        1.865183
  H           29.407907       26.047338        2.705750
  O            5.286804       17.377198       32.850886
  H            5.783341       17.759468       33.578241
  H            5.914094       17.346442       32.124110
  O            2.776842       36.135484       10.645660
  H            3.035610       37.041518       10.829684
  H            2.446783       36.160248        9.743945
  O            9.904752        2.247039        0.257787
  H           10.861303        2.213870        0.332857
  H            9.593000        2.212632        1.165679
  O           19.434490        7.398218       38.085611
  H           18.772510        6.837419       37.674500
  H           19.225707        8.282105       37.772888
  O            4.049351       38.468022       21.288817
  H            4.207031       38.640836       22.219944
  H            3.182622       38.054594       21.266481
  O            2.655901       28.391277       10.693324
  H            3.010891       27.768199       10.054982
  H            3.160060       28.225642       11.493968
  O            6.292814       33.341702       10.124988
  H            6.683663       32.775872        9.455065
  H            5.874626       34.048028        9.626125
  O           35.235642       37.208821        5.340031
  H           34.518906       37.716359        4.952190
  H           34.797034       36.482641        5.790505
  O           25.568473       22.010469       27.496233
  H           26.057644       21.844844       26.686909
  H           24.953736       22.711090       27.264135
  O           14.423520        2.649972       38.690089
  H           13.962977        1.853175       38.963474
  H           14.923995        2.914268       39.466179
  O           31.304883       18.956972        3.968754
  H           31.438776       19.264081        3.069043
  H           31.773389       18.119306        4.006971
  O           21.623433        0.252521        2.009949
  H           21.345174        0.743794        1.233452
  H           21.050457        0.571421        2.711834
  O           28.320155       41.932946       32.529605
  H           28.502648       41.124397       32.045179
  H           27.361956       42.000000       32.529250
  O           14.984137       15.745388       37.475592
  H           15.065154       14.957223       38.017771
  H           14.117650       16.097377       37.694554
  O           29.982105       20.529901       25.903447
  H           30.902338       20.337283       26.097856
  H           30.000205       21.404611       25.506964
  O           11.519550       24.589777       41.360535
  H           10.909136       24.100070       41.916688
  H           11.503900       25.481582       41.717020
  O           18.821636       19.987846       30.268144
  H           19.559105       20.332856       29.759389
  H           18.718779       20.611175       30.991694
  O           41.674505       35.714420        2.308482
  H           41.053512       35.039395        2.592093
  H           41.133902       36.352151        1.835525
  O           39.203335       10.783268       26.457217
  H           39.447718       11.412155       27.140227
  H           38.964258        9.987965       26.939893
  O           24.504392       20.284125       10.636162
  H           24.683450       19.958645       11.521445
  H           24.137322       19.526686       10.173357
  O            2.825047       41.014056       34.219130
  H            3.688891       40.993816       33.800693
  H            2.860996       41.775485       34.803573
  O            8.939114       37.070562        5.641801
  H            9.587040       37.686523        5.991815
  H            9.327730       36.205015        5.791623
  O           33.871313       39.538989        5.460762
  H           33.896631       40.425309        5.828894
  H           33.885573       39.675197        4.510033
  O           25.042276       23.846320       23.192171
  H           25.015467       24.770898       22.934952
  H           24.407693       23.780093       23.910196
  O           20.916376        4.870055       26.159271
  H           21.438481        5.573366       26.552316
  H           20.896272        5.082847       25.222811
  O            4.225134       15.253721       30.393979
  H            3.407602       15.173135       30.890841
  H            4.719002       15.935521       30.856456
  O            5.927192       15.200063       19.365576
  H            6.011366       14.243896       19.345952
  H            4.989916       15.354019       19.508591
  O           26.341184       25.206539       18.627161
  H           27.249151       25.150912       18.934122
  H           26.374999       25.825747       17.893621
  O            2.554899       40.467138       29.830340
  H            1.613851       40.650983       29.878864
  H            2.772637       40.581626       28.901833
  O            0.807281       39.566655       34.071450
  H            0.994857       40.004222       34.905162
  H            1.574659       39.010144       33.916312
  O           39.899907        9.307374        3.079234
  H           38.942852        9.299844        3.003639
  H           40.145593        8.378839        3.089371
  O            5.006846       26.594724       16.809996
  H            5.739027       26.537099       16.191679
  H            4.348164       25.991583       16.456440
  O           24.925139        3.787551        1.529812
  H           24.038265        4.134569        1.651297
  H           25.173948        4.072839        0.647006
  O           15.300364       28.181241       23.258371
  H           14.653707       28.765035       23.661787
  H           15.334117       27.421263       23.844832
  O           21.659838        6.126063       38.354611
  H           21.338507        6.440555       37.506338
  H           21.354653        6.784280       38.984100
  O           41.041627        9.403531       39.548746
  H           41.952885        9.553622       39.286438
  H           40.888222       10.039279       40.252261
  O            3.922968       14.877296       23.028934
  H            4.465956       15.651669       22.863902
  H            4.135061       14.279284       22.307796
  O           34.119787       34.634832       28.754314
  H           34.778204       33.936731       28.724878
  H           33.636334       34.541539       27.929564
  O           30.783589       39.317659       24.863264
  H           31.097480       38.465640       25.175130
  H           29.871999       39.156652       24.606901
  O            1.502284        4.467195       36.753822
  H            1.099293        3.866363       37.384951
  H            1.987306        3.893813       36.154965
  O           13.336622       30.571222        0.684783
  H           13.279490       31.489556        0.958873
  H           14.010198       30.568245        0.000000
  O           13.661218        1.457331       24.401762
  H           14.213402        0.698348       24.603663
  H           13.283568        1.255457       23.541955
  O            3.570760       32.655192       33.602709
  H            3.756794       31.780026       33.254572
  H            2.700183       32.868947       33.257678
  O           28.912456        4.149467       16.994279
  H           29.646769        3.777994       16.499794
  H           28.218746        4.265250       16.340060
  O           29.599988       19.730846       11.476033
  H           29.227044       19.314785       10.695309
  H           29.155499       19.300595       12.210850
  O           38.116902        0.393301       10.928515
  H           39.038116        0.351002       10.661492
  H           38.098832        1.062396       11.617447
  O            7.682553        2.579323        9.089867
  H            7.526082        1.808958        9.641030
  H            7.682490        2.234940        8.193183
  O           14.662505       15.518275       15.203747
  H           14.243077       15.009173       15.901329
  H           14.602007       14.954938       14.428097
  O           11.186340        9.080390       10.058856
  H           11.181875       10.022090       10.245686
  H           10.266689        8.816228       10.143134
  O           24.633182       13.703430       41.556023
  H           25.562197       13.833916       41.351991
  H           24.266611       13.312538       40.758858
  O           15.940495       20.897192       31.116942
  H           16.493194       21.450202       31.674103
  H           15.750487       21.444830       30.351022
  O            4.818199       31.953601        6.978424
  H            4.263373       31.245017        7.312794
  H            4.246381       32.442633        6.381337
  O           10.572862        5.336821       38.003344
  H           10.409615        4.449646       37.674718
  H           11.156890        5.208898       38.755135
  O           35.151183        4.062896       10.272282
  H           35.961886        3.671697       10.606121
  H           34.849191        3.447789        9.599165
  O           15.840899       34.824389       12.633751
  H           15.408401       35.583211       13.032322
  H           16.128622       35.138849       11.772953
  O           14.024188        7.391090       40.668123
  H           14.284252        6.939870       41.474654
  H           14.810188        7.365572       40.116584
  O           30.000828       19.239042       41.919441
  H           29.161813       18.779380       42.000000
  H           29.898271       19.787162       41.137336
  O            7.113625       17.680471       24.348169
  H            6.287206       17.192747       24.377895
  H            6.943995       18.399848       23.734683
  O            7.173853       40.796133       21.490270
  H            7.455514       39.962492       21.106296
  H            6.807338       41.287503       20.750767
  O           26.416876       26.809257        7.131992
  H           27.124219       26.256281        6.791978
  H           26.751092       27.705382        7.043109
  O           11.616841       22.522559       34.142573
  H           11.860506       21.794638       33.565959
  H           10.922518       22.983175       33.664671
  O           12.827092       26.187388       33.148477
  H           12.035849       26.451636       32.673258
  H           12.506529       25.599033       33.836750
  O           21.665811       23.343906       28.367276
  H           21.026102       23.067348       27.706963
  H           21.950000       22.525200       28.781520
  O           35.294759        6.704862        2.989574
  H           34.376948        6.979534        3.052041
  H           35.626232        7.156526        2.209338
  O            5.839492        4.820924        3.999956
  H            4.930070        4.783156        4.305324
  H            6.345585        4.412891        4.707079
  O           36.917024       17.774361       20.141674
  H           37.767709       17.879355       20.574150
  H           36.276298       18.025950       20.811611
  O           15.531953       37.750644       15.482734
  H           16.375849       38.127118       15.222289
  H           14.992735       38.511210       15.713874
  O           40.013302        2.838112        5.101458
  H           40.503539        3.657700        5.199782
  H           39.302621        2.906825        5.743994
  O           27.324992       39.081451       33.264509
  H           27.300880       40.005379       33.524315
  H           27.966016       39.051401       32.549787
  O           39.998564       33.342055       30.930294
  H           40.490468       32.701419       30.411313
  H           40.560792       34.120758       30.943024
  O           11.989163       17.760812        4.558558
  H           11.039405       17.635147        4.496163
  H           12.337922       17.338250        3.769602
  O           31.401092       12.308635       34.934786
  H           31.164754       12.614525       34.055979
  H           32.228368       12.756579       35.128701
  O           34.328436       23.570719       22.514569
  H           34.362378       22.611475       22.535186
  H           33.739030       23.772786       21.783534
  O            8.871369       41.380615       35.424103
  H            7.990112       41.588172       35.743528
  H            9.016114       42.000000       34.704344
  O            1.750392       31.120330       39.581762
  H            2.026835       32.023867       39.751839
  H            2.201315       30.882247       38.767743
  O           13.354820       18.842668       36.232321
  H           13.030163       18.724100       35.336629
  H           13.282067       19.787519       36.389183
  O            4.653407       31.506772       27.309295
  H            5.460395       32.022603       27.242856
  H            4.183547       31.893775       28.052331
  O            1.383097        2.911793       22.145179
  H            1.432001        3.804947       21.796454
  H            0.789883        2.981685       22.897412
  O            6.828612       21.743727       38.377628
  H            7.042972       22.657603       38.176117
  H            7.318814       21.234796       37.726988
  O           16.548106       26.209370       16.923694
  H           16.067843       26.791960       17.516705
  H           16.703078       26.742242       16.139683
  O            4.390672       38.534948       41.399270
  H            3.637718       38.368661       41.971227
  H            5.093515       38.795289       42.000000
  O            2.188867       40.649798       15.348504
  H            1.547465       39.991139       15.625086
  H            2.211002       40.573804       14.391228
  O           25.544675       19.893219       34.836612
  H           24.622368       19.839042       34.575575
  H           25.705192       19.076427       35.315909
  O            2.968402       33.605608       24.433803
  H            3.682865       34.172446       24.733741
  H            2.172666       34.029318       24.765340
  O           10.728374        4.121397       25.580585
  H           10.831197        4.952666       25.111390
  H            9.792015        3.920276       25.506936
  O            7.535642        9.456846       36.875679
  H            8.163339        8.865115       36.454281
  H            6.939256        9.714829       36.168282
  O           35.854791       34.675357        2.966811
  H           35.177254       35.256457        3.320353
  H           35.458557       33.800880        2.997320
  O           21.840018       36.936793       31.898543
  H           21.968528       37.853152       32.154464
  H           22.473315       36.796004       31.190196
  O            6.081773       33.967354       31.915571
  H            6.660016       33.200965       31.918338
  H            5.373198       33.733602       32.520487
  O           16.080710        6.582512       28.907165
  H           15.896339        7.474240       29.211391
  H           15.522278        6.023882       29.453725
  O           20.547399       17.389414       26.792501
  H           21.156798       16.770422       27.201410
  H           20.026783       16.849978       26.191994
  O           27.519011       29.295430       32.562487
  H           27.089829       28.488062       32.855207
  H           26.964497       29.613850       31.845713
  O           21.898975       42.000000       22.059041
  H           21.841205       41.477655       22.862499
  H           21.208281       41.645050       21.493714
  O           35.541941       10.114609       17.893558
  H           34.789362       10.685915       17.723386
  H           35.180817        9.225552       17.851014
  O           40.448124       15.299302        5.745633
  H           40.304554       15.143673        6.682058
  H           40.197251       14.472817        5.325363
  O           30.755110       33.739604       29.823574
  H           31.260842       33.165795       30.403836
  H           30.522708       33.180012       29.078263
  O           24.331476       17.776722        3.759726
  H           23.722524       18.476452        3.512179
  H           23.890554       17.321139        4.481303
  O            2.845667       11.794777        7.212341
  H            1.920087       11.618522        7.396625
  H            2.857342       12.070128        6.292185
  O           13.743472       13.379180       33.263322
  H           14.562242       12.892212       33.144140
  H           13.961305       14.278543       33.005760
  O            9.725164       25.528532       22.170660
  H            9.361982       24.718971       21.804006
  H           10.668494       25.464842       22.001209
  O            2.022873       11.505695       29.146514
  H            2.854457       11.668858       28.695324
  H            2.107241       10.611050       29.485828
  O           14.929005       37.924510       29.355258
  H           15.026808       37.028678       29.686384
  H           14.657454       37.812362       28.440751
  O           17.112616       25.593806       34.074592
  H           16.425499       26.234726       34.271614
  H           17.802402       25.778682       34.716977
  O           25.381921        2.851662       30.434146
  H           25.854624        2.044147       30.219212
  H           26.046483        3.417366       30.835366
  O           26.979041        6.899132        6.143608
  H           27.686425        6.420078        6.581605
  H           26.641589        7.494738        6.817418
  O           23.356966       15.926341       40.366371
  H           22.544644       15.759984       40.850296
  H           24.047999       15.858845       41.030117
  O           41.567114       41.156704       33.066543
  H           40.799019       41.610938       32.712386
  H           41.617157       41.449569       33.979981
  O           18.579942       26.277966       37.171296
  H           18.687664       25.624380       37.866239
  H           19.465152       26.622528       37.028744
  O            1.389195       24.395196       29.946516
  H            1.650674       23.613645       29.454040
  H            1.674454       25.129687       29.397160
  O           31.447779       14.171117       40.944551
  H           32.261020       13.688079       40.780116
  H           31.093963       14.347344       40.069108
  O           19.270205        8.005307       16.556606
  H           18.426132        7.957068       17.011511
  H           19.140073        8.677853       15.883263
  O           26.639961       12.744567       22.172927
  H           26.614904       13.697075       22.055347
  H           26.557938       12.619209       23.121716
  O            9.532639       11.578400       30.091122
  H            9.230096       12.384251       30.516324
  H            9.071141       10.875825       30.555933
  O            4.532964        4.250068       10.274464
  H            4.650306        3.621523        9.558303
  H            5.289013        4.838087       10.201896
  O           31.154817       32.231594       23.932063
  H           31.011157       32.935042       24.569439
  H           30.271205       31.929177       23.707527
  O           17.862705       24.214157       25.537670
  H           17.997394       23.290470       25.313200
  H           18.747447       24.552006       25.698081
  O           41.620744       24.250258       22.081143
  H           41.999955       25.069796       21.755135
  H           40.914080       24.531330       22.667887
  O           25.411717       39.714681       18.133771
  H           24.518718       39.770896       17.785752
  H           25.658763       38.794870       18.009034
  O           10.514214        5.818493        5.611859
  H           10.413719        4.999373        5.121280
  H           10.913708        5.550923        6.443395
  O           16.775441       39.693852       24.305690
  H           17.670588       39.352396       24.367692
  H           16.795438       40.508892       24.813580
  O           21.365774       33.666302        6.385230
  H           20.769587       34.398643        6.558328
  H           21.941522       33.987545        5.686690
  O           21.034249       25.814524        9.458642
  H           21.061995       26.430228       10.194756
  H           21.257521       24.965816        9.849137
  O            3.897541        1.957752       34.801885
  H            3.591176        2.859276       34.678922
  H            4.671903        1.890024       34.237599
  O           13.088765       21.665896        6.889034
  H           12.743898       21.553352        7.777924
  H           13.276670       20.772214        6.591264
  O           32.091502       16.157593       28.435956
  H           31.770583       15.259547       28.325276
  H           32.341767       16.208938       29.361901
  O           27.490386        4.042426        1.463668
  H           27.278448        3.439559        0.747178
  H           27.039631        3.673096        2.227249
  O           12.277169       32.251608       18.737286
  H           12.662888       33.032674       18.333698
  H           11.573322       32.593863       19.294155
  O           37.312865        5.196605       19.499247
  H           37.329782        6.134374       19.294241
  H           36.761548        5.133855       20.283310
  O            8.286209        6.388290       12.578112
  H            8.669258        5.601731       12.973489
  H            8.334124        6.227261       11.632376
  O            6.769834       14.882937       11.692239
  H            5.889675       14.582178       11.930124
  H            6.655030       15.812895       11.480956
  O           19.094797       35.858047       34.484921
  H           18.687173       35.322597       33.800188
  H           18.444027       36.538663       34.674401
  O            0.632536       37.789911       36.806035
  H            1.125526       37.369776       36.097394
  H            0.250105       38.571665       36.399527
  O           28.232443       14.246412       36.956870
  H           28.616743       13.373229       36.849222
  H           28.650981       14.595247       37.747933
  O           28.549305       37.225778       23.883522
  H           27.804055       36.961446       24.428000
  H           28.182019       37.870218       23.273244
  O           27.717843        8.792031        0.000000
  H           28.663271        8.920241        0.107024
  H           27.354881        9.681355        0.002109
  O            3.203041       39.893147       26.456042
  H            2.986235       38.993464       26.711564
  H            2.573537       40.101941       25.761225
  O           24.626009       11.135474       39.237313
  H           25.405822       10.892659       39.741949
  H           24.597827       10.497146       38.520107
  O           29.393003       20.747502        2.502115
  H           30.135410       20.605148        1.910260
  H           28.722747       21.157439        1.949529
  O            1.404287       21.653059       33.289623
  H            1.273103       21.552267       34.235328
  H            0.736358       21.086968       32.894586
  O           20.669634       22.598287       25.570907
  H           21.539888       22.996252       25.493402
  H           20.160515       22.998219       24.861334
  O           27.223573        9.445927        8.480754
  H           26.346106        9.835320        8.468458
  H           27.764252       10.091059        8.943477
  O           10.026849        8.859773        0.778326
  H            9.134817        8.601112        0.535226
  H           10.269602        8.249134        1.478920
  O           38.937489       31.203229       28.622422
  H           38.947262       31.419049       29.557863
  H           39.776072       31.535540       28.292285
  O           24.380993       36.275292        9.955321
  H           23.955086       36.646354       10.731620
  H           25.240877       35.985750       10.270611
  O           27.573530       37.049072       34.394052
  H           26.910300       36.966235       33.704857
  H           28.410918       37.007834       33.925307
  O           12.708155       28.107927       14.586369
  H           12.005445       28.180219       13.936217
  H           13.516012       28.207337       14.076344
  O           26.059478       33.313251       15.030466
  H           25.452316       32.925844       15.665286
  H           26.059492       34.250274       15.241722
  O           36.111408       13.771653       39.284467
  H           36.966469       13.927830       38.876785
  H           35.893250       14.605757       39.707929
  O           27.785994       11.967808       35.322425
  H           27.599836       11.089401       35.662236
  H           27.000392       12.201058       34.821361
  O           31.685854        7.077352       36.857196
  H           32.536982        7.361824       37.198342
  H           31.078354        7.772642       37.122070
  O           27.786290        2.208674       13.503517
  H           28.411228        2.930342       13.605359
  H           28.256034        1.438234       13.832766
  O           17.717369        3.003058        5.620473
  H           18.183184        2.163723        5.604406
  H           17.477506        3.125015        6.542555
  O           13.234195       12.811942       11.008545
  H           13.612359       12.084922       11.508705
  H           12.468634       13.081867       11.522061
  O           14.545897        1.533975       13.208708
  H           14.930481        0.873994       13.790296
  H           13.600318        1.372022       13.256612
  O            5.740041       29.237585       14.891699
  H            5.629428       28.705283       15.682992
  H            5.067223       29.918999       14.966749
  O           22.914988       39.210416       24.073364
  H           23.666041       39.805742       24.016518
  H           22.867089       38.803382       23.204646
  O           22.428248       23.022802       35.437042
  H           22.046061       22.499712       36.145586
  H           22.550605       22.397444       34.718295
  O            1.380926        9.603725       24.133179
  H            0.496586        9.796137       23.812795
  H            1.328019        8.698500       24.450055
  O           36.731097       32.904185       28.442894
  H           36.447739       32.101735       28.887312
  H           37.284135       32.594460       27.721187
  O            8.937762       29.073460        3.674918
  H            8.590539       28.254891        4.037004
  H            8.535357       29.139089        2.805203
  O           11.290016       29.493687        6.723495
  H           12.182658       29.249258        6.468211
  H           11.405625       30.026344        7.514415
  O            7.154548       23.696811       22.316140
  H            6.984011       23.736284       23.260113
  H            6.281651       23.651495       21.917844
  O           37.951105       25.665152       37.802350
  H           37.688686       26.413851       38.343008
  H           38.156064       26.049474       36.946236
  O           39.738735       15.201604       39.778145
  H           39.541857       14.617774       40.514423
  H           39.072521       14.988233       39.119910
  O           27.959847        7.744804       30.996608
  H           27.775395        6.975859       31.541058
  H           27.540715        7.547283       30.155207
  O            3.696180       21.574505        3.980519
  H            3.706883       22.456956        4.358529
  H            4.486879       21.538627        3.436323
  O            4.569952       18.695858        4.358717
  H            4.966176       19.026709        3.549230
  H            4.868041       19.306979        5.037183
  O           29.273430       16.380129        6.003922
  H           29.483517       15.607659        5.473944
  H           29.497053       17.124503        5.439527
  O           23.375204       19.237718       22.091611
  H           23.550415       19.954531       22.705782
  H           22.456312       19.007166       22.250123
  O           26.451608        1.655608       11.639467
  H           26.082476        2.392397       12.132020
  H           26.433049        1.947309       10.724476
  O           24.580884       29.552278        2.233757
  H           24.782381       28.870200        2.878655
  H           24.758616       29.138297        1.385422
  O           11.301969        3.495961       33.963994
  H           12.138420        3.947623       33.829551
  H           11.424557        2.638523       33.548766
  O           32.685784       31.919617       26.634242
  H           32.856812       32.853108       26.779391
  H           33.307964       31.667213       25.947345
  O           20.948277       11.370948        3.877198
  H           21.396217       10.555789        4.115084
  H           20.277064       11.098806        3.246283
  O           22.076931       17.241265        5.817379
  H           21.480777       17.895620        5.445700
  H           21.633163       16.939687        6.614099
  O           41.555545        1.126155        4.070219
  H           41.999937        0.320389        4.344047
  H           41.958543        1.814414        4.605508
  O           21.171159        1.397488       12.172289
  H           20.301022        1.789749       12.275818
  H           21.283617        0.856092       12.957710
  O           11.261151       34.028935       16.525551
  H           11.098518       34.973128       16.464100
  H           10.745863       33.747210       17.285650
  O            9.702458        3.378357       35.828979
  H            9.091289        3.983011       35.401671
  H            9.832339        2.676673       35.186007
  O           37.043404       40.388723       17.256087
  H           37.465523       40.997867       17.866402
  H           37.188173       39.522605       17.645348
  O           39.577321       12.614563       14.109570
  H           39.318981       13.438376       13.689668
  H           38.780736       12.313332       14.553818
  O           31.247705       40.965988       41.225931
  H           32.145032       40.772905       40.944421
  H           31.355600       41.524394       42.000000
  O            4.911549        1.121439       39.047761
  H            5.491002        0.357386       39.094470
  H            5.232618        1.706754       39.738386
  O           26.899354       17.755266       19.413638
  H           26.882165       16.795431       19.401518
  H           27.032061       17.979703       20.338116
  O           31.230154       23.288833       21.818819
  H           31.089040       22.339226       21.811188
  H           31.878899       23.439047       21.126571
  O           15.955422       41.613237       34.452497
  H           15.917714       40.805350       34.969818
  H           16.507227       41.388399       33.699104
  O           20.583480       14.408773       13.049567
  H           21.513904       14.509516       12.835352
  H           20.408547       15.106276       13.686379
  O            8.194391       19.934019       24.759961
  H            8.460148       20.024010       23.841811
  H            9.012558       19.749038       25.227964
  O           36.461969       28.577785       40.927931
  H           36.033309       29.299442       41.393965
  H           36.033504       27.787521       41.266372
  O           24.902920       35.216078       34.759777
  H           24.011578       34.986537       34.486745
  H           25.124301       34.560831       35.426324
  O           21.744249       27.610095       15.453395
  H           21.703321       28.496433       15.086716
  H           21.606406       27.735304       16.395713
  O           20.975254       33.885352        2.343235
  H           20.804725       34.797291        2.590242
  H           20.112086       33.537263        2.105714
  O            4.498412       32.321118       39.098841
  H            4.284888       33.228538       38.869232
  H            5.406677       32.208772       38.807164
  O           38.869170       22.787833       40.265063
  H           39.204162       21.910331       40.066327
  H           39.514855       23.157618       40.872510
  O           37.727981       13.130910       36.931382
  H           38.172613       12.468146       37.465022
  H           36.961618       12.674845       36.574544
  O            5.438425       30.492664       40.896372
  H            5.546182       31.385068       41.233609
  H            6.077200       30.429046       40.181836
  O           33.735141       12.527959        5.946347
  H           34.017140       12.395130        6.854399
  H           34.469453       12.989694        5.533758
  O           28.923971       19.100474       39.281466
  H           28.446779       19.877448       38.980927
  H           28.355509       18.716882       39.954036
  O           23.611720        6.004515       29.698275
  H           22.659046        6.018248       29.580167
  H           23.930101        6.727918       29.152415
  O           29.292787        8.318579       32.650258
  H           29.879548        9.037140       32.403060
  H           29.264010        8.353589       33.609731
  O           17.143130       38.596365        0.562566
  H           16.769872       38.595331        1.447101
  H           16.422435       38.890917        0.000000
  O           40.166765        1.173596       26.224796
  H           40.130223        0.312473       25.801881
  H           40.564257        1.746851       25.564477
  O           23.625844       35.011419       15.172483
  H           24.426073       35.276078       14.712795
  H           23.371278       34.186104       14.752133
  O            2.125224       33.341637        3.923759
  H            1.538817       32.583541        3.979818
  H            2.798798       33.171615        4.587109
  O           12.091099       16.606805       38.310454
  H           11.333642       16.945505       38.793430
  H           12.658343       17.372426       38.189202
  O           14.050659       33.156802       11.591982
  H           13.772784       32.510333       12.245120
  H           13.717116       33.992893       11.927156
  O            4.408397       27.263076       36.742209
  H            4.975643       27.192395       37.513547
  H            4.669575       26.524995       36.185735
  O           29.449674        2.786014       41.288410
  H           29.447515        3.653324       41.700106
  H           29.218296        2.183730       42.000000
  O            2.418223       31.235384       26.910618
  H            2.171673       30.323019       27.079519
  H            2.224727       31.366084       25.978889
  O           17.487103        7.564502       32.944359
  H           17.515055        6.972716       33.699827
  H           18.386933        7.890733       32.863611
  O           23.131589        8.747926       38.723379
  H           22.181321        8.803036       38.598164
  H           23.239193        8.162403       39.477187
  O            1.203467       29.913659       36.826021
  H            1.032104       30.633678       36.214521
  H            1.949770       29.446871       36.441596
  O           40.283496       37.237070        8.022603
  H           40.208407       38.075803        8.483705
  H           39.538533       37.230788        7.416277
  O           37.105630       26.866403       18.937822
  H           37.649923       27.650539       19.040779
  H           36.561518       26.848257       19.729185
  O           18.292767        2.144756       28.082133
  H           17.492002        2.048270       27.561373
  H           18.647246        2.997711       27.818590
  O            0.252757        7.261225       38.061802
  H            0.661393        6.434716       37.794176
  H            0.755339        7.537120       38.832474
  O           12.546908       40.935253       24.962997
  H           13.462108       40.827021       24.693890
  H           12.585067       41.558852       25.692593
  O           37.576832       41.030195       23.061304
  H           38.261451       41.665733       22.839688
  H           36.760783       41.535317       23.021825
  O           17.838083       19.938517       16.528765
  H           18.091525       20.826488       16.791444
  H           18.473068       19.700761       15.848390
  O           36.006355        6.405337       31.347538
  H           35.396043        5.670839       31.248765
  H           36.637245        6.104184       32.006270
  O           23.133388       26.834997       26.583983
  H           23.381138       26.710770       27.503174
  H           23.950750       26.703511       26.096876
  O           12.322857       16.507280       13.378930
  H           11.899261       15.649108       13.302568
  H           12.957878       16.397197       14.091160
  O            6.181275       27.369928        9.807810
  H            6.609290       28.224776        9.719699
  H            6.598144       26.972670       10.576607
  O           40.424811       38.903890       34.468486
  H           41.010834       38.146010       34.531094
  H           40.817575       39.557849       35.052196
  O           11.735000       20.126422        3.018940
  H           11.992956       21.050886        2.995481
  H           12.230013       19.759382        3.755748
  O           29.225450       35.012221        8.070613
  H           28.767291       34.227467        7.760813
  H           30.074423       34.686204        8.379805
  O           33.724205        0.400352       40.704838
  H           34.318431        1.136888       40.543174
  H           33.600085        0.000000       39.840572
  O           13.679042       29.397135       29.808392
  H           14.033174       29.628528       28.946549
  H           14.273721       29.821220       30.432211
  O            7.737518       25.340879        2.979762
  H            7.722300       25.534130        2.039471
  H            7.878084       26.194846        3.396442
  O           20.302534       38.423794       12.423258
  H           19.846072       39.206230       12.741316
  H           21.231811       38.666235       12.440790
  O           16.533132       41.973722        9.255629
  H           16.020321       41.623586        8.523403
  H           15.913837       42.000000        9.989404
  O           14.920881       27.718159       40.120753
  H           14.870719       28.674127       40.047724
  H           14.361361       27.506763       40.872345
  O           27.379680        5.493780       11.265194
  H           27.186468        6.183921       10.626366
  H           26.939820        4.714920       10.915135
  O           14.132029       34.634904       31.600921
  H           13.882440       34.481583       32.515209
  H           13.934349       33.806035       31.157592
  O           41.035712       23.722096       26.082240
  H           40.931119       22.776328       26.209943
  H           41.899059       23.918911       26.454448
  O           17.048326       15.441580       32.200499
  H           17.234110       15.481802       33.141558
  H           17.620444       14.742405       31.874189
  O            0.735074       15.779839       21.202536
  H            0.000000       15.978291       21.787351
  H            0.436355       16.070322       20.337071
  O           21.540369       35.201628       21.820652
  H           21.383873       34.254902       21.789917
  H           22.335725       35.294722       22.351108
  O           16.334616       32.871101       11.750034
  H           17.018753       32.330190       12.151403
  H           16.732210       33.194292       10.937563
  O           25.385797       10.849552       35.614624
  H           25.119253        9.928136       35.573722
  H           24.758849       11.252444       36.220640
  O            8.198814       16.440416       37.443712
  H            7.785594       16.356711       38.306248
  H            7.542106       16.891950       36.907528
  O            7.350530       22.730360       27.805098
  H            6.581682       22.264148       28.141616
  H            7.161022       22.860724       26.872503
  O           27.912930       16.464085       38.643887
  H           28.541941       17.071798       38.247963
  H           28.372544       16.110606       39.409686
  O            6.524617        3.798013        1.407371
  H            6.048899        3.287472        2.066739
  H            5.928908        4.519108        1.188752
  O            7.091032       23.386824       18.404186
  H            6.495049       23.456666       19.153620
  H            6.557665       23.650296       17.650034
  O           14.061514       34.642153       20.566794
  H           14.410052       33.759457       20.712030
  H           13.344421       34.515275       19.940439
  O           16.322787       12.576192       29.614407
  H           16.938991       12.728283       30.334744
  H           15.462020       12.544972       30.039552
  O           29.488060       11.961799       27.619315
  H           29.330328       11.469558       28.428353
  H           28.744258       12.566617       27.559349
  O           22.876585       28.036421        3.202561
  H           22.479574       28.251124        2.355206
  H           22.676851       28.794023        3.758248
  O           16.580963        6.063927       38.308521
  H           16.567397        6.873631       38.824195
  H           16.391771        5.371532       38.946830
  O           32.250768       22.575027        5.325598
  H           31.425721       23.005741        5.089996
  H           32.693187       23.205177        5.899896
  O           15.053975       38.014244        3.397595
  H           15.995372       37.841426        3.472640
  H           14.662775       37.523610        4.124837
  O           16.334990       25.936919       28.397757
  H           15.916072       25.294591       27.820134
  H           17.138209       25.502079       28.695071
  O           26.438240       15.364471       29.145423
  H           27.285883       15.592146       28.756335
  H           26.493682       15.692542       30.046499
  O           24.328272       12.992915       37.562344
  H           24.883114       13.640059       37.120665
  H           24.129086       13.390923       38.413553
  O           41.651602       15.508647        9.082024
  H           42.000000       14.765365        9.579895
  H           41.107919       15.985324        9.714345
  O           29.428557        0.855745        2.060988
  H           28.830074        0.423786        1.447022
  H           30.299943        0.718806        1.680758
  O           19.952742       35.168377       13.201128
  H           20.547240       35.903153       13.369659
  H           20.242063       34.816739       12.355382
  O            1.019470       34.524381        8.399220
  H            1.032038       34.813266        9.314705
  H            0.092174       34.558749        8.151064
  O            8.545128       32.175683       26.951108
  H            9.320757       31.763057       27.338232
  H            7.807557       31.662409       27.290491
  O           14.260173        8.792982        5.093236
  H           15.217067        8.746677        5.030514
  H           14.096468        9.497752        5.725013
  O            3.919239       22.214143       32.692083
  H            3.618654       21.854861       33.530110
  H            4.770870       22.609843       32.894041
  O           14.137219       16.636917       34.247360
  H           14.510927       17.103183       34.998801
  H           13.331336       16.241327       34.588978
  O           24.974322       15.816994       22.138121
  H           25.518322       15.465552       22.846836
  H           25.088270       15.191954       21.417716
  O            9.781080       10.780403       34.968148
  H           10.135984        9.991805       35.385140
  H           10.369131       11.485104       35.251405
  O           35.108394       28.677918       18.173808
  H           34.541340       29.335363       18.583614
  H           35.803383       28.526759       18.819396
  O            6.455756       28.329166       20.395839
  H            6.124576       28.832005       19.648045
  H            6.550218       27.434720       20.058665
  O            6.901106       12.065654       17.929724
  H            6.928292       12.535198       17.092756
  H            7.741567       12.272189       18.346389
  O           30.563317       35.462924        6.478405
  H           29.755536       35.975400        6.397267
  H           30.276049       34.550183        6.394595
  O           19.544227       35.457836       10.351544
  H           20.294524       36.022468       10.151618
  H           19.016802       35.469054        9.548836
  O           35.152241       12.775971       35.273580
  H           34.467292       12.990876       34.636095
  H           34.913654       11.902668       35.594609
  O           17.721998       20.355102       34.185277
  H           18.067897       19.673106       34.765760
  H           17.146551       19.882469       33.578547
  O           33.851882       20.623520       23.197295
  H           34.690566       20.749719       23.647192
  H           33.481136       19.834666       23.600904
  O           16.666129       10.962728       21.131603
  H           15.748749       10.836684       21.385083
  H           16.630784       11.609278       20.422120
  O            2.859244       17.590851       12.307545
  H            2.166047       17.725029       12.958082
  H            2.634848       16.756052       11.888740
  O           23.356114       33.262574        2.659869
  H           23.347659       32.589785        1.975027
  H           22.889080       32.859341        3.396023
  O           13.629613       24.260385       29.594598
  H           12.849864       24.819970       29.618691
  H           14.284155       24.741304       30.107368
  O            4.032286       41.542159       16.917923
  H            3.564086       41.210724       17.687769
  H            4.794525       42.000000       17.281263
  O           36.963789       15.137050       31.441995
  H           37.629344       15.466834       30.833715
  H           36.949108       15.783200       32.152569
  O           32.657477       35.428809       32.033229
  H           32.955885       35.987517       32.754701
  H           33.464199       35.047740       31.677380
  O            2.532628       18.719555       27.716290
  H            1.680544       19.094826       27.482090
  H            2.868155       19.300454       28.403763
  O           20.427706       16.916049       41.412789
  H           19.774100       17.413243       41.910104
  H           19.918969       16.236562       40.963204
  O           22.006951       31.688746       22.862264
  H           22.892982       31.498264       22.545420
  H           21.580775       32.133785       22.125409
  O           12.447423       29.410863       17.335499
  H           13.401509       29.306362       17.358374
  H           12.312854       30.297364       16.991044
  O           13.404170        0.885565        8.601004
  H           13.951767        0.759500        7.822563
  H           12.504406        0.798446        8.276230
  O           32.222626       40.016618       18.201609
  H           33.173986       40.139648       18.240385
  H           32.092658       39.385569       17.489199
  O            3.590566       14.733547       37.641834
  H            4.123354       13.948507       37.788721
  H            3.484954       15.117049       38.516142
  O           20.552851       14.054397        6.345185
  H           21.237946       14.685278        6.112036
  H           20.148236       13.820784        5.505928
  O           28.652953       12.146366       20.797766
  H           28.592592       11.203027       20.629855
  H           27.969108       12.531368       20.243897
  O           27.344263       29.532939       17.100616
  H           27.269344       30.459513       16.860671
  H           27.927029       29.530741       17.864174
  O           38.031854        7.064690        3.739844
  H           37.694530        6.166961        3.784797
  H           37.756472        7.379859        2.875277
  O            0.000738        2.244041       35.641470
  H            0.000000        3.196298       35.519284
  H            0.377401        1.899542       34.827782
  O           34.616010       16.907064       11.632940
  H           33.879370       17.420488       11.972767
  H           34.904236       17.390102       10.854326
  O           26.163533       39.075073       15.678337
  H           26.192569       38.831455       14.750150
  H           25.402580       38.602531       16.025177
  O           22.275135       18.315659       13.226808
  H           21.488878       17.958463       12.807361
  H           22.694863       18.839455       12.539707
  O           14.674373       35.304296       27.373701
  H           13.792883       35.038921       27.101164
  H           15.261769       34.752950       26.850608
  O            1.523823       17.067892       36.303189
  H            2.342924       17.387936       35.917999
  H            1.345343       16.247605       35.836374
  O           27.571260        3.008371        4.694530
  H           27.223701        2.357553        4.080230
  H           28.363862        2.599795        5.051589
  O            9.739973       13.122480        0.000000
  H            9.884891       12.200840        0.226504
  H           10.434235       13.594678        0.466552
  O           37.851811       15.447982        7.825804
  H           38.609529       16.019837        7.969228
  H           37.324794       15.546097        8.622841
  O            4.901924       41.171129       14.605459
  H            4.309536       41.924843       14.553342
  H            4.376069       40.482828       15.020622
  O           22.475838       26.169754       39.124538
  H           22.675835       26.895724       39.720099
  H           22.707952       26.504214       38.254537
  O           18.469662        2.913958       40.041991
  H           18.884894        2.995326       40.903783
  H           18.312638        3.820627       39.766424
  O           11.734724       18.044901        7.134531
  H           11.039797       17.422608        6.907478
  H           12.530949       17.660577        6.759080
  O           19.658863       10.806866        6.101381
  H           19.792335       11.161764        6.983400
  H           19.346217       11.555927        5.587764
  O           15.869085       13.608559       21.116716
  H           15.711064       14.369914       20.553606
  H           15.149222       13.628618       21.752355
  O           34.537748        4.655269       33.826016
  H           34.692802        5.377544       34.439207
  H           33.673520        4.315445       34.071518
  O           22.519774       39.635093       40.107849
  H           23.382447       39.459468       39.724867
  H           22.463886       40.593463       40.140181
  O           23.803814       16.284005       12.627362
  H           24.140771       17.181774       12.580511
  H           23.281016       16.267292       13.432996
  O            6.004854        5.634410       20.209927
  H            5.274052        6.194833       19.938673
  H            5.641047        5.092712       20.914802
  O           26.308513       36.490972        1.755195
  H           25.946530       35.719516        2.197404
  H           25.849258       36.519886        0.912051
  O            8.577035       10.700226       15.913784
  H            8.104376       10.666596       16.748761
  H            8.660049        9.780471       15.649582
  O           34.217171        9.964891       34.186595
  H           34.927183        9.613692       34.729058
  H           34.587945        9.998594       33.301139
  O           23.083473       31.864394       14.783181
  H           23.713721       31.310960       14.316037
  H           23.583965       32.227537       15.518216
  O            2.773693        2.410601       17.408475
  H            3.061327        1.512181       17.586894
  H            2.074438        2.568489       18.047815
  O           11.571131       22.471978       21.495139
  H           11.785935       22.670089       20.580624
  H           11.594526       23.325173       21.935767
  O            0.944333       13.571869        3.626995
  H            0.010609       13.716336        3.797328
  H            1.388486       13.970871        4.379436
  O           40.963536       26.145101       29.074203
  H           41.493938       25.617805       29.676164
  H           41.546436       26.316143       28.330150
  O           37.448261       20.177288        6.268666
  H           36.551218       20.016083        6.570414
  H           37.352804       20.840892        5.580800
  O           31.625738       10.872873        7.283322
  H           31.174314       11.684750        7.525801
  H           32.385613       10.838252        7.869866
  O           27.207947       28.466037       25.104507
  H           26.716400       27.693386       25.392806
  H           26.699918       28.809672       24.365275
  O           13.339662        9.244794       10.822928
  H           13.098791        9.796898       11.570517
  H           13.818233        9.834840       10.235170
  O           37.552496       20.104173       15.167530
  H           38.441879       19.824197       14.938755
  H           37.682035       20.842850       15.767712
  O           35.591749       22.742636        6.828463
  H           35.939763       21.871987        7.034817
  H           34.663792       22.692199        7.071350
  O            3.082587       24.402089       38.177731
  H            2.521470       25.173502       38.286337
  H            2.468807       23.682492       38.010113
  O            1.051857       33.644408       30.555639
  H            1.552163       33.785950       31.362723
  H            0.863062       32.702603       30.554215
  O           14.955204       17.235799       41.241160
  H           14.238642       17.873798       41.276101
  H           15.289044       17.301152       40.342872
  O           41.410069       14.451508       41.666811
  H           42.000000       15.140058       41.982415
  H           41.894622       14.031779       40.951494
  O           39.011615       38.205070        3.816714
  H           38.086739       38.131860        3.569793
  H           39.116397       37.578399        4.537093
  O            3.298019       27.710137       16.533776
  H            3.445298       28.650903       16.411333
  H            2.602453       27.661694       17.194444
  O           29.360837        1.598884       11.914900
  H           30.135042        1.831650       12.432733
  H           29.706618        1.062590       11.196940
  O           13.131537       17.746580        8.877352
  H           13.437873       18.609631        9.165496
  H           13.112602       17.219947        9.680434
  O           23.545296       14.710377       18.155981
  H           24.350353       15.116192       18.486014
  H           22.940752       15.446444       18.031984
  O           36.582175        2.688963       27.730768
  H           36.532303        1.756968       27.505773
  H           37.522113        2.886613       27.721092
  O           18.516107        4.939196       19.911658
  H           18.901240        5.390042       19.156584
  H           17.790008        5.506401       20.183137
  O           24.311634       19.825599       37.133816
  H           23.910338       19.918612       38.001015
  H           23.584832       19.956149       36.519522
  O            0.796551       26.447648        1.198956
  H            1.050390       25.522265        1.168031
  H            1.003641       26.721846        2.095934
  O           17.825617       36.607494        1.209562
  H           18.458031       37.191658        1.634450
  H           17.144961       36.469829        1.873187
  O           16.045944       21.433811       40.429861
  H           15.193794       20.992198       40.406553
  H           16.391742       21.238734       41.304510
  O           25.422407       22.081539        7.793515
  H           24.584477       22.025639        7.328249
  H           25.967524       22.642823        7.236336
  O           24.897018       38.006814       40.698907
  H           25.460793       37.246966       40.861736
  H           25.231026       38.683292       41.293431
  O           29.280606       19.291153        4.931189
  H           28.938817       18.835654        4.158256
  H           28.506931       19.443455        5.479708
  O           36.107472       27.138741       35.087074
  H           36.909183       26.629236       35.226320
  H           35.685307       26.717890       34.333879
  O           15.054124       37.426165       39.763990
  H           14.697738       36.934235       39.020539
  H           15.977621       37.164752       39.802169
  O            1.728968        5.675721       39.753024
  H            2.281055        5.161291       39.159487
  H            2.273370        5.803951       40.533938
  O           17.029133       19.061534       24.663744
  H           17.195051       18.198252       25.049671
  H           17.517982       19.051042       23.836968
  O           27.592458       32.426013       40.576339
  H           26.746468       32.860474       40.707759
  H           27.822690       32.623153       39.664873
  O           23.927329       14.156506       26.498873
  H           22.988427       14.165600       26.298610
  H           24.128453       13.230651       26.656935
  O           30.328523        9.515959       27.573501
  H           29.985634        9.365014       28.457452
  H           29.908049        8.839983       27.036006
  O           38.358570       40.766511        8.009574
  H           38.005242       39.887358        7.854732
  H           38.353652       41.181438        7.143286
  O           27.501566       11.007954       15.092831
  H           27.667308       11.318375       15.986080
  H           27.611585       10.055285       15.147222
  O            7.096301       14.637106       28.980830
  H            8.040574       14.700007       29.142436
  H            6.735709       15.443875       29.357313
  O           23.575697       18.801752        6.218656
  H           23.698161       18.379279        7.072029
  H           24.463134       19.045965        5.943964
  O           37.976012       18.310736        5.447317
  H           37.019669       18.392044        5.470170
  H           38.261112       19.014202        4.858678
  O           33.934276       35.042543       34.871968
  H           34.814822       34.750018       35.118529
  H           33.678802       34.453727       34.157355
  O           11.937419       29.129072        3.067632
  H           11.904827       28.287791        2.606211
  H           12.488700       29.685019        2.511166
  O            2.101907        6.662390       22.674639
  H            2.541173        7.160348       23.368043
  H            1.345343        7.203587       22.435141
  O           12.123248        8.975922       15.886593
  H           11.810350        9.601440       16.544277
  H           11.841196        8.119837       16.218566
  O           39.480975       25.356164       27.178190
  H           39.444059       25.077320       28.096127
  H           39.026109       24.659098       26.698775
  O            2.602852       34.028775       14.403491
  H            3.246969       33.444386       13.996885
  H            3.077040       34.435454       15.133148
  O           32.717663       17.965112       18.704405
  H           32.667047       17.979522       17.745783
  H           32.551566       17.048378       18.938184
  O           26.365790       11.184318       29.464150
  H           27.133282       11.680485       29.170043
  H           26.149424       11.564537       30.319288
  O           10.146817       30.757028        9.692705
  H            9.353961       31.297895        9.668861
  H            9.903139       29.955852        9.222196
  O           39.012440       29.950024       13.932934
  H           39.214317       30.791698       14.348331
  H           38.824108       29.360626       14.667634
  O           26.584333       24.445901       31.026466
  H           26.975026       25.289043       30.785230
  H           25.723537       24.675943       31.385288
  O           38.462416       29.783269       27.226601
  H           38.233084       28.888165       27.487218
  H           37.776093       30.033220       26.602801
  O           16.271712       10.276759       33.081989
  H           17.120614        9.917733       32.813306
  H           16.495500       11.024940       33.641262
  O           42.000000        9.407701       14.986699
  H           41.582597        9.986186       14.344161
  H           41.711673        9.748597       15.837170
  O           25.904511       41.400627       14.135710
  H           25.539714       40.535941       13.933308
  H           26.563902       41.228709       14.812681
  O            7.388532       17.782367       19.039888
  H            6.459753       17.549174       18.971213
  H            7.778937       17.061599       19.540607
  O           12.038221       39.350134       30.084173
  H           12.652499       38.612506       30.067081
  H           11.182774       38.952250       29.903786
  O           25.658273       27.741775        4.733523
  H           25.149636       27.167851        5.311126
  H           26.524902       27.329727        4.690944
  O           34.837136       19.670132        8.810943
  H           34.372849       19.231409        8.094225
  H           35.501101       20.207327        8.371382
  O           31.078118       15.750909        1.232769
  H           31.657279       16.348722        0.754316
  H           31.189484       15.997695        2.154364
  O           25.931113       25.670171       10.309418
  H           25.706752       26.583011       10.114196
  H           25.706875       25.562713       11.237218
  O            2.612697       12.948285       24.509007
  H            2.546420       12.021590       24.267000
  H            2.414785       13.421537       23.696907
  O           17.726429        9.534801       12.323675
  H           17.456979       10.422788       12.569848
  H           18.340141        9.664888       11.596298
  O            7.540125       10.522412       27.519838
  H            7.565298       10.261005       26.596389
  H            8.170676        9.939294       27.949979
  O           31.817340       25.911057       13.938384
  H           32.482430       25.226023       13.837844
  H           31.214498       25.562797       14.600153
  O           41.469222       24.327355        8.133919
  H           41.373261       25.082987        7.549507
  H           40.933411       24.548702        8.899788
  O           11.063336       35.658291       10.497837
  H           10.415360       35.034348       10.833318
  H           11.352124       36.143171       11.275098
  O           25.007139       16.794471        9.608723
  H           24.532320       17.557807        9.271692
  H           24.667257       16.676397       10.499330
  O           14.582847       14.899597       23.722683
  H           14.019278       15.473894       24.246418
  H           14.273482       14.013006       23.924900
  O           29.361933       12.362925       14.677697
  H           28.604593       12.691304       14.187464
  H           29.947285       12.009062       14.003318
  O           31.273452       25.747432        3.490331
  H           32.115885       25.745397        3.029866
  H           31.242678       26.602234        3.927376
  O            8.044554       12.181121        8.264854
  H            7.760943       13.064960        8.019662
  H            7.447726       11.927157        8.973331
  O            5.874266       20.518957       11.746611
  H            6.075872       19.847637       12.402667
  H            6.690482       20.620167       11.250434
  O           18.051284       16.197999       23.906269
  H           18.722367       16.786055       24.260618
  H           17.452837       16.048048       24.642488
  O           16.146952       27.684114       37.229298
  H           15.288489       28.110630       37.282692
  H           16.073095       26.925575       37.813940
  O           30.131465       11.933711       30.972199
  H           29.345068       12.429878       30.733192
  H           29.803910       11.219075       31.524146
  O            4.347609       14.731553       25.377568
  H            4.573181       14.867719       26.300769
  H            5.097870       15.086354       24.893970
  O            0.312661       15.885063        4.699261
  H            0.430239       15.338899        5.480034
  H            0.762483       16.706439        4.912905
  O           27.808747       40.301337       24.533780
  H           27.364724       39.836767       23.820517
  H           27.101719       40.755565       24.999000
  O           22.815424       15.658342       37.339510
  H           23.726112       15.673983       37.035983
  H           22.350849       15.145457       36.673356
  O           18.518122       26.747799        1.711721
  H           18.332340       27.530034        2.236430
  H           19.094989       27.062205        1.010996
  O           22.212486        5.907757        1.991985
  H           22.491724        6.823960        1.926240
  H           22.064961        5.637582        1.082104
  O           16.169404        5.761554       41.327435
  H           16.617222        4.928743       41.161272
  H           16.880535        6.386082       41.491443
  O            0.007409       22.593524        3.220881
  H            0.422369       23.328551        3.678340
  H            0.717074       22.202523        2.704998
  O            7.550200        1.458715        1.496988
  H            8.092559        0.728581        1.804357
  H            7.030990        1.084930        0.780506
  O           22.863645        3.313419       38.864399
  H           22.275539        4.068003       38.944768
  H           23.392374        3.505076       38.085711
  O            8.377539       40.476585       13.742082
  H            9.195250       40.014312       13.940518
  H            7.975502       39.959129       13.039766
  O           34.777926        7.557740       10.695366
  H           35.568601        7.659487       10.160384
  H           34.616530        8.435072       11.051570
  O           15.755540       39.807098        9.911161
  H           15.675421       38.875869        9.691802
  H           16.463565       39.839281       10.559471
  O            9.492568       15.730329       40.025939
  H            9.496042       16.356299       40.753864
  H           10.414520       15.482355       39.920314
  O            5.358085       30.343381       29.696815
  H            5.616950       30.898081       30.436424
  H            5.195244       29.482308       30.090106
  O           18.543840       23.721748       28.301627
  H           19.276218       24.340052       28.356824
  H           18.687427       23.255303       27.474310
  O           39.720996       17.210256       14.319040
  H           39.227775       17.928335       14.722552
  H           40.050743       17.580314       13.496261
  O           37.930505        7.882091       31.731714
  H           37.443775        8.396591       32.379873
  H           38.546164        7.361663       32.253980
  O           16.776392       32.914192       24.784994
  H           16.211635       33.529541       24.311580
  H           17.635002       33.344414       24.803453
  O           13.224746       32.091713       28.133773
  H           12.405503       32.342669       28.566886
  H           13.503692       32.886618       27.672299
  O            6.031838       29.406571       27.512739
  H            5.249648       29.037583       27.929575
  H            6.740041       29.231577       28.137613
  O           24.375300       16.360826       28.011672
  H           24.277771       15.688013       28.689563
  H           23.491757       16.722472       27.905814
  O           37.272201       31.087943       40.817407
  H           36.836752       31.902922       41.078019
  H           38.209377       31.294141       40.860144
  O           17.640829        1.626079       25.189392
  H           18.440483        1.207892       25.517109
  H           16.940685        1.005804       25.407794
  O           33.952986        7.083394       13.704885
  H           33.578167        6.958219       14.579852
  H           33.192946        7.082393       13.117535
  O           26.426646        8.479897       21.458503
  H           26.561193        7.726672       20.878613
  H           25.924668        8.125681       22.196874
  O           14.880389        8.558730       17.088777
  H           15.551849        8.150937       16.536897
  H           14.055066        8.172788       16.784585
  O            2.103155       29.387394        7.114532
  H            1.691282       30.252391        7.176704
  H            1.611110       28.938200        6.422608
  O           40.153958        3.827343       28.541133
  H           40.459900        2.976153       28.863003
  H           39.599646        3.611815       27.786861
  O           14.007010       11.976615        3.647285
  H           13.553304       12.731115        3.264393
  H           14.822066       12.342416        4.000152
  O            6.697720       27.455846        7.660421
  H            6.049516       28.104678        7.376563
  H            7.400144       27.519516        7.008356
  O            9.229560        7.706966       19.948358
  H            8.696780        7.895950       20.724345
  H            9.286410        6.748372       19.925855
  O           22.949974        1.166958       29.926439
  H           22.234283        1.236943       29.290347
  H           23.484483        1.949768       29.771037
  O           32.995758       41.277555       20.040656
  H           32.138564       40.878932       20.208117
  H           32.808761       41.999712       19.435542
  O            4.661752       21.993732       19.048226
  H            5.485797       21.513381       18.938964
  H            3.984894       21.312331       19.034119
  O           28.932511       22.888598       12.510952
  H           28.362557       22.616707       13.234107
  H           28.496792       22.551290       11.724178
  O           39.771842       40.353310       18.798808
  H           40.284916       40.889335       18.189581
  H           39.700423       39.499995       18.363613
  O           26.232766       11.421074       19.256294
  H           26.109709       12.344788       19.025353
  H           25.625980       11.274971       19.986436
  O            0.474861       13.765758       16.046275
  H            0.332459       13.035588       15.439398
  H            0.397611       14.550367       15.497583
  O           28.661455        9.354204       24.255438
  H           29.329222       10.032598       24.380317
  H           29.041027        8.763872       23.599637
  O           15.257720        4.100467       31.622015
  H           14.883582        4.732684       32.240116
  H           14.505591        3.795673       31.108162
  O           32.415480       10.751797       10.406888
  H           31.578083       10.925497        9.970632
  H           32.872577       11.596448       10.390507
  O           20.781035       32.734550        4.299869
  H           19.993054       33.212170        4.569480
  H           20.845219       32.008214        4.925136
  O           32.150301       15.601397       22.242815
  H           32.515045       16.485345       22.328386
  H           31.402783       15.592496       22.845957
  O           17.192394       30.056585       14.141779
  H           16.406220       30.496920       14.473080
  H           17.919841       30.600690       14.453889
  O            3.754861       15.734340       14.404317
  H            4.492105       15.855478       13.801389
  H            2.977409       15.776429       13.841787
  O           15.436581       28.660051       16.539692
  H           16.212973       29.011625       16.097722
  H           14.793796       28.543239       15.835544
  O           32.161011        8.440555        2.425656
  H           31.721070        9.213120        2.788036
  H           32.842752        8.801074        1.853033
  O           13.914361       15.658907        7.840398
  H           13.910393       14.716542        8.023857
  H           14.673961       15.786908        7.266581
  O           26.020461       34.724824        4.955128
  H           26.183046       35.604805        5.302868
  H           26.636437       34.640213        4.222968
  O            5.521117       22.428928        8.111797
  H            5.053861       22.445481        8.950321
  H            5.086924       21.734021        7.610576
  O            6.456447       27.680485       40.163971
  H            5.725145       27.967321       39.612022
  H            6.190372       27.919494       41.055442
  O           14.650145       10.827000       25.914891
  H           14.470434       10.074445       25.346480
  H           14.167927       11.552279       25.509826
  O            3.987254       21.173968       28.924854
  H            4.328683       20.910872       28.066989
  H            3.959221       22.133327       28.886311
  O            1.200860        4.296255       10.570008
  H            0.419282        4.823490       10.751346
  H            1.466081        4.559587        9.685160
  O           21.160906        8.782277       22.403030
  H           21.083366        8.189939       23.154593
  H           21.872424        9.380984       22.643726
  O           21.170705       37.013291       22.762696
  H           20.683481       36.331419       23.231085
  H           20.571101       37.301505       22.069840
  O           36.575779        0.849377       29.956111
  H           35.802328        1.062411       30.483478
  H           36.367074        0.000000       29.559069
  O           17.937108        6.572251       25.144691
  H           18.280861        7.444270       25.352398
  H           16.985646        6.661792       25.241355
  O            8.452608       13.412781        1.956517
  H            8.763799       13.406602        2.864728
  H            7.562174       13.768720        2.011995
  O           24.717639        5.198722       11.693411
  H           24.861862        4.269400       11.500315
  H           24.512096        5.218223       12.631502
  O           39.690522       14.825448       33.162373
  H           39.001206       15.094580       32.550706
  H           40.426615       14.576706       32.597628
  O           38.595028       38.280314       23.692770
  H           39.220412       38.771472       23.154827
  H           37.995605       37.881259       23.057089
  O           23.323352       41.067478       14.567818
  H           23.843372       40.445301       15.081822
  H           23.551338       40.872161       13.655395
  O           32.058629       16.722990       26.113433
  H           31.875353       17.662255       26.190345
  H           32.884746       16.680455       25.625208
  O           14.302193        9.964506       29.158878
  H           13.820883       10.569212       29.728436
  H           15.169375       10.366346       29.063154
  O            6.041143       23.669342       29.831597
  H            6.515139       24.504179       29.841619
  H            5.852523       23.491138       30.756426
  O            9.688809       36.794751       35.007100
  H            8.933697       36.268236       35.279704
  H            9.660172       36.773605       34.047218
  O           15.665606       16.305789       17.103891
  H           15.051314       16.900210       17.540965
  H           16.492611       16.793724       17.078894
  O           15.052974       41.076404       19.303314
  H           15.667963       41.528961       18.721329
  H           14.209740       41.128769       18.846306
  O            8.836035       11.762357        5.179842
  H            8.363503       11.755589        4.344142
  H            9.468534       12.479692        5.090309
  O           29.931754       22.883054        2.678438
  H           29.687277       23.449589        3.413960
  H           29.454807       23.247047        1.928323
  O           22.779682        0.273705        4.245175
  H           23.463713        0.000000        4.860732
  H           23.231166        0.859095        3.631886
  O           38.819659        4.325753       34.487726
  H           38.885430        3.516406       33.975518
  H           39.480070        4.225422       35.177968
  O           24.158628       17.369949       30.427356
  H           23.618302       18.118917       30.165020
  H           23.692788       16.990799       31.176942
  O            8.175790        6.503751        1.273169
  H            9.089813        6.440025        0.986418
  H            7.852862        5.599621        1.243047
  O            1.847104        1.054799       20.426718
  H            1.877012        0.888389       21.371778
  H            2.769705        1.100851       20.163414
  O           31.390936       38.771138       40.430350
  H           31.440433       38.469916       41.340592
  H           30.863229       38.102558       39.986314
  O           12.238199       27.551267       24.731005
  H           12.970702       27.003858       24.438586
  H           12.501712       28.445554       24.499804
  O           37.540618        5.581645       35.936420
  H           37.235330        6.491739       35.920506
  H           37.132175        5.206828       36.720848
  O           16.669318       11.912143        1.600504
  H           17.475735       12.419111        1.720507
  H           15.999316       12.415165        2.070299
  O           11.469368        8.680548        4.419879
  H           11.582127        8.347693        3.526449
  H           12.131338        8.211716        4.934306
  O           41.245322       38.867162       29.055318
  H           41.999999       38.645408       29.605785
  H           41.079160       38.069849       28.546081
  O           27.682574       42.000000       29.362980
  H           28.415756       41.821792       29.956623
  H           28.026160       41.791716       28.490508
  O           27.974326       23.615043       17.597279
  H           28.677615       23.977634       18.141005
  H           28.432990       23.135164       16.903027
  O            4.441258        9.713708       32.572903
  H            4.785581        8.819321       32.515999
  H            3.493945        9.612754       32.450233
  O           12.897079       35.327297        7.634606
  H           12.305958       35.724960        8.278162
  H           12.398782       34.587384        7.278418
  O           13.600266       15.572312       11.849471
  H           14.029230       16.361143       11.509677
  H           14.316989       14.944274       11.969964
  O           12.492817       22.801420       31.577385
  H           13.067375       23.536646       31.803329
  H           12.948513       22.354565       30.859538
  O           15.350393        1.625946       31.559267
  H           14.790359        1.946557       32.270108
  H           14.782461        1.637268       30.784691
  O            2.384997       27.628695        4.191342
  H            2.866265       27.890278        3.402875
  H            3.066906       27.502039        4.855872
  O            6.420426       24.799785       38.029896
  H            5.743579       25.342985       38.440427
  H            6.453571       25.107026       37.120420
  O           17.354646       32.063353       22.510060
  H           17.686137       31.903354       21.623359
  H           17.708015       31.337976       23.031213
  O           24.228904        8.480793        8.032385
  H           23.325055        8.159433        8.071244
  H           24.527042        8.247814        7.149505
  O           20.193221        1.383094       38.457539
  H           20.771811        0.635067       38.291966
  H           19.328806        1.085800       38.162504
  O           17.009316       21.213674       23.267468
  H           16.389446       21.933275       23.127253
  H           17.870590       21.605070       23.101161
  O           12.255719       28.763813        9.649806
  H           12.877615       29.354940        9.219064
  H           11.808299       29.317315       10.294859
  O           41.443912       41.113064       36.867617
  H           40.882535       40.406726       37.195743
  H           40.957654       41.478192       36.124061
  O           25.134593       32.404166        3.628161
  H           24.896223       33.060613        4.286934
  H           26.085113       32.500409        3.528714
  O           16.683402       26.927373        8.957985
  H           15.950895       26.663924        8.396065
  H           16.297855       26.997788        9.834932
  O            4.311511       27.327555       14.158754
  H            4.228122       28.271966       14.007561
  H            3.608044       26.938849       13.632747
  O           30.088430       18.619256       34.569055
  H           29.908214       17.745545       34.214266
  H           30.734837       18.466186       35.262863
  O           39.819094       36.646969       38.426951
  H           40.318622       37.350306       38.005627
  H           39.473673       37.047229       39.228897
  O           22.774917       14.017229       24.082148
  H           23.190009       13.177943       24.294333
  H           23.417324       14.467582       23.527949
  O           17.419305       30.281813        0.309964
  H           17.372908       30.351311        1.266386
  H           16.624418       30.723083        0.000000
  O           24.656087       29.764120       29.512728
  H           25.365686       29.121750       29.587260
  H           24.773116       30.148521       28.640271
  O           38.918458       33.928329       25.516717
  H           39.606030       34.086314       26.167878
  H           38.492494       33.119344       25.811235
  O            5.932519        0.900845        8.188674
  H            5.203804        0.277066        8.228672
  H            6.104721        1.006430        7.249610
  O           35.005778       31.208003       34.003603
  H           34.763152       31.998893       34.490789
  H           34.735991       30.484151       34.574475
  O           24.718540       12.667652       10.127365
  H           23.811752       12.374234       10.011754
  H           25.085070       12.059999       10.774710
  O            6.894766       33.829194        4.949767
  H            6.456191       33.783080        4.096977
  H            6.933610       32.916803        5.247551
  O           40.785240       20.443270       20.518493
  H           41.155419       19.772940       19.939398
  H           40.837651       20.055764       21.395839
  O            1.176783        3.086448       15.089335
  H            1.914093        3.436842       14.584039
  H            0.423623        3.165974       14.498516
  O           11.549870       11.892926        3.820663
  H           10.715530       11.837813        3.348895
  H           11.520773       12.747916        4.257456
  O           28.262297       26.355602       24.620531
  H           29.186341       26.095761       24.601789
  H           27.997882       26.362854       23.697128
  O           31.015403       21.248454       23.514163
  H           30.672962       20.418837       23.173289
  H           31.687813       20.986371       24.148055
  O           14.262159        3.845361       18.710053
  H           13.411290        3.833310       18.265529
  H           14.101299        4.336700       19.519591
  O           15.021064        6.794559       12.573476
  H           15.504036        6.372835       13.288047
  H           14.109735        6.522845       12.708730
  O           31.111922       39.669026       33.129258
  H           30.556622       39.424450       33.873267
  H           30.940644       40.605514       33.001601
  O           13.293923       38.842277       39.334919
  H           13.131458       38.621299       40.254973
  H           12.691006       38.278111       38.844155
  O           17.425093       40.523377       39.419687
  H           17.103545       40.357546       40.308974
  H           18.288042       40.924869       39.549174
  O           23.423170       35.504646       26.235230
  H           22.513470       35.794266       26.133782
  H           23.882198       36.275926       26.577374
  O           34.671728       24.931918        2.597006
  H           34.084942       25.423583        3.176378
  H           35.353725       24.591509        3.181508
  O           22.198022       15.573291       29.403884
  H           21.240854       15.607647       29.337756
  H           22.368179       14.872657       30.038551
  O            0.000000       15.999101       13.604679
  H            0.543422       16.408823       14.281838
  H            0.593722       15.887061       12.857963
  O           11.117769        4.638255       18.861019
  H           11.285291        4.420390       17.941130
  H           11.830945        5.236444       19.098067
  O           36.863790       17.203171       25.030714
  H           36.847377       16.460708       25.639158
  H           36.462913       16.861937       24.227285
  O           12.385264        1.567731       27.106358
  H           11.877692        2.339168       27.369002
  H           13.264183        1.910690       26.926019
  O           38.073521        4.136958        7.785884
  H           38.867866        4.091386        8.323158
  H           38.319161        4.695488        7.044030
  O            4.728219       32.146228        3.619440
  H            5.152238       32.212996        2.760676
  H            5.240811       31.482271        4.087470
  O           12.414109       16.290950        1.788083
  H           11.656566       16.873833        1.698077
  H           12.749495       16.195905        0.893028
  O           27.744372       41.999958       11.484612
  H           27.044190       41.345543       11.427942
  H           28.175561       41.815809       12.322948
  O           20.249627       38.800377        6.338395
  H           19.367173       39.168293        6.250995
  H           20.593159       38.789099        5.441456
  O            7.097042       33.213945       36.742975
  H            7.370624       33.263122       37.661920
  H            6.393045       32.560486       36.738434
  O           40.438660       20.809157       32.434604
  H           40.709361       21.413513       31.739477
  H           40.505553       21.327432       33.240556
  O           21.921391       38.782855       26.112613
  H           22.386623       38.097939       26.598591
  H           21.485056       39.302879       26.792193
  O           33.828263       38.590283       27.934021
  H           33.224895       39.246727       28.290045
  H           34.389031       39.084281       27.330574
  O           29.169668       16.774679        1.653537
  H           28.457423       17.287673        2.042470
  H           28.744675       15.968524        1.349998
  O           36.264092        9.734047        9.872292
  H           36.686945       10.501568        9.480079
  H           36.292818        9.902954       10.817431
  O           33.040649       37.026462        3.794983
  H           33.126485       37.221336        2.858831
  H           32.336287       37.606238        4.095610
  O           28.988818        8.024305       13.698310
  H           29.285613        8.870185       14.042002
  H           29.743545        7.687859       13.208582
  O            9.489499        9.466183        7.975880
  H            9.040323       10.225286        7.596763
  H           10.414173        9.724894        8.002139
  O           20.687367       19.596368        4.178383
  H           20.432583       20.171903        4.903345
  H           21.558087       19.909212        3.920279
  O           14.792842       18.638572       16.178712
  H           15.273287       18.008797       15.636236
  H           15.261366       19.467643       16.053141
  O           42.000000       36.115402       39.891539
  H           41.877754       35.946503       40.828691
  H           41.609456       36.981881       39.752496
  O            5.260505       13.551932       16.133228
  H            5.713136       14.281748       15.704020
  H            5.071176       13.875747       17.017502
  O            6.401277       21.610874       34.569682
  H            6.900394       22.399230       34.343624
  H            6.523698       21.027112       33.816770
  O           36.425454       20.576238       19.127336
  H           35.855205       20.262952       19.833305
  H           35.829790       21.021901       18.519709
  O           29.420995       25.545274       20.365807
  H           29.489410       25.621742       19.411240
  H           28.495022       25.718824       20.553147
  O           16.398781       35.367468       16.305638
  H           15.514653       35.484605       16.661056
  H           16.256372       35.125950       15.386927
  O           36.437897       34.824935       32.669820
  H           36.553734       35.483871       33.358377
  H           35.623548       35.080905       32.229414
  O            1.929997       33.831751       11.354385
  H            1.466725       33.129706       10.891528
  H            2.135997       33.455302       12.213740
  O            4.000071       36.028059       20.645631
  H            4.912193       35.728510       20.640126
  H            3.576882       35.516388       19.951552
  O           31.760269       32.405258       10.978142
  H           32.200043       31.614734       11.299696
  H           31.523657       32.194368       10.071399
  O           34.247396       29.043045       20.540378
  H           33.293082       29.086432       20.635915
  H           34.488700       28.201997       20.936679
  O           14.097973        3.322111        6.630846
  H           14.763885        2.681307        6.370738
  H           14.600370        4.046863        7.011601
  O           10.417520       18.898405       15.563636
  H            9.814728       19.391866       16.124761
  H           10.733980       19.544641       14.927339
  O           28.256863       23.662637       24.775762
  H           27.866611       24.333742       24.210920
  H           28.578048       24.150252       25.538464
  O            7.385907       35.950725       33.580558
  H            7.333919       36.865559       33.867091
  H            7.992523       35.968177       32.836009
  O           16.123459       33.168964        4.318344
  H           17.049336       33.023669        4.526588
  H           15.808485       32.311535        4.021279
  O           24.360292       35.641697       32.158729
  H           24.897222       36.155660       32.766407
  H           24.996066       35.233057       31.565900
  O           38.141359       21.480026        8.740038
  H           39.064594       21.540132        8.996453
  H           38.132851       20.833816        8.029417
  O           11.968973       37.294668       32.811591
  H           12.079883       36.426805       33.206862
  H           11.582805       37.116787       31.950270
  O           24.616127       29.069657       10.495179
  H           23.841780       29.546256       10.187016
  H           24.318147       28.160516       10.580696
  O           23.458734       18.894320       41.219780
  H           23.670439       19.050548       40.296471
  H           22.700209       19.458723       41.389280
  O            9.016371       17.333285       16.505998
  H            8.147284       16.926405       16.476649
  H            9.613411       16.642065       16.208675
  O           19.214684       13.222674       34.013651
  H           19.830138       12.487817       33.959549
  H           18.535924       13.013307       33.367050
  O           33.903388       11.332589        1.729476
  H           33.476404       10.844347        1.021642
  H           34.396310       12.023173        1.279183
  O           39.509538       29.893281       39.275756
  H           39.257218       30.818138       39.223793
  H           38.683271       29.429146       39.432291
  O           16.838494       23.925808        2.256804
  H           17.526272       23.256452        2.282274
  H           16.716396       24.106739        1.321390
  O           24.933938        8.718716       25.999925
  H           24.434828        8.056442       26.483669
  H           25.030199        8.348300       25.118921
  O            2.951626       15.659162        3.871082
  H            3.684552       15.772243        3.261363
  H            2.175409       15.896483        3.357460
  O           20.327006       33.099943       31.916003
  H           19.689065       32.392121       32.033239
  H           20.943849       32.759282       31.263242
  O            7.178711       32.941472       12.110339
  H            7.820763       33.640305       11.964989
  H            7.710275       32.150406       12.229900
  O           19.326949       11.148639       13.713415
  H           19.584531       10.273717       13.413602
  H           20.021237       11.404841       14.325760
  O           36.718037       37.074784        6.676044
  H           37.643100       36.823467        6.622918
  H           36.716275       37.863133        7.224810
  O            2.227251       38.820680       17.720597
  H            3.052238       39.153828       18.081337
  H            1.677231       38.660691       18.491652
  O           20.326797        2.714598       14.387697
  H           21.273259        2.560425       14.434239
  H           20.042783        2.732752       15.305111
  O           28.517391       17.810749       15.234662
  H           28.699485       18.718921       14.982096
  H           28.397430       17.847588       16.186972
  O           33.369591       23.299667        3.258862
  H           33.313623       23.490180        2.319555
  H           32.764008       23.924672        3.665410
  O           32.357435       20.250903       12.724618
  H           32.811052       20.073944       13.552049
  H           31.559562       19.718128       12.771438
  O            9.974197       17.981628        2.376176
  H            9.191835       17.770994        2.891218
  H            9.908770       18.926954        2.218949
  O           38.095782       39.499340        5.891003
  H           37.155982       39.406898        5.717930
  H           38.344723       38.669228        6.305231
  O           24.299100       22.791650        9.552985
  H           23.419856       22.649657        9.194525
  H           24.240850       22.477584       10.458861
  O           31.042075       13.864969        9.426756
  H           31.781324       13.252422        9.431520
  H           30.310151       13.358154        9.787405
  O            8.259282       23.403013        3.946916
  H            8.394093       22.456826        3.855917
  H            8.682207       23.625051        4.780267
  O            5.662731       24.557168       40.514303
  H            5.569770       23.731905       40.032613
  H            4.958179       24.533096       41.166736
  O           26.293750       32.139598       25.378068
  H           26.008451       31.378346       24.867357
  H           26.605570       31.767417       26.206857
  O           28.602745        6.083161       18.187351
  H           28.142395        6.051726       19.029263
  H           27.900753        6.086239       17.531731
  O           15.484877        2.164727        3.103766
  H           16.350832        2.051754        2.704912
  H           14.868380        1.927931        2.406270
  O           24.005177        3.424123       40.747105
  H           23.607176        4.221911       41.103272
  H           24.879283        3.701034       40.460920
  O           24.175726       10.992305        3.114790
  H           23.557609       10.262326        3.197175
  H           23.726112       11.622416        2.546064
  O           14.478418       24.599192        1.015845
  H           13.600174       24.363000        1.323456
  H           14.355423       25.438295        0.564824
  O           19.956007       25.466068       15.086659
  H           19.361445       25.092972       14.431663
  H           19.956334       24.824341       15.801381
  O           33.626010       23.642758       30.226946
  H           34.219271       22.981766       30.591438
  H           33.515623       23.383607       29.308633
  O           38.487643       36.356221       21.635967
  H           37.822104       35.736856       21.944466
  H           39.066841       35.827276       21.081541
  O           25.907481       19.119399       38.474708
  H           26.216186       19.505860       39.297553
  H           26.470646       19.510064       37.801753
  O           41.686144       26.682743        8.786517
  H           40.748988       26.808095        8.953103
  H           41.884118       27.290056        8.069147
  O           34.140657       29.056961       32.986162
  H           33.891134       29.909105       32.621039
  H           33.854414       28.421360       32.325315
  O           10.377346       30.626531        4.372508
  H           11.208356       30.972351        4.038507
  H           10.134758       31.230122        5.079240
  O           23.749915       12.520473       17.870478
  H           22.847219       12.696274       17.594872
  H           23.657333       12.022006       18.686322
  O           11.628304       24.664158       14.776873
  H           11.622209       24.030343       14.055787
  H           11.503218       25.514476       14.347975
  O            1.399618        6.821481       29.250012
  H            0.840175        6.091873       28.973568
  H            0.811730        7.399057       29.743404
  O            3.671581       34.887259        2.441245
  H            3.840067       33.977830        2.698685
  H            2.761222       34.883574        2.134855
  O           12.595655       26.980456        8.379813
  H           13.024397       27.225797        7.556580
  H           13.310910       26.659150        8.934624
  O           41.993099       21.400771        9.530115
  H           41.959007       22.354937        9.429467
  H           41.452569       21.223186       10.304023
  O           17.619675       35.606965        3.981642
  H           16.931938       35.079751        3.568377
  H           18.053128       35.000713        4.587628
  O            1.833689       24.584485       41.104157
  H            1.186265       25.268898       40.919371
  H            2.572188       24.792587       40.526268
  O           30.713144       30.483927       37.490450
  H           30.815134       30.416667       36.538190
  H           31.495150       30.960073       37.780959
  O           16.795417       14.390209       13.496729
  H           17.742871       14.543563       13.473551
  H           16.486470       14.675752       12.633214
  O           32.770584       25.659729       31.634276
  H           32.822926       25.894011       30.704707
  H           31.973989       25.127221       31.701465
  O            3.748143       35.671311       28.090929
  H            3.823889       34.820150       27.653309
  H            3.629287       35.452676       29.018675
  O            7.256031       33.967662       40.231923
  H            7.013082       33.066537       40.457032
  H            6.573930       34.252339       39.618459
  O           36.464181       16.538800        3.558534
  H           37.028842       16.015724        2.984710
  H           37.024969       16.762113        4.305722
  O           22.617985        2.589050        8.121274
  H           21.935237        3.150631        7.746832
  H           22.133593        1.912441        8.601073
  O           22.587354       29.063845       32.242209
  H           23.520725       29.100809       32.020448
  H           22.145590       29.443341       31.478357
  O           11.758315       41.795940       12.619363
  H           11.960903       41.055722       12.042509
  H           11.194707       41.420200       13.300398
  O           33.379045       27.507865        8.245222
  H           33.865890       27.130175        8.981468
  H           33.915085       27.303238        7.474877
  O            6.372574        8.387273       38.430201
  H            5.721314        8.020935       39.033012
  H            7.196900        8.356458       38.922317
  O           23.734679        4.230493        9.136039
  H           24.333307        3.563874        9.480986
  H           23.955609        5.026167        9.626687
  O            8.486852       13.823044       20.079254
  H            7.713095       13.720391       20.638260
  H            8.871788       12.943832       20.041122
  O           31.666387       15.625459       35.057471
  H           31.218518       16.329654       35.532073
  H           32.334899       15.311622       35.671670
  O            3.986266       29.988398        5.109103
  H            4.455176       29.162613        5.250270
  H            3.390833       29.802618        4.378632
  O           10.193144        6.529891       35.557178
  H            9.586573        6.180275       36.214115
  H            9.709206        7.250104       35.145184
  O           29.532010       35.266126        3.790696
  H           28.725868       34.809132        4.041727
  H           29.262865       35.849615        3.076733
  O           23.123228       39.027222       20.692705
  H           22.497398       39.562747       21.185934
  H           23.091139       38.167964       21.120828
  O            8.036501       11.735994       35.991386
  H            8.471799       12.583686       35.874520
  H            7.374576       11.709967       35.295815
  O           30.571762       16.284808       20.761604
  H           30.889972       16.379461       19.860767
  H           29.644656       16.053351       20.663903
  O            6.632996       25.136903       32.409785
  H            7.446581       24.716547       32.698065
  H            6.528957       25.886115       33.001816
  O           30.158799       25.510411       29.357038
  H           30.073973       26.437415       29.122106
  H           29.520802       25.384243       30.063921
  O           14.188932        0.286081        5.285480
  H           13.267270        0.512475        5.140531
  H           14.677042        1.028769        4.921056
  O           16.581527       10.505739       18.242823
  H           17.048689        9.788983       17.807226
  H           16.082005       10.927290       17.538966
  O            5.742943       36.714131       32.242600
  H            4.973011       36.274741       31.874000
  H            5.777324       37.558268       31.785553
  O           40.546969       24.996398        3.269512
  H           40.308074       24.124633        3.593054
  H           41.431041       25.144765        3.614542
  O           10.593796       10.619484       19.304094
  H           11.272706       10.457311       18.644924
  H           10.299442       11.516593       19.127482
  O           20.702915        0.808093       27.693194
  H           20.606787        1.601104       27.160636
  H           20.107751        0.945169       28.434565
  O           35.822036       25.581831       41.102187
  H           34.971407       25.418914       41.516449
  H           36.380049       25.894976       41.818570
  O            2.659980       19.685478       20.274582
  H            2.401834       20.147633       21.075518
  H            2.286632       18.806266       20.375770
  O           38.540496       16.173724       41.931002
  H           37.601148       16.359707       42.000000
  H           38.822503       16.656922       41.150212
  O           36.335158       30.933785       39.057230
  H           36.536328       30.019521       39.270252
  H           35.632945       30.877508       38.404259
  O            0.682206        1.083820       16.903839
  H            0.356184        1.981478       16.805630
  H            0.000000        0.636523       17.410951
  O           21.630566       41.204272       30.157808
  H           21.210793       41.940692       30.608585
  H           21.130542       40.434763       30.441488
  O           40.302837       10.548206       21.879253
  H           40.803177       10.541071       21.059903
  H           40.954456       10.752451       22.554767
  O           35.345973        1.421135       18.327589
  H           34.561066        1.151877       17.844737
  H           36.028886        1.486222       17.655252
  O           10.097509       21.449248        5.319791
  H           10.226376       22.332504        5.673311
  H           10.919481       21.252896        4.863227
  O           23.943510       19.798886       27.995297
  H           24.666281       20.228600       28.458625
  H           24.086528       18.861350       28.147660
  O           22.232006       25.247652       15.402148
  H           22.619738       25.537035       16.231393
  H           22.109681       24.301459       15.513493
  O           34.531398       13.762491       26.307295
  H           33.652739       14.065210       26.066369
  H           34.707199       13.036232       25.703736
  O           27.790409        1.588693       24.902446
  H           28.450097        2.266095       25.068765
  H           27.827525        1.447732       23.953028
  O           12.381394       22.997086       24.734948
  H           11.439920       22.838723       24.633597
  H           12.560540       22.788509       25.655298
  O            7.094520       24.940109       14.148511
  H            6.446909       25.597252       14.414008
  H            6.603028       24.333459       13.588998
  O           22.803710       41.800201       24.938227
  H           22.390517       41.999999       25.781481
  H           23.718882       41.610772       25.160084
  O           25.387589       24.148357       20.543949
  H           24.874439       24.478109       19.802555
  H           26.236590       23.913822       20.160761
  O           21.447724       39.956370       10.614583
  H           22.040552       40.550852       10.148888
  H           21.722785       39.079102       10.336402
  O           35.213502       37.921325       17.616992
  H           34.654779       38.241857       16.905084
  H           34.604025       37.748288       18.338960
  O           16.852238        5.214394       18.081200
  H           17.051705        6.149088       18.172219
  H           16.107055        5.071167       18.670124
  O            7.176904       29.816893        5.327422
  H            7.278703       30.687238        5.719675
  H            6.829616       29.990468        4.448841
  O           10.911468       21.358185       30.793157
  H           10.185216       20.981102       30.291070
  H           11.190230       20.649263       31.378274
  O           40.757256        8.970654       31.388155
  H           39.829456        8.854232       31.170536
  H           41.013304        9.769842       30.920845
  O           19.284143       28.298790       23.889287
  H           18.707492       28.543261       23.161666
  H           18.684539       28.108808       24.615251
  O           22.811882        9.877970        6.594353
  H           22.964993        9.581135        5.694258
  H           23.651304       10.257526        6.866289
  O           28.054431       30.595945       13.726604
  H           28.898257       30.980353       13.477779
  H           27.735859       31.159237       14.436433
  O           17.532704        4.045206       25.045800
  H           16.691851        4.473633       25.222271
  H           17.949889        3.974500       25.908122
  O           34.267725       14.593378       23.993564
  H           35.074439       14.961923       24.361139
  H           33.660869       15.337041       23.957047
  O           23.297769       20.914730       14.347055
  H           24.086174       20.399447       14.160976
  H           22.590972       20.265184       14.381266
  O            3.788320        3.795394       21.737021
  H            3.613285        2.940003       22.136264
  H            4.008874        3.591981       20.824540
  O           21.668847       13.166128       41.478485
  H           21.401879       12.291705       41.771465
  H           22.450866       13.363891       42.000000
  O           13.645235       19.066605       11.353675
  H           12.994217       18.438801       11.675797
  H           14.484849       18.610152       11.450321
  O           17.943480       36.023950       12.743169
  H           17.430782       36.762641       13.079622
  H           18.440164       36.393341       12.008664
  O           41.285040       35.736691       32.479466
  H           42.000000       35.622579       31.848961
  H           41.440364       35.058232       33.141442
  O           13.528209       36.674259       10.925512
  H           14.432357       36.407615       10.743459
  H           13.179395       36.934589       10.069241
  O           15.348905       12.906472       15.233057
  H           16.055977       13.529278       15.417143
  H           15.672444       12.391335       14.489687
  O           33.727685        3.521429       18.831613
  H           33.711486        3.711784       17.890747
  H           34.632802        3.704071       19.096277
  O           36.110300       12.452073       19.960730
  H           35.382219       12.016093       19.511792
  H           35.791642       13.343866       20.121363
  O           24.018407        5.553387       25.388512
  H           23.296559        6.172043       25.522402
  H           23.642611        4.864885       24.834090
  O           14.157210       33.672876       37.999077
  H           14.763100       33.938546       37.303346
  H           14.007792       34.475851       38.504595
  O           17.329167       20.203839        2.162438
  H           17.032880       20.403665        3.053510
  H           17.297098       21.048150        1.705543
  O           15.876747       17.962364       13.367255
  H           16.650809       17.606735       13.810065
  H           15.392572       17.186500       13.073568
  O            4.878864       40.346999       31.390212
  H            5.034536       41.290170       31.479206
  H            3.996696       40.216233       31.747034
  O            5.332359       16.287909       16.522889
  H            6.040038       16.457463       15.896656
  H            5.779231       15.942849       17.299986
  O           35.317850       24.381069       19.109788
  H           34.524309       24.726189       19.525611
  H           35.661160       25.120026       18.601139
  O            3.570759       24.715071       30.537976
  H            4.390695       25.146293       30.789924
  H            3.821985       24.123734       29.823940
  O           18.956210       18.518090        1.726558
  H           18.161426       18.505141        1.188156
  H           19.374224       19.356501        1.514489
  O           33.083094       20.019710       17.310852
  H           33.233759       20.850626       16.854120
  H           33.806646       19.456120       17.025404
  O           35.433871       36.650301       26.153080
  H           36.390791       36.719588       26.188124
  H           35.246695       35.766517       26.479474
  O           23.114887       10.587173       15.680396
  H           23.493040        9.720288       15.515358
  H           23.167554       11.035612       14.832592
  O           20.375443        4.597648       37.806099
  H           20.223024        3.681447       38.049139
  H           20.635867        4.559124       36.882336
  O            2.359573        4.064702       25.784014
  H            1.609253        3.841650       26.339885
  H            2.032049        3.958117       24.887348
  O           11.245114       17.034510       25.403480
  H           12.084514       16.932306       25.858110
  H           10.806516       16.187854       25.519441
  O           10.969431       23.424578        9.042986
  H           11.526424       23.348157        8.264754
  H           10.450025       24.217477        8.887518
  O           12.094098       19.574310       28.784314
  H           11.639469       18.849973       28.347997
  H           12.025993       20.305820       28.165527
  O           12.330973       38.806664        4.007112
  H           12.534520       39.719048        4.225855
  H           12.930638       38.594553        3.287353
  O           26.740497       29.732921       41.529348
  H           26.019539       29.099762       41.496886
  H           26.434355       30.470421       40.995482
  O           41.423776       21.337504       17.493846
  H           41.881512       20.646712       17.009067
  H           41.989426       21.512986       18.250079
  O           30.222210       24.335348       27.168924
  H           30.301165       25.291103       27.123931
  H           30.590288       24.026285       26.337275
  O           10.497098       24.817392       30.518279
  H           10.132671       25.003731       31.386723
  H           10.857977       23.930653       30.596395
  O           30.083485       40.359863       26.793690
  H           30.658946       40.389857       27.561590
  H           29.735010       39.464763       26.791700
  O           12.639669       14.701942       39.582262
  H           13.531786       14.918448       39.301234
  H           12.215093       14.364874       38.789317
  O           10.182773       34.150652       29.394605
  H            9.857813       33.325433       29.762219
  H            9.508442       34.411974       28.762442
  O            5.140451       36.021930       18.431417
  H            5.783869       35.392862       18.096735
  H            4.350181       35.853908       17.911914
  O            3.680305        5.826019       16.442230
  H            3.068241        6.405700       16.901656
  H            4.101931        6.392420       15.791029
  O            9.062386       17.686586       21.635358
  H            9.289420       16.767707       21.474603
  H            8.102064       17.700994       21.620701
  O           40.903003       28.258335        4.603088
  H           40.594034       27.383576        4.355983
  H           41.858818       28.171445        4.641936
  O           23.764945        5.827906       37.643581
  H           24.079116        6.717197       37.822979
  H           24.147917        5.607241       36.790773
  O           11.521837       27.102477       19.707849
  H           12.376104       26.684137       19.838020
  H           10.888242       26.387952       19.811064
  O           36.789005       11.497274        6.599315
  H           37.240113       11.370222        7.437219
  H           36.290267       12.309593        6.717804
  O           33.487035       32.000879       30.472286
  H           33.450650       32.955274       30.374652
  H           32.929057       31.817513       31.232339
  O           40.828151       29.666776       41.455426
  H           40.129763       29.022778       41.316697
  H           41.639104       29.176771       41.297651
  O           21.962208       25.203688       22.361990
  H           21.547775       24.444884       21.944633
  H           22.397221       24.841052       23.137813
  O           21.650813        3.717346       22.548886
  H           21.135102        4.479608       22.822241
  H           22.229770        4.055415       21.861019
  O           24.106609       23.302769       39.940162
  H           24.192268       24.257667       39.990739
  H           24.918375       22.969535       40.330844
  O           34.638037       20.724266        5.435664
  H           34.942468       21.599533        5.184756
  H           34.172656       20.862211        6.264539
  O           39.545665       13.601961       28.409208
  H           40.342949       13.275315       27.985692
  H           39.538827       13.172260       29.268249
  O            2.513297       22.581168        1.162711
  H            2.808081       22.541619        2.075543
  H            2.301546       23.507215        1.020445
  O           41.981177       28.243906       10.662325
  H           41.072639       28.196424       10.355684
  H           42.005041       27.664251       11.427879
  O           35.812037       10.350117        3.935130
  H           35.398117        9.683125        3.382394
  H           35.952032       11.095211        3.345319
  O           20.633640       18.275696       35.609944
  H           20.063776       18.379176       34.844260
  H           20.761633       17.326714       35.685393
  O           30.972976        9.991255       41.435857
  H           30.825367       10.753935       42.000000
  H           31.480094        9.385288       41.982004
  O            9.862486       14.989608       18.736264
  H           10.521400       14.391672       19.096861
  H           10.330380       15.475765       18.052620
  O           24.809020       14.523779        8.325630
  H           25.538316       14.780699        8.894704
  H           24.742455       15.237641        7.686401
  O           28.866404       33.840761       23.080138
  H           28.108402       33.811701       22.491654
  H           29.600442       34.086670       22.511492
  O           39.128402       39.177380       26.975911
  H           38.682383       38.730686       26.252546
  H           39.134462       40.102454       26.717371
  O           40.166163       23.558465       32.321034
  H           40.132675       23.517443       31.362431
  H           41.099061       23.467865       32.531116
  O           16.446141       26.006757       20.362176
  H           15.646819       26.505556       20.546593
  H           16.336979       25.190257       20.856194
  O           19.999450        0.925515       10.216763
  H           19.082448        0.960214        9.934580
  H           20.149936        0.000000       10.425135
  O            2.896569        1.634362        5.907864
  H            1.970511        1.881548        5.963002
  H            3.149468        1.856446        5.008218
  O           30.743126        2.452166       18.420951
  H           30.353419        1.856495       19.065179
  H           31.661666        2.528058       18.691443
  O           25.491722        5.928878       21.883005
  H           24.896405        5.327302       22.336247
  H           25.067583        6.091454       21.036650
  O           27.483427        0.619507        6.955743
  H           27.921265        1.429948        6.685173
  H           26.789111        0.911209        7.551962
  O           34.300297       34.900720       38.814532
  H           34.463721       35.804520       39.094108
  H           33.381362       34.742319       39.044989
  O           30.057131       40.405460        3.566002
  H           30.814648       40.904291        3.251263
  H           30.370778       39.498685        3.611038
  O           29.006147       27.700842       34.613739
  H           29.684235       27.095830       34.923388
  H           28.578506       27.231138       33.893223
  O           24.196090       27.612597       18.639003
  H           24.937408       28.219059       18.572846
  H           24.407519       26.909180       18.020017
  O           22.766986       31.238750       33.704349
  H           23.646936       30.923974       33.484510
  H           22.288041       31.208187       32.872292
  O           40.537525       19.869840       13.036709
  H           41.437216       19.556736       13.156071
  H           40.162221       19.859564       13.920838
  O           41.505239       11.814352       32.027871
  H           41.534379       12.139730       32.930647
  H           41.021635       12.490269       31.546306
  O            2.725129       19.267287       34.407740
  H            3.380585       19.943731       34.593551
  H            2.201277       19.633447       33.690698
  O            3.151265        5.068005        2.407376
  H            2.442913        4.458134        2.188244
  H            3.951758        4.543810        2.323269
  O           20.201005       26.367839        3.111497
  H           20.480046       25.939936        2.298625
  H           21.000797       26.418393        3.641041
  O            4.314191        8.544689       16.175406
  H            4.450519        8.161984       17.045277
  H            5.166433        8.458525       15.740779
  O           10.408419       33.293779       36.037256
  H           10.999057       32.729660       35.532636
  H            9.717735       33.533647       35.414311
  O           12.494528       15.575808       32.596516
  H           11.788607       14.972677       32.840716
  H           12.044202       16.398612       32.389534
  O            8.416595        7.809510       22.939341
  H            9.128410        8.378038       22.636321
  H            8.228297        8.117127       23.829598
  O            6.907748       38.283055        4.025721
  H            6.096106       38.711161        3.743429
  H            6.642231       37.734563        4.768216
  O            8.104762       32.647111       14.617901
  H            8.667354       32.750534       15.388951
  H            8.213775       33.468107       14.131358
  O           20.764722       24.592061       36.482820
  H           21.130770       25.438074       36.214500
  H           20.629245       24.680398       37.429648
  O           24.943531       12.398024        7.653285
  H           25.271701       12.082748        6.807927
  H           24.908810       11.611694        8.203851
  O            3.433765       19.741550        0.867916
  H            3.282096       20.464304        1.481388
  H            3.329041       20.139541        0.000000
  O           38.016356       32.250898       37.581133
  H           38.973880       32.192453       37.542975
  H           37.710912       31.483163       37.091306
  O            1.380387       15.686680       40.233787
  H            2.259807       15.343565       40.408764
  H            1.509757       16.325686       39.528396
  O           31.359988       21.510188       33.479852
  H           32.178611       21.899798       33.163964
  H           31.283721       21.818018       34.386531
  O           26.317801       32.401348       28.269012
  H           25.415449       32.279499       27.964645
  H           26.512503       31.601554       28.764051
  O           12.629079       38.049806        6.052754
  H           12.839814       37.116780        5.970419
  H           11.993940       38.088195        6.772314
  O           17.538509       35.094331       23.393856
  H           17.634329       34.389472       22.749095
  H           16.642679       35.415808       23.264312
  O            9.425163       11.053613       21.021353
  H           10.243087       11.526555       21.191794
  H            9.107271       10.805224       21.893070
  O           34.382650       23.550297       17.356394
  H           33.692096       24.104980       17.726781
  H           34.474153       22.830920       17.986288
  O           15.811693       30.621725       28.086726
  H           15.118180       31.110780       27.637738
  H           15.934256       31.089442       28.916703
  O           23.380687        8.560398       20.064305
  H           22.781577        9.012288       19.465483
  H           22.854441        8.399392       20.851569
  O           37.573112       13.488980       17.647792
  H           38.298198       13.253264       17.064343
  H           37.569987       12.798275       18.315294
  O           29.560632        2.135610       27.389878
  H           29.039965        1.390012       27.082122
  H           29.010377        2.901745       27.208502
  O           22.601237       27.205722        5.728982
  H           21.844887       27.395008        5.168776
  H           22.374237       27.597068        6.576308
  O           28.343962       21.574931        4.569045
  H           28.914126       22.242714        4.957250
  H           27.816991       22.055935        3.925944
  O            2.653034       15.345454       17.400074
  H            3.565054       15.536545       17.631221
  H            2.717122       14.718271       16.675383
  O           33.848916       18.767243        2.170653
  H           33.724030       18.700392        3.120210
  H           34.075322       19.689172        2.024267
  O           39.262655       12.855354        7.006406
  H           39.851437       12.737342        6.257317
  H           38.391568       12.948897        6.612579
  O           19.904021        8.885354       25.981484
  H           19.219933        9.513290       25.737669
  H           20.195949        8.514086       25.145075
  O           37.478954       28.724607       37.023490
  H           36.702555       29.254542       37.218675
  H           37.442003       28.588463       36.073363
  O           29.654995        4.625906       37.522409
  H           30.523540        4.893699       37.213147
  H           29.706933        4.706412       38.478162
  O           20.045690       17.540569        9.507766
  H           20.321246       17.674696       10.417604
  H           20.819611       17.771386        8.987754
  O           21.952413       13.759984       14.867835
  H           22.859274       13.533681       15.087183
  H           21.462899       12.945459       15.007715
  O           27.821261        1.685694       34.415600
  H           27.376844        2.498540       34.667592
  H           28.441518        1.954724       33.733291
  O           11.032371       25.501245       24.699881
  H           11.613953       25.076509       24.064989
  H           10.148265       25.326086       24.367739
  O            8.751567       30.672767        0.826053
  H            8.987907       31.371744        0.211806
  H            9.182900       30.921324        1.647523
  O           30.134840       27.175203       41.252427
  H           30.718900       27.493439       41.944759
  H           29.439631       27.836278       41.204411
  O           12.393669        3.532089        8.015086
  H           11.852451        2.813353        7.680085
  H           13.019368        3.104378        8.605176
  O           18.452012       20.998332       18.956469
  H           19.341594       20.883458       18.614163
  H           18.553017       21.625006       19.677385
  O           40.766671       34.308593       17.635565
  H           39.921453       34.040863       18.003874
  H           40.541212       34.973303       16.979843
  O           20.281584       26.154802       24.913926
  H           21.128809       26.510367       24.635523
  H           20.037069       25.544991       24.213223
  O           23.750530       40.953820       32.667983
  H           24.270180       40.792117       33.458894
  H           23.067528       40.278768       32.689294
  O           39.155879        6.485874       21.319580
  H           38.842078        5.582023       21.240157
  H           40.102387        6.423824       21.168202
  O           18.963762       11.624544       36.054903
  H           18.619154       11.481813       36.939549
  H           19.272609       10.758588       35.776739
  O           38.717807       35.157883        3.439984
  H           38.720778       34.441961        2.800318
  H           38.948469       34.735735        4.271386
  O           31.711627       22.220922       13.256738
  H           30.951179       21.670839       13.458859
  H           31.332946       23.036115       12.918061
  O            6.056920        0.601589       28.045941
  H            6.348642        1.180564       27.337837
  H            5.108631        0.745917       28.096547
  O           30.827230       30.666995       29.862680
  H           30.140795       31.277799       30.140978
  H           31.244007       31.101591       29.114305
  O            4.743529       22.496932       16.116768
  H            5.574702       22.617083       15.651537
  H            4.747741       23.179479       16.792603
  O           37.397447       39.827264       34.122894
  H           36.933024       39.061369       33.777293
  H           37.035502       39.947836       35.004427
  O           15.934652       24.208705       18.903502
  H           15.524360       24.794465       18.262979
  H           16.780401       23.979843       18.509835
  O           33.848941       30.084958        1.737864
  H           34.804762       30.174883        1.744599
  H           33.524988       30.987224        1.677775
  O           11.671294       14.706267        7.891568
  H           11.710805       15.268723        7.114517
  H           11.518764       15.314838        8.618904
  O           33.281540       35.201609       24.030784
  H           32.845397       35.702120       23.337248
  H           32.672396       34.485303       24.226973
  O           12.453213        7.136323       21.390161
  H           11.553187        6.806476       21.443814
  H           12.872729        6.578294       20.730424
  O           19.108371       34.186893       19.824595
  H           18.283529       34.040792       20.293653
  H           18.853303       34.682774       19.042492
  O           31.159971        5.705973       27.944875
  H           30.933153        6.516524       28.406702
  H           32.033570        5.480307       28.274334
  O           36.881301       13.376847       25.611651
  H           36.822611       12.431130       25.766244
  H           37.712170       13.633971       26.019311
  O           39.156348       34.475143        9.972258
  H           39.597212       35.290411        9.721854
  H           38.398453       34.762512       10.487676
  O           28.623232       23.986804       31.776652
  H           28.184544       23.169973       32.025778
  H           28.303174       24.632591       32.411604
  O            6.484524        8.428461       17.659902
  H            6.886509        7.561360       17.568971
  H            6.756863        8.901591       16.869572
  O           22.906208       21.484764       16.694896
  H           22.959471       22.235546       16.098899
  H           23.699678       20.976238       16.509291
  O           12.927063       39.067418       35.404653
  H           12.139128       39.353118       35.872904
  H           12.598451       38.472751       34.725663
  O            8.935636       19.186267        0.000000
  H            9.427526       20.010749        0.000094
  H            8.185310       19.356209        0.575128
  O            6.536474       10.356106       22.537745
  H            5.781609        9.833933       22.819240
  H            7.232262        9.710115       22.392087
  O           40.601539       40.437260       22.274155
  H           41.219144       40.451676       23.009057
  H           40.478601       41.362629       22.047835
  O            3.580402        4.164127        6.534412
  H            4.164868        3.610843        6.010960
  H            3.785582        3.933945        7.444115
  O            1.526387       28.294421       38.283518
  H            1.359313       27.660294       37.582308
  H            1.210907       27.858614       39.079248
  O            2.045208       18.929708        5.229189
  H            2.683744       18.233738        5.401302
  H            1.473428       18.565709        4.548590
  O            4.025002       20.542760       15.585932
  H            4.687562       20.521153       14.891474
  H            3.415626       21.233152       15.312688
  O            8.240657        9.620587       18.497554
  H            7.780410        9.755424       19.329249
  H            8.319493        8.666379       18.420648
  O            9.661393       35.301404       13.320467
  H            8.748830       35.596458       13.276922
  H            9.669419       34.477533       12.826690
  O            6.074128        1.322691       20.065441
  H            6.285675        2.040766       20.666558
  H            5.124392        1.389979       19.938489
  O           33.335362       35.640476        1.254547
  H           34.288049       35.759224        1.250985
  H           33.212453       34.695289        1.135566
  O           36.731250        5.587843        8.854748
  H           37.190619        6.289878        8.388003
  H           36.152470        5.200631        8.193142
  O           19.639011        3.640847        7.274917
  H           19.900094        3.387558        6.386432
  H           20.019456        4.514586        7.395266
  O           33.333029       16.725974       32.853246
  H           33.265148       16.150628       33.618814
  H           33.353113       17.612556       33.222312
  O           39.710637        3.450565       39.663124
  H           40.092125        3.920172       38.917697
  H           39.973414        3.966365       40.429636
  O           29.591308       26.650426       14.175104
  H           29.748217       27.494117       13.744652
  H           29.560095       26.016894       13.453782
  O           33.505331        6.928749       29.702231
  H           32.773725        6.464998       30.116251
  H           33.084782        7.591268       29.148292
  O           36.771901        1.904117        8.268882
  H           36.757196        2.711481        8.788182
  H           37.353192        2.105639        7.531230
  O            2.028670       26.807776       31.317796
  H            2.971687       26.792743       31.138307
  H            1.945516       27.342378       32.111476
  O           13.541517        5.929226       16.010144
  H           13.920486        5.187266       16.487221
  H           13.750572        5.752511       15.089433
  O           22.765473        2.196170       24.334560
  H           22.144607        1.782028       23.730625
  H           22.288438        2.952490       24.685359
  O           37.336729       37.155183       14.064823
  H           37.364485       36.695033       13.222673
  H           37.078049       36.479918       14.697076
  O           33.167867        1.826457        2.255134
  H           33.832965        2.475207        2.496987
  H           33.480843        1.462998        1.422916
  O           21.340617       41.486754        6.478258
  H           21.006910       41.280742        5.601945
  H           21.218607       40.674842        6.976811
  O           19.907325        6.191577        4.969773
  H           20.228307        6.604676        4.164761
  H           19.807496        6.919869        5.588051
  O           36.402365        9.905975       13.489997
  H           36.899884       10.504843       14.051741
  H           37.052542        9.564153       12.871070
  O           33.615201       36.801179       41.529692
  H           33.027766       36.069814       41.325364
  H           34.430076       36.588746       41.067639
  O           10.051737       17.353624       23.575289
  H            9.681784       16.468893       23.621246
  H            9.389828       17.910808       23.992499
  O           35.653153       35.976634       29.582641
  H           36.007402       36.749352       29.136389
  H           35.050203       36.335613       30.238557
  O            6.808328        1.405348        4.263593
  H            6.322626        0.896330        4.916830
  H            6.624553        0.962367        3.431345
  O           13.521541       22.561076       22.801765
  H           14.408151       22.904559       22.934681
  H           13.617084       21.923592       22.089636
  O           11.968497       19.689904       20.667171
  H           11.787702       18.768473       20.467165
  H           12.696007       19.659606       21.293632
  O           14.644879       18.601251       27.443300
  H           14.408905       17.734425       27.781906
  H           14.231232       18.639626       26.577237
  O           41.203897       13.617503       12.520448
  H           41.095413       13.682225       11.568730
  H           41.711459       12.812105       12.648343
  O           18.755822       24.310760       19.533154
  H           19.251451       25.039331       19.914285
  H           18.165668       24.029827       20.237027
  O           27.390695       38.624752       40.169874
  H           27.711004       38.525878       41.069514
  H           26.947175       39.476764       40.166980
  O           38.709655       41.116148       31.622782
  H           38.382946       41.938834       31.251064
  H           38.222340       41.015613       32.444401
  O           31.012502        4.763462        7.563044
  H           31.833264        5.204751        7.332094
  H           30.566143        4.634911        6.722282
  O           35.822693       40.308457        9.287097
  H           36.622613       40.513363        9.776860
  H           36.127449       39.787290        8.540002
  O            1.414569        9.728045       36.553113
  H            2.303850        9.839011       36.208741
  H            0.908869        9.398703       35.805822
  O           29.104688       31.257252       32.589068
  H           28.682808       30.985950       31.770449
  H           28.375133       31.505922       33.162264
  O           40.541925       27.949530       35.630542
  H           39.779664       28.252990       35.131948
  H           40.280514       27.087814       35.964834
  O           19.530763       41.572126       34.655550
  H           18.636015       41.324632       34.410807
  H           19.672097       41.146235       35.504834
  O           39.807439        8.929375       15.100444
  H           39.084479        8.396109       15.439092
  H           39.379475        9.586834       14.546155
  O           31.356876       13.394346       12.173584
  H           31.369384       13.805131       13.041238
  H           30.430743       13.191800       12.019004
  O            8.733276        4.057181       11.210738
  H            7.813933        3.811753       11.083068
  H            9.218990        3.479541       10.616552
  O            6.687105       25.065615       26.896537
  H            5.921969       24.667928       26.474475
  H            6.355809       25.383005       27.740426
  O           32.922539       10.428638       12.611110
  H           33.736615        9.924203       12.678578
  H           33.094451       11.227415       13.116128
  O           14.293237       19.350380       14.076707
  H           13.677847       18.669578       13.794697
  H           14.456504       19.867459       13.283854
  O            4.578265       16.760768        6.848744
  H            5.063290       16.777704        6.020379
  H            4.188527       17.636203        6.914781
  O            4.786478       34.203168       35.735394
  H            4.981196       33.373024       35.294178
  H            4.675759       33.962255       36.658619
  O           33.286331       39.943992       25.545817
  H           33.521434       39.060967       25.251338
  H           33.390115       40.491718       24.763598
  O           30.894285       27.330759        1.930819
  H           31.722449       27.727370        2.211120
  H           30.218920       27.851253        2.373096
  O           21.599146        9.708049        0.994355
  H           22.429068        9.373246        1.342005
  H           21.519281       10.587124        1.373157
  O            4.845427       39.449884       19.480941
  H            4.894816       38.586426       19.064137
  H            5.755659       39.658452       19.705927
  O           21.442056       17.191018       32.078283
  H           21.002382       16.398609       31.761267
  H           22.004302       16.881946       32.793123
  O           15.132502       24.446315       24.754894
  H           14.899718       25.359516       24.938198
  H           15.214975       24.042515       25.622526
  O           30.105719       16.937765       27.897982
  H           29.604370       16.321098       28.436588
  H           30.082674       17.760383       28.393371
  O            9.784342       19.216286       19.002871
  H            9.432964       19.801492       18.327747
  H            9.607766       18.333316       18.668466
  O            4.902779        5.504026       35.854785
  H            5.523942        4.816589       36.106405
  H            4.193961        5.033371       35.409023
  O           34.015273       27.663583        3.475028
  H           33.115225       27.420140        3.703881
  H           33.917072       28.283022        2.747502
  O           41.806353       31.762467       40.269244
  H           41.383108       31.047987       39.787469
  H           41.316941       31.816654       41.093976
  O           18.222208       32.669309       36.172977
  H           18.380598       32.156325       35.377059
  H           17.592679       33.342149       35.901645
  O            7.880538       26.872180       29.061058
  H            8.067403       25.930766       29.037675
  H            8.572113       27.238779       29.617809
  O            6.153330       27.857493        4.285145
  H            6.121206       27.657722        5.223646
  H            5.776220       27.081394        3.863126
  O            7.490302        6.397208       41.026137
  H            6.829594        6.966524       40.624801
  H            8.305675        6.901848       40.970038
  O            8.286249       29.461402       11.324626
  H            8.458195       28.586494       10.968683
  H            7.720871       29.878421       10.669580
  O            7.776152       22.206746       32.109881
  H            8.064416       21.335387       31.828166
  H            8.428354       22.474267       32.762343
  O            5.656970       41.471674       34.659946
  H            6.376301       42.000000       34.306166
  H            5.305423       41.999922       35.381063
  O           29.679121       36.664043       41.156171
  H           29.306672       36.397661       42.000000
  H           30.268759       35.944184       40.917904
  O           13.771808       25.231926       36.064877
  H           14.208643       26.033083       35.766469
  H           14.214410       24.526554       35.586133
  O            2.279249       18.132597        2.495764
  H            3.177670       17.967085        2.791009
  H            2.146440       17.510644        1.775918
  O            9.623804       40.172629       28.791371
  H            8.764060       39.770280       28.935181
  H           10.059650       39.587081       28.167020
  O            9.529151        5.739621       23.233135
  H           10.276645        5.320801       22.800044
  H            9.153156        5.047119       23.782417
  O           32.484687        3.453173       31.627845
  H           32.530941        4.375630       31.365817
  H           32.298748        3.481906       32.569781
  O            9.467074       27.988210       21.983298
  H            9.816272       28.831023       22.282383
  H            9.801388       27.895964       21.087549
  O            3.082697        3.424228       11.929174
  H            2.789420        2.895388       11.183492
  H            2.918974        2.868037       12.694999
  O           11.097638        1.884928       24.817834
  H           11.555313        2.576111       24.333557
  H           11.800047        1.314699       25.140483
  O           17.226243       20.431260       39.164243
  H           16.897434       20.175783       38.299177
  H           17.624576       19.630241       39.514016
  O            7.581614        4.879127       18.845799
  H            8.378085        5.062091       19.349668
  H            7.393220        3.954456       19.025055
  O           31.095402       16.541645       32.744259
  H           31.275734       17.456349       32.515084
  H           30.179572       16.407611       32.487483
  O           22.639205       37.263751        2.760476
  H           22.940732       38.152382        2.963309
  H           22.036052       37.047476        3.476069
  O            5.728680       28.143460       22.560073
  H            5.292756       27.450476       22.058607
  H            5.922489       27.737668       23.408845
  O           38.667081       18.509850       27.269788
  H           38.678040       17.564682       27.437904
  H           38.075168       18.611848       26.520204
  O           19.034378       12.960123       18.770954
  H           18.730782       12.087826       18.508938
  H           18.913014       13.500513       17.986167
  O           17.843573       15.522106        3.545221
  H           17.338871       16.297636        3.801258
  H           18.421601       15.834443        2.844528
  O           18.448363        5.048589       16.176597
  H           18.452150        4.105945       15.994573
  H           18.881815        5.440387       15.414196
  O           14.154232       15.269269       31.051584
  H           14.699452       14.482161       30.981433
  H           14.632888       15.837382       31.660499
  O           19.810271        1.016721       40.607143
  H           19.989458        0.083041       40.473510
  H           19.859715        1.135133       41.559076
  O           24.232275       27.037944       13.394994
  H           24.230693       26.151171       13.027087
  H           23.312551       27.206509       13.614845
  O           38.855480       20.764383       24.601405
  H           38.004853       20.469271       24.268138
  H           38.693217       21.659483       24.909804
  O           20.408265       15.711074        4.134656
  H           21.261285       16.145676        4.062517
  H           19.850310       16.353479        4.580351
  O            9.231291       11.278411       24.837042
  H            9.466098       10.523744       25.382082
  H            8.625408       10.920882       24.183038
  O           24.878315       24.037262       14.689582
  H           25.435699       24.739474       14.346147
  H           24.342536       24.465452       15.362067
  O           37.728561        1.031014       25.580463
  H           37.100956        0.542496       25.042701
  H           37.940367        0.433294       26.301927
  O           29.814652       30.048402       15.065006
  H           30.411968       29.612236       15.677132
  H           29.565946       29.359879       14.443135
  O           19.623055       13.068198       23.942175
  H           20.344365       12.439516       24.020888
  H           19.200536       12.843268       23.109393
  O            7.827085       34.867948       30.919857
  H            8.007476       35.647023       30.388608
  H            7.863820       34.139454       30.294886
  O            6.929690       14.771779       22.472900
  H            7.228905       15.680168       22.556723
  H            6.217577       14.813706       21.829644
  O           15.025555        9.067702        0.192261
  H           15.479685        9.790269        0.632020
  H           14.300945        8.846870        0.782867
  O           10.502865       34.322509        8.686171
  H            9.593668       34.053978        8.837752
  H           11.025840       33.577717        8.993457
  O           22.571452       30.793890        7.159434
  H           21.797353       31.002541        6.631266
  H           22.518646       29.844452        7.295158
  O           18.151342       31.710007       18.421015
  H           18.115470       32.063336       19.312977
  H           17.257886       31.818533       18.085457
  O            9.777504        0.483821        9.465758
  H            8.919634        0.169569        9.170751
  H           10.084038        1.046910        8.750490
  O           27.421584       17.851824       23.394566
  H           26.814880       17.124345       23.550803
  H           27.088155       18.273614       22.598601
  O            9.426221       26.898289       13.560728
  H            9.286790       27.803920       13.847287
  H           10.141703       26.957599       12.922597
  O           39.558651       30.757510       35.871991
  H           38.840864       30.205017       35.553779
  H           40.351468       30.343659       35.521549
  O           12.880672        6.757671        1.279910
  H           12.724563        5.812776        1.347199
  H           13.544672        6.937959        1.950166
  O            4.668536       19.316106       20.221773
  H            5.400492       18.848219       20.630487
  H            4.429632       18.772237       19.466939
  O           25.379733       39.624191       26.347542
  H           24.442969       39.773428       26.199470
  H           25.643864       39.039233       25.632909
  O           22.198913        4.627328        4.696108
  H           22.129482        5.451416        4.208477
  H           21.350971        4.540098        5.138856
  O           36.056986       22.927951       21.421785
  H           36.576786       23.635121       21.032629
  H           35.837119       22.357967       20.680556
  O           20.129424       29.779046       16.439657
  H           20.053626       30.326891       17.224415
  H           19.857484       30.354310       15.720101
  O           29.814834       39.591523       22.451419
  H           29.724023       39.322163       21.534400
  H           30.754623       39.758491       22.558932
  O           12.228827       22.812605       28.664767
  H           12.598815       22.429984       27.865745
  H           11.282229       22.673595       28.579497
  O           17.336820       33.394541       29.515162
  H           16.646334       33.398505       28.848125
  H           17.531204       32.463819       29.651587
  O            6.385045       16.185814       26.343787
  H            7.039851       16.879847       26.449963
  H            6.410105       15.705176       27.175052
  O           40.486256       18.115267       16.449173
  H           41.089523       17.415214       16.709403
  H           40.900846       18.919441       16.771761
  O            7.735406       20.115468       19.691506
  H            7.442693       19.652455       20.479963
  H            7.040121       19.954600       19.048590
  O           32.444308       14.059623        7.371888
  H           32.984872       14.665980        7.883598
  H           32.234102       14.545755        6.570557
  O           40.509719       36.762394       26.908899
  H           40.956349       36.586174       26.077519
  H           40.627635       35.956674       27.418363
  O           25.594997       27.289143       16.132787
  H           25.884698       28.188748       16.301638
  H           25.909612       27.099974       15.245164
  O            1.019814       19.973472       23.021846
  H            1.442609       20.497411       23.706286
  H            0.162425       19.746598       23.390701
  O            1.730716        0.872129       14.981390
  H            2.540860        0.833100       15.495072
  H            2.005134        1.220785       14.129465
  O           10.690689       39.585387       34.233368
  H           10.623246       38.746445       33.771468
  H            9.979646       39.560112       34.878676
  O            7.285051       30.568215       32.007682
  H            7.970409       31.059818       31.549059
  H            7.319208       30.896499       32.909738
  O           37.140483       23.031216       32.935917
  H           38.014994       23.133912       32.553282
  H           37.068637       23.754361       33.564043
  O           28.006813       19.973572       25.013406
  H           28.631519       19.482496       24.474600
  H           27.152065       19.787918       24.616442
  O            7.598163       21.580841       21.527563
  H            7.046658       21.886068       20.803405
  H            6.994482       21.503072       22.270640
  O           12.227768       12.090136       36.773212
  H           12.024846       11.151793       36.780951
  H           12.450868       12.293360       37.685116
  O           28.741128       41.348502       34.608352
  H           27.939127       41.511644       35.110252
  H           29.365445       41.999704       34.938209
  O            8.340339       38.570285       37.351033
  H            7.410774       38.361586       37.469685
  H            8.368073       39.530135       37.327365
  O            7.424275       36.079955       16.411934
  H            7.857047       35.638806       17.146659
  H            6.808128       35.426656       16.071044
  O           13.530199       36.304360       21.857151
  H           14.428262       36.582600       22.051550
  H           12.996673       36.732632       22.531373
  O           37.101439        5.424192       11.475189
  H           36.323723        5.795419       11.052019
  H           37.829373        5.680837       10.903449
  O           15.231439       30.235233        1.799354
  H           15.438726       31.071007        2.223900
  H           15.634143       29.573161        2.366920
  O            9.566822       21.811901       17.442168
  H            9.764919       22.536425       16.844216
  H            8.951354       22.187840       18.076606
  O            7.472111        7.609317       31.216563
  H            7.700389        8.261268       30.549800
  H            6.583329        7.849516       31.490449
  O           25.392208       22.943520       16.520900
  H           26.252957       22.807115       16.118121
  H           25.590181       23.283874       17.397032
  O           27.083205       32.805074       10.409969
  H           26.773756       31.897316       10.365897
  H           26.814201       33.189634        9.571881
  O           37.179276        6.922561       13.084175
  H           36.500482        7.507266       13.429261
  H           37.760678        7.501079       12.584244
  O           27.873917       14.169487        4.611857
  H           27.205104       13.693265        4.114236
  H           28.038386       13.616608        5.379918
  O            7.157394       31.183987       16.095326
  H            6.547331       30.529974       16.444344
  H            8.019489       30.765781       16.162688
  O           27.220642       18.321708       26.476154
  H           27.979115       17.736305       26.414944
  H           26.482027       17.787403       26.173486
  O           31.670823       33.959244       36.816276
  H           32.585515       33.973530       37.107581
  H           31.356471       33.085043       37.060399
  O           36.952910       40.272165       26.361584
  H           36.281048       40.639707       25.782586
  H           36.829645       40.735347       27.193996
  O           41.783438       38.321832       13.613530
  H           41.457691       39.220081       13.519923
  H           41.250931       37.947492       14.319893
  O           23.527171       37.444828        4.943480
  H           22.957263       37.241067        5.688739
  H           24.388735       37.601780        5.338088
  O           24.287798        2.763469        3.943153
  H           23.952878        3.651075        3.795811
  H           25.127071        2.744765        3.476341
  O           39.166485       36.738100       34.358303
  H           38.878994       37.471314       33.809239
  H           39.337936       36.026958       33.735789
  O           15.511186        4.034890        4.343568
  H           16.417361        4.019692        4.026800
  H           15.534092        4.621836        5.103576
  O            0.417135        6.424535       12.330505
  H            0.000000        7.065212       11.749767
  H            0.716233        6.942967       13.081777
  O           17.353492       36.450845       29.624894
  H           16.962278       35.584507       29.490229
  H           17.673044       36.430003       30.530485
  O            5.497198       25.420260       19.056904
  H            5.653250       25.416776       20.004195
  H            6.356789       25.613679       18.674365
  O           35.979446       25.696517        4.736689
  H           36.656919       25.903768        4.088768
  H           35.262114       26.302210        4.533680
  O           13.732213       13.474960       29.000953
  H           12.851778       13.521403       29.380956
  H           13.711874       14.103231       28.274658
  O            1.153107       23.466417       16.997944
  H            1.827540       23.243322       17.643772
  H            1.632964       23.915769       16.297614
  O           12.424512       10.937125        5.679266
  H           12.344249       11.805061        6.081722
  H           11.550612       10.549449        5.772263
  O           17.179088        1.305404       35.227276
  H           17.055865        1.731873       34.376003
  H           18.128004        1.334508       35.373401
  O           13.507254       30.835364       33.897302
  H           13.124002       31.656846       34.213545
  H           14.255554       31.111794       33.362255
  O           41.034898       15.052583       26.801528
  H           40.172584       15.409163       27.027338
  H           41.201896       15.377129       25.913033
  O           20.322566       33.053197       35.056321
  H           19.795423       33.855515       35.067803
  H           20.414956       32.841935       34.123865
  O           13.373285       20.806530       15.928188
  H           13.415213       21.719553       15.634324
  H           12.714731       20.402393       15.357555
  O            7.927449       20.613647        8.181862
  H            8.348307       20.196305        8.937129
  H            7.090933       20.938510        8.524422
  O           18.107789        9.394774        6.893986
  H           17.867440        8.681965        6.297445
  H           18.546184        8.954859        7.626739
  O           37.839031       34.935409       27.249797
  H           37.169216       34.703974       26.602100
  H           38.226211       35.747267       26.912721
  O           30.601523       18.096298       18.347939
  H           30.479494       17.313571       17.805562
  H           29.750844       18.541437       18.318982
  O           30.942541        0.719958       39.690581
  H           31.416819        1.057267       38.927032
  H           30.378783        0.028452       39.334717
  O           32.013970        9.605449       35.922986
  H           32.410180       10.415202       35.592769
  H           31.960982        9.034445       35.152410
  O           34.297921       19.590591       10.735397
  H           35.144888       20.041900       10.761702
  H           33.700103       20.177943       11.204730
  O           27.052618       17.097840       41.351110
  H           27.608359       16.324293       41.471532
  H           26.642421       16.965431       40.492711
  O           19.090968       21.625558       40.610225
  H           19.016275       21.069584       39.831098
  H           19.995826       21.947076       40.587850
  O           14.125256        1.948703       34.857871
  H           14.985255        1.606005       35.112202
  H           13.830163        1.358258       34.160063
  O           40.214468       35.866539       29.624401
  H           41.172911       35.921099       29.636085
  H           39.922460       36.747971       29.870268
  O           31.829017       19.977786        9.112117
  H           31.068059       19.823995        8.547302
  H           32.574227       20.002833        8.506578
  O            8.054752       18.389330        4.658889
  H            7.372479       18.294040        3.990198
  H            7.693632       19.028203        5.278627
  O           33.132735       14.017081        1.355371
  H           33.049455       14.618362        0.611563
  H           32.240440       13.943043        1.703178
  O           34.870657       41.296771       32.252853
  H           34.569307       41.121622       31.358294
  H           34.184978       41.853244       32.630774
  O           23.502768       24.522551       25.866756
  H           22.779559       24.825235       25.312611
  H           23.110315       24.423337       26.737836
  O            3.810022       26.648114        0.290836
  H            4.004759       27.542103        0.000000
  H            2.891242       26.682642        0.568852
  O           34.716126       38.428331       37.745131
  H           34.264146       37.582782       37.794991
  H           34.018714       39.060578       37.554024
  O           29.872643       32.379819       41.707382
  H           29.012243       32.012603       41.923226
  H           29.732095       32.845720       40.879237
  O           33.846112        1.860241       13.682001
  H           34.539281        1.366920       14.126834
  H           34.278265        2.665954       13.387534
  O           35.902899       10.917249       37.721290
  H           36.379320       10.119909       37.478400
  H           36.425700       11.300850       38.429931
  O           31.610377       37.516502       18.175783
  H           30.969651       36.893336       17.825271
  H           31.834457       37.166378       19.041718
  O           16.374813       12.224259        8.688163
  H           15.550153       11.929209        9.081364
  H           17.046707       11.680522        9.107150
  O           39.024265       28.019872       24.859025
  H           38.238651       28.159922       24.325243
  H           39.078353       27.065973       24.957986
  O           11.193991       37.287224       37.057059
  H           11.194179       36.455050       36.578298
  H           10.271204       37.553460       37.072058
  O           15.199221       33.463531       14.371675
  H           15.131360       32.595634       14.776489
  H           14.310795       33.650426       14.057967
  O           38.530394       10.845195       29.968883
  H           38.350061        9.910252       29.846059
  H           38.936159       10.897599       30.837935
  O            2.377314        6.239842       20.513112
  H            3.167105        5.765315       20.782888
  H            1.781989        5.553802       20.200737
  O           21.038555       32.613149       28.196515
  H           21.029997       32.163798       29.044887
  H           20.407892       32.124565       27.661547
  O           26.818187       19.514696       32.845006
  H           27.371519       19.596203       33.625330
  H           27.405534       19.721303       32.113583
  O            2.596951       23.866267        8.003516
  H            2.874076       23.432842        8.814115
  H            2.365974       23.144016        7.413901
  O            2.804159       37.485505       31.799160
  H            3.604165       38.011125       31.725414
  H            2.717401       37.061721       30.941534
  O           35.857660       11.008632       24.134271
  H           35.100209       10.758932       23.599815
  H           36.469815       10.274726       24.037889
  O            3.123974       18.392497       38.124374
  H            3.000989       17.440850       38.093256
  H            2.240838       18.742521       38.266488
  O           26.435266       24.519629       39.961717
  H           26.687840       24.637033       39.042942
  H           27.152797       24.919922       40.459266
  O           36.462326       28.103432        2.549887
  H           37.249370       28.144928        3.098125
  H           35.901203       28.807528        2.884599
  O           41.903109       13.224189       36.438771
  H           40.974178       13.339423       36.652159
  H           41.975511       13.512667       35.525437
  O            3.719539       13.184122        3.376938
  H            4.486590       13.638867        3.021180
  H            2.985576       13.503260        2.845816
  O           22.491315       34.656459       39.979905
  H           21.902603       33.904405       40.077665
  H           23.140541       34.543461       40.678747
  O           22.326084       21.605255        6.874564
  H           21.821267       21.210736        7.589574
  H           22.692063       20.855244        6.398975
  O           27.035106       12.445042       39.151714
  H           26.219521       12.660177       38.693168
  H           26.821119       12.552484       40.081933
  O           27.862363       24.548906        2.708890
  H           27.497088       24.310211        1.853715
  H           27.266060       24.144522        3.344137
  O           22.587555        2.212421        5.284250
  H           22.102470        1.616671        5.860009
  H           23.222784        2.639932        5.864216
  O           34.957645       14.903055        6.701758
  H           35.402484       15.002141        5.856758
  H           35.530254       15.354486        7.327034
  O           12.176051        6.138266        3.475737
  H           12.342453        5.900397        4.390862
  H           11.218364        6.164685        3.406606
  O           35.618145       39.100873       24.356890
  H           35.425114       38.186991       24.578891
  H           36.228453       39.042813       23.617434
  O           24.050219       28.218542       15.260876
  H           24.493029       28.974066       14.867395
  H           23.502912       28.597086       15.953553
  O           35.650149        4.573647        3.464942
  H           34.774772        4.401386        3.110307
  H           35.758599        3.919896        4.160277
  O           24.504167       31.864185        7.277332
  H           25.070929       32.108690        6.541993
  H           24.950034       31.116744        7.683752
  O           24.331556       35.339221       20.846828
  H           24.602310       34.790867       20.106743
  H           23.468789       35.675417       20.591393
  O           32.089101       13.955709       20.744895
  H           31.161128       13.878565       20.511140
  H           32.211626       13.314386       21.449405
  O            8.121346       27.434912       35.498499
  H            7.313324       27.296478       34.998838
  H            8.288636       26.588462       35.920611
  O           12.980568       22.065191       40.704677
  H           13.203152       22.656352       39.981691
  H           12.312026       22.540691       41.204270
  O           33.863619       20.619131       26.655146
  H           34.219263       21.444906       26.318488
  H           33.169221       20.888304       27.261775
  O           33.858531       26.975470       37.603089
  H           34.050741       26.044348       37.469701
  H           34.447619       27.241109       38.313760
  O           18.572323        6.943877       40.129269
  H           18.399709        6.056680       39.805524
  H           19.507872        6.940443       40.346934
  O           18.304945       10.374915       29.535372
  H           17.386248       10.400750       29.257786
  H           18.372624       11.064853       30.200237
  O           20.997515       33.712612       37.474961
  H           21.576688       34.022876       36.774946
  H           20.144398       34.103120       37.269204
  O           27.442230       12.732506        8.509305
  H           26.636018       12.803493        9.025744
  H           27.237648       12.078044        7.836648
  O           32.321421       34.241694       10.272279
  H           33.130502       33.824099        9.967768
  H           32.044048       34.790525        9.534383
  O           10.217551       18.132608       13.280546
  H            9.719602       18.924832       13.065713
  H           11.000021       18.185073       12.725902
  O            2.659895       27.804595       25.982211
  H            3.041308       28.654555       25.750228
  H            2.203181       27.966582       26.811557
  O           10.392999        1.795059       11.465813
  H           11.307457        1.602518       11.245770
  H           10.029058        0.947855       11.734949
  O           35.757415       39.252097       30.235990
  H           34.949692       38.815261       29.955843
  H           36.322573       38.536894       30.538848
  O           11.430539        6.342890       13.495139
  H           11.822917        5.611457       13.977600
  H           10.537256        6.405832       13.842595
  O           12.091385       20.705662       17.736935
  H           11.889906       21.633532       17.594852
  H           11.530240       20.449879       18.473368
  O           27.615355       20.015148       18.890864
  H           26.675558       20.081486       18.706182
  H           27.660238       19.809420       19.828043
  O           26.287140       26.218452        0.018411
  H           27.013584       26.825358        0.178630
  H           26.038439       25.908142        0.892767
  O           23.902789       36.606782       24.167907
  H           23.919033       36.836709       23.235923
  H           23.593478       37.404291       24.604882
  O           37.804085       34.990024       39.216546
  H           37.765373       35.724089       38.598991
  H           38.308707       35.330056       39.959767
  O           28.925142       10.874948        1.199209
  H           28.655220       11.655640        0.709938
  H           28.527503       10.987662        2.066285
  O            4.700993       14.916046       33.475964
  H            5.594936       15.217890       33.298539
  H            4.145567       15.487255       32.939435
  O            3.984120       25.230312       33.834922
  H            3.205309       24.784695       34.176394
  H            3.673004       25.684646       33.047884
  O           20.715511       37.315223       24.988210
  H           20.835576       36.392447       25.224415
  H           20.152744       37.667719       25.682243
  O            6.895144       36.930211        7.090207
  H            7.445208       36.872590        7.874958
  H            6.762664       37.872701        6.960575
  O           35.855044       33.368380        0.802865
  H           35.161996       32.775021        1.101752
  H           35.495177       33.775506        0.010788
  O            5.898613        2.952623       11.945538
  H            5.102255        2.652947       12.390210
  H            6.616043        2.606114       12.482071
  O           39.606400        5.621575       19.386956
  H           39.551570        4.668366       19.286400
  H           40.543083        5.816771       19.302302
  O            4.526705       32.517069       22.013082
  H            4.308013       33.401447       22.316025
  H            5.210531       32.653616       21.352493
  O           27.744212       27.616227       14.031915
  H           27.730118       28.276574       13.335160
  H           27.645630       28.122480       14.842244
  O           11.793401       33.127954       14.586592
  H           12.176790       32.880840       13.741800
  H           11.004076       33.623608       14.354354
  O           37.249738       15.238373       19.612608
  H           37.882977       15.951235       19.500533
  H           36.715191       15.510076       20.362994
  O           15.451504       17.299144        4.391881
  H           14.539622       17.017390        4.287900
  H           15.453818       18.213124        4.096454
  O            2.802582       15.761382       20.450830
  H            2.541959       15.920535       19.540626
  H            3.075474       14.840502       20.463164
  O            8.666831       30.826592       35.430476
  H            8.328513       30.128548       34.864790
  H            8.912901       30.376944       36.242823
  O           25.565956       19.792997       21.838043
  H           26.407592       20.251631       21.893071
  H           25.081102       20.265402       21.156579
  O           20.223693       14.208403       25.725692
  H           20.462340       14.809903       25.016488
  H           19.542336       14.675758       26.215564
  O           21.199839        5.518788        9.720435
  H           21.601674        4.972141        9.041148
  H           20.261555        5.502479        9.515498
  O           16.274296       19.918171       10.940254
  H           15.500702       20.485522       10.902963
  H           16.966984       20.482386       11.293080
  O           34.194868       30.983514       28.078662
  H           34.052435       31.895310       28.343361
  H           34.889847       31.032979       27.417451
  O            9.434346       21.225913       12.628643
  H            8.535416       20.906032       12.522227
  H            9.670133       21.567131       11.762261
  O            3.975657        8.336505       19.365899
  H            4.611177        9.019197       19.138369
  H            3.548709        8.663854       20.161637
  O            6.974624       28.944055       37.811469
  H            7.087611       27.991737       37.766196
  H            7.776456       29.259373       38.236064
  O           27.623598        3.738319       28.716935
  H           27.508280        4.328345       29.465464
  H           27.570519        2.857778       29.097030
  O           11.595920        8.300943       40.051331
  H           11.171738        7.626301       39.515932
  H           11.372288        9.127007       39.615155
  O           33.373384       20.511902        3.899712
  H           32.583273       20.899701        4.283197
  H           33.709114       21.190361        3.308424
  O           22.424404       16.085762        8.501376
  H           23.074087       15.840239        9.164215
  H           22.382372       15.325621        7.915662
  O            4.312152       30.260169       21.465935
  H            4.244843       29.303244       21.427365
  H            5.224187       30.425062       21.718214
  O           16.674776       10.307507        3.111603
  H           15.746334       10.477726        3.286947
  H           17.041020       10.076998        3.969141
  O           39.068380       12.977664       20.336546
  H           39.100409       12.092719       20.707454
  H           38.142799       13.227577       20.395579
  O           36.952671       22.933722       37.834097
  H           37.745016       22.398431       37.748201
  H           36.865688       23.080932       38.779298
  O           18.271292       28.581043       20.192698
  H           18.092016       29.494001       19.955862
  H           17.697761       28.068448       19.617415
  O           21.996807        5.036552       15.215166
  H           22.176986        4.189578       15.629769
  H           21.203336        4.883800       14.695827
  O           17.763742        8.279525       20.387059
  H           18.113051        7.812156       19.624645
  H           18.335779        9.045564       20.479795
  O           38.740049       35.345990        7.406377
  H           38.092154       34.637889        7.382965
  H           39.566863       34.905719        7.618940
  O            4.615441       35.647742       14.598582
  H            5.320687       36.084220       14.115011
  H            4.524815       36.162536       15.404445
  O           15.027643       38.814450       12.610339
  H           14.455246       38.285997       13.171431
  H           14.590269       38.813356       11.755152
  O           33.843266       29.011094       35.954304
  H           34.135973       28.434867       35.244367
  H           34.616677       29.110092       36.515264
  O            8.897439        6.273830        4.098409
  H            8.026394        5.955204        4.346365
  H            8.731528        6.881489        3.373243
  O           14.294720       25.000920       14.988979
  H           14.912546       25.555537       15.471074
  H           14.683048       24.123167       15.026293
  O           27.666695        0.713860       20.318921
  H           28.244018        0.969131       21.042287
  H           27.188008        1.517577       20.100887
  O            7.119358       15.001858       39.791572
  H            6.397675       15.570255       39.512604
  H            7.120158       15.070378       40.749668
  O           31.723399       19.001226       21.026912
  H           31.992747       19.779493       21.520344
  H           31.600881       19.318945       20.128755
  O            3.860040       40.675655       40.889270
  H            4.077038       41.471937       41.379751
  H            4.152636       40.860380       39.993220
  O            1.637720       11.110444       31.737158
  H            2.537739       11.441729       31.693089
  H            1.513350       10.880297       32.661391
  O           20.249131       27.914384       13.193455
  H           19.410370       27.490461       13.389653
  H           20.009722       28.691227       12.681752
  O           32.094602        5.535645       10.891468
  H           31.689428        5.910055       10.105735
  H           31.903531        6.172421       11.584758
  O           12.882538       40.422765       15.654852
  H           12.547161       41.291439       15.888631
  H           13.702546       40.601567       15.187671
  O           27.668528       23.833765       21.555874
  H           27.190683       24.112826       22.340421
  H           28.585061       24.049747       21.745511
  O           27.860376       14.588445       13.357421
  H           28.328368       14.934186       12.593764
  H           27.813368       15.331213       13.964651
  O           20.694138       23.732220        4.517888
  H           19.871783       24.181776        4.309667
  H           21.294738       24.438292        4.769649
  O            2.538277       25.502790       10.874353
  H            3.252124       25.161024       10.330898
  H            1.744738       25.114235       10.497574
  O           32.854902        5.162411       26.196106
  H           32.231877        5.503701       25.550284
  H           33.616853        4.896696       25.675078
  O           12.649701       30.748243       31.643156
  H           12.982344       29.904491       31.958045
  H           13.435248       31.291877       31.543048
  O           15.407871       31.853093        8.285877
  H           15.009946       31.130488        8.777021
  H           15.764543       32.433641        8.962922
  O            9.717385        4.251839        2.018805
  H            9.729211        4.604047        2.911853
  H           10.407157        4.739107        1.561175
  O           28.210071        4.632785        7.782396
  H           28.976340        4.379988        8.302636
  H           27.901083        3.808913        7.397164
  O           33.510003       20.029252       19.892053
  H           34.033924       20.032783       20.696552
  H           34.063671       19.579279       19.248922
  O            7.427926       31.436775        2.880149
  H            7.774194       32.291567        3.146895
  H            7.110162       31.577159        1.984627
  O           41.935772       34.632071       12.955859
  H           41.043693       34.723368       13.298764
  H           41.922255       33.801011       12.474403
  O           10.614344       27.373307       16.244116
  H           10.890788       27.650099       17.120866
  H           10.670849       28.171752       15.713141
  O           12.378511        5.926769       40.444924
  H           13.078293        5.298357       40.637616
  H           11.976994        6.105790       41.298960
  O           25.181389       39.360783        2.277222
  H           25.805344       39.592555        1.585351
  H           25.256047       38.406365        2.355683
  O           28.124410       34.806242        1.340707
  H           28.861601       34.510907        0.801216
  H           27.587593       35.332926        0.743150
  O           35.854359       40.096032        4.102415
  H           35.732741       40.998892        4.405366
  H           36.435876       40.175951        3.342090
  O           22.799589       23.214956       20.104004
  H           22.834025       24.172629       20.162323
  H           23.315467       22.911626       20.855339
  O           16.525081       13.682496       34.617835
  H           16.204629       13.870195       33.732507
  H           16.472461       12.726324       34.692721
  O            2.977877       12.497076       34.422932
  H            3.598861       13.211445       34.262367
  H            2.491102       12.775098       35.202929
  O           19.042301       36.930506        5.794169
  H           18.440644       36.415116        6.336485
  H           18.477774       37.336198        5.131323
  O            4.727764       33.455938       18.559401
  H            5.392148       33.600817       19.237139
  H            4.568050       32.509005       18.580638
  O            8.748695       15.561466        1.117579
  H            8.784126       16.385514        0.626239
  H            8.904129       14.882574        0.456076
  O           25.797251       22.336314       13.181866
  H           25.689360       21.387154       13.086056
  H           26.454873       22.432734       13.875320
  O           26.507911       20.429542        3.985569
  H           25.563391       20.272171        3.915994
  H           26.909019       19.612981        3.677377
  O            5.464772        9.725834       13.148923
  H            4.963851       10.531613       13.002216
  H            4.888204        9.182146       13.691708
  O            5.220609        8.329312        8.485990
  H            5.469527        9.240766        8.315645
  H            5.971364        7.815521        8.177724
  O            5.480027       12.148875       24.841660
  H            5.588038       12.906554       25.421298
  H            4.814964       11.609049       25.276310
  O            9.674094       32.148989       33.697764
  H           10.228852       31.401199       33.931812
  H            9.536926       32.057178       32.751509
  O           10.866612       11.616993       39.339873
  H           10.389692       10.943792       38.848882
  H           10.763945       11.359089       40.259431
  O           25.568813       18.326957        0.479690
  H           25.282114       19.242243        0.521878
  H           25.009608       17.872426        1.114776
  O           10.556029       30.699364       12.294187
  H            9.713460       31.138351       12.156014
  H           10.319331       29.817118       12.591269
  O           39.922745       16.893209       19.415735
  H           40.605681       17.553859       19.553087
  H           40.025107       16.631889       18.497108
  O           15.157643       15.072041       35.600359
  H           15.365617       14.296884       36.127240
  H           16.013388       15.455495       35.392257
  O            1.451646       41.314798       18.403810
  H            0.835768       40.676763       18.035937
  H            1.912694       40.830810       19.093616
  O           17.051703        4.850726        7.919544
  H           16.167569        4.929101        8.285454
  H           17.584955        4.529786        8.651173
  O           39.629058       18.785255       39.831251
  H           39.850130       19.411101       39.137587
  H           39.243411       19.325370       40.525653
  O            9.820100       19.288818        6.783369
  H            9.908707       20.138186        7.222057
  H           10.378070       19.363101        6.005042
  O           30.450567       26.212600        9.166918
  H           29.806933       26.924656        9.187814
  H           30.094890       25.588333        8.529402
  O           37.250361       24.841450        6.175175
  H           38.083195       25.196591        5.855821
  H           37.466551       23.952148        6.466800
  O           23.031088       36.052867        8.131890
  H           22.380342       35.569318        7.617657
  H           22.513174       36.523680        8.789721
  O           28.626262       25.536523       37.530535
  H           29.412004       25.530675       36.978900
  H           28.782431       26.244672       38.160438
  O           28.010777       39.295263       28.532322
  H           27.733209       39.651295       27.685019
  H           27.319088       39.564272       29.142110
  O           13.332294       36.220620        2.178602
  H           12.473234       36.518088        2.487232
  H           13.141297       35.430585        1.666735
  O            7.801732       22.984420       15.382301
  H            8.155736       23.774177       15.797860
  H            8.379964       22.830788       14.630845
  O           18.910207       13.717810       11.792299
  H           18.503675       12.905686       12.103604
  H           18.272381       14.081577       11.173030
  O           16.488956       23.729376        4.528435
  H           16.495802       22.778791        4.662842
  H           17.332354       24.025925        4.879689
  O           27.637007       21.085650       16.627116
  H           27.503513       21.467531       17.497789
  H           28.438074       20.563156       16.716195
  O           37.190053       36.376870       36.541371
  H           36.941674       36.290330       35.618038
  H           37.981646       36.920715       36.525374
  O           36.612482       12.272850       15.791258
  H           36.594742       13.225366       15.672415
  H           36.155774       12.127893       16.623753
  O           25.417940       40.610863       31.030928
  H           25.588570       39.815941       30.520330
  H           25.921172       40.487340       31.839718
  O            5.362516       27.287879        1.712255
  H            5.767633       28.055097        1.301181
  H            5.845382       26.540590        1.350257
  O           14.070921        2.697534       42.000000
  H           13.881471        1.875759       41.541174
  H           13.888342        3.380975       41.350219
  O           25.615859       14.675367       11.215846
  H           26.044419       13.886609       11.556318
  H           26.333364       15.301767       11.091535
  O           32.754655       16.085939       16.734579
  H           33.598516       16.514142       16.572512
  H           32.927453       15.487604       17.465865
  O           30.766776       35.731598       23.632558
  H           30.617257       36.655786       23.419848
  H           30.096227       35.526519       24.289026
  O            6.660269       20.476393       26.735196
  H            5.781201       20.100169       26.649061
  H            6.832544       20.878124       25.879874
  O           40.194236        1.852948       37.890829
  H           39.914451        0.968488       37.643492
  H           40.927639        1.710905       38.494638
  O           12.409608        3.138595        2.597730
  H           11.455754        3.029678        2.592797
  H           12.610911        3.516286        1.737806
  O           16.185576       38.889512        6.412260
  H           16.082104       37.943058        6.535724
  H           15.660246       39.087119        5.632759
  O           11.944832        2.200349       21.062983
  H           11.789831        1.963818       21.980454
  H           11.956058        1.359583       20.598624
  O           25.471963       35.689108       17.072958
  H           25.105627       36.433162       16.589319
  H           24.869170       35.563919       17.810257
  O           40.118730        2.913806       10.375307
  H           40.059862        3.744582       10.852875
  H           39.284500        2.474126       10.558021
  O           27.068481       28.420503        2.235389
  H           26.730561       29.238199        2.608092
  H           27.188407       28.615332        1.302489
  O           29.205415       33.880809       31.406053
  H           28.588162       34.397672       30.883008
  H           28.764963       33.768190       32.252197
  O           35.787549       16.680738       34.888789
  H           35.247398       17.114671       34.224211
  H           35.316480       15.866887       35.084703
  O            9.622916       32.079411        7.044498
  H           10.256485       31.923343        7.748741
  H            9.902087       32.910713        6.652525
  O           15.960255       29.303248       21.470998
  H           16.412633       28.463151       21.364623
  H           16.444929       29.748095       22.170887
  O           21.883638       13.774239       34.805687
  H           21.973773       14.181810       33.941114
  H           21.036505       14.089446       35.130728
  O           38.236103       39.330947        9.799925
  H           38.312927       38.590944       10.406734
  H           39.124270       39.448432        9.453517
  O            3.562360       20.781411        8.957316
  H            2.695707       20.451832        8.708287
  H            3.840990       20.203274        9.671994
  O           19.135165       27.425163       32.327080
  H           19.795487       28.069846       32.591812
  H           19.306586       26.664288       32.887727
  O            3.552232       36.495424       37.634331
  H            2.595703       36.415577       37.614302
  H            3.783975       36.354943       38.555853
  O           35.209406       12.690590       14.038224
  H           35.095718       11.751396       13.874778
  H           35.312301       13.074076       13.163585
  O           16.137450       19.178606        0.636969
  H           16.141499       18.229499        0.781550
  H           15.432462       19.319753        0.000015
  O           16.554237        9.028631       22.813793
  H           15.758953        8.671997       23.216361
  H           16.915901        9.617276       23.481129
  O           21.570287       18.235155       38.149410
  H           21.867946       19.108452       37.883936
  H           20.973193       18.399737       38.883599
  O            9.024582       19.435750       33.281849
  H            9.504444       20.265138       33.222057
  H            8.953077       19.135548       32.372229
  O           13.540420        9.882846        2.614426
  H           13.592267        8.956962        2.862975
  H           12.601532       10.084140        2.639150
  O           21.718189       24.733894       12.581708
  H           22.273518       25.280991       13.142082
  H           20.974616       25.299332       12.358052
  O           11.267008       19.034128       25.448730
  H           10.666466       18.982675       26.196009
  H           10.996038       19.827097       24.979243
  O           20.745083        9.075074        7.324629
  H           20.650292        8.119898        7.344085
  H           20.678480        9.340092        8.245483
  O            5.964532       10.886070       39.591568
  H            6.827458       10.573193       39.310159
  H            5.360907       10.184789       39.333726
  O            6.305422       40.241848       37.046413
  H            6.066355       41.146310       37.262101
  H            5.599284       39.939663       36.469615
  O            2.880195       17.974292       41.125197
  H            2.659563       18.590266       40.422614
  H            2.053962       17.522365       41.314253
  O           36.193860       33.073278       38.557529
  H           36.039288       33.643342       39.314405
  H           35.702747       33.486999       37.843187
  O            1.714965       13.889497       26.283361
  H            1.264046       14.735647       26.332632
  H            2.549814       14.037580       26.734738
  O           26.893720        9.665231       11.197009
  H           27.693930        9.742103       11.721871
  H           26.739808       10.553494       10.865436
  O           29.623176       13.382536       17.877481
  H           30.303241       13.197832       17.225468
  H           30.036549       13.173472       18.718942
  O           10.850367       19.708749       22.666786
  H           11.580234       19.302287       23.139870
  H           10.968356       20.651115       22.810547
  O            7.654975       15.167517       24.858195
  H            7.981494       14.310827       24.573250
  H            8.421747       15.598653       25.243971
  O           21.518177       38.542618       16.409766
  H           22.341794       38.100475       16.190929
  H           21.731359       39.076632       17.179197
  O           12.897702       26.742151       16.898227
  H           13.828524       26.720230       17.132354
  H           12.858442       26.318702       16.036954
  O           19.473926        2.864093       17.710256
  H           19.414137        1.959457       18.026143
  H           19.841228        3.351793       18.451795
  O           13.942678       27.766442        1.077950
  H           13.625821       27.154817        1.746712
  H           13.147901       28.196685        0.752585
  O           27.591306       17.912428       35.793908
  H           28.523857       17.725116       35.924249
  H           27.447172       17.764186       34.855882
  O            5.400374       17.619367        2.196132
  H            4.709017       17.021686        1.901973
  H            5.894193       17.111760        2.845069
  O           18.812859       40.873873        2.050451
  H           19.680946       40.511977        1.857627
  H           18.200874       40.254602        1.644715
  O           37.832861       36.189864       31.071356
  H           38.470066       35.480390       30.960270
  H           38.035848       36.559706       31.934291
  O           30.418502       20.284669       37.604271
  H           30.419476       21.022741       38.218253
  H           31.084665       19.685557       37.950583
  O           23.050764        5.415901        7.189736
  H           22.370996        6.056899        6.968912
  H           23.589046        5.356330        6.396422
  O           13.890276       41.321605       28.257715
  H           13.222283       41.655773       27.654522
  H           13.741937       40.372759       28.275826
  O           38.588172        1.292374       40.981177
  H           38.743961        2.209476       41.218622
  H           39.312277        1.072981       40.389417
  O           31.177145        1.929551       14.254867
  H           31.895215        1.297465       14.173824
  H           31.552904        2.653537       14.762106
  O           10.167030       36.658985        8.755635
  H            9.632958       36.656093        7.957836
  H           10.214360       37.584704        9.007521
  O            4.145082       29.126810       38.189183
  H            4.310589       29.429936       37.293389
  H            4.263792       29.910447       38.731827
  O           11.561374       27.545665       29.936392
  H           10.801818       28.019719       29.589876
  H           11.184994       26.903603       30.543629
  O           41.217275        7.966123       22.559222
  H           41.541013        8.806880       22.227490
  H           40.271077        7.993865       22.396178
  O           24.122558       30.089175        4.440929
  H           25.050885       30.318244        4.527302
  H           23.727953       30.377217        5.267948
  O           31.337594       30.815957       33.574084
  H           30.686889       30.110641       33.603029
  H           31.802964       30.677158       32.745345
  O           13.045283       24.613871       38.983981
  H           13.987896       24.483543       38.856623
  H           12.644965       24.251014       38.189801
  O           14.689865        9.188407       19.982947
  H           14.136512        9.923777       19.709530
  H           14.204971        8.780696       20.704952
  O           21.329058       23.347509       41.236273
  H           21.902228       23.239391       40.473703
  H           21.932953       23.429890       41.978679
  O           32.429923       18.714952        0.000043
  H           33.256553       18.267595        0.195694
  H           32.332927       19.356984        0.707877
  O           37.070216       20.873894       27.017666
  H           36.217146       20.522219       27.282846
  H           37.178457       20.578016       26.110262
  O           28.753129        8.455484       16.135917
  H           29.275131        8.699323       16.903889
  H           27.974305        8.029275       16.502551
  O           19.808129       30.512330        7.857413
  H           19.197786       31.219952        8.077589
  H           20.257032       30.318760        8.684250
  O           36.657847       17.464028        7.641133
  H           37.406931       18.061682        7.699516
  H           35.895088       18.043767        7.572256
  O           26.942665       38.258321        5.979258
  H           26.336897       37.540683        5.779842
  H           27.550128       37.885583        6.623229
  O           29.990444       13.634847        3.779627
  H           29.491748       12.830051        3.620467
  H           29.930363       14.120023        2.952804
  O           31.819618        4.814087       21.200298
  H           32.645807        4.325885       21.172118
  H           32.071549        5.692178       21.497164
  O           29.567874       13.025949        6.846947
  H           29.458329       13.422362        7.714461
  H           30.220282       13.580733        6.411951
  O           32.018024       17.262620       37.958850
  H           32.658099       17.841076       38.380060
  H           32.518914       16.810377       37.275310
  O           34.740002        9.711074       20.438043
  H           35.047230       10.417462       21.011064
  H           34.181851       10.152911       19.793149
  O           40.231399       12.241641        9.384069
  H           40.520725       11.513084        8.829796
  H           40.719672       13.000384        9.054613
  O           41.271571       22.180102        5.889770
  H           40.502104       22.012117        6.438793
  H           41.089626       23.028308        5.477357
  O           19.592581       29.279518        1.264399
  H           19.866700       30.045472        0.754596
  H           19.283818       29.645409        2.097125
  O           14.909810       33.647208        6.820075
  H           14.072360       33.400627        6.420577
  H           15.545451       33.037424        6.436976
  O           18.963647        4.453043       33.529175
  H           18.110871        4.230675       33.910031
  H           19.091045        3.802815       32.833750
  O           16.313139        3.486182        1.005038
  H           16.754526        4.273557        1.332059
  H           16.959977        3.072592        0.427815
  O           20.318408        2.392531       35.422036
  H           20.905774        3.050366       35.042591
  H           20.274783        2.621060       36.353976
  O           22.210315       39.755212       37.276662
  H           23.117311       39.541048       37.045973
  H           22.289905       40.432717       37.952898
  O           26.215623       36.237586       21.365985
  H           26.454175       35.317981       21.504352
  H           26.700827       36.714406       22.044116
  O           30.881846       38.022351       27.993391
  H           30.347726       37.242204       28.160160
  H           31.386681       38.142913       28.801629
  O           36.394630        3.609556       21.691735
  H           35.673147        3.645526       21.059364
  H           35.965831        3.689738       22.547506
  O           38.508768       24.875771        0.904869
  H           38.471141       25.412511        0.109746
  H           39.446925       24.727950        1.048579
  O           27.701502       23.345273       28.788102
  H           26.936753       23.050668       29.288194
  H           27.328896       23.795421       28.025755
  O           13.798141       36.222965       35.965685
  H           13.371140       35.955861       36.783029
  H           13.070819       36.423297       35.371117
  O            8.551999       30.320992       40.312627
  H            9.218686       30.194140       39.633537
  H            8.141350       31.160249       40.089790
  O           21.079348       23.687167        7.634153
  H           21.943260       23.547978        7.239175
  H           20.924113       24.630564        7.541714
  O           13.483691        9.861628       38.893767
  H           13.786027        8.955647       38.991320
  H           14.286423       10.365289       38.736957
  O           22.194769       36.855456       38.146815
  H           22.570953       37.433981       37.479343
  H           21.942425       36.065202       37.662600
  O            5.501291        6.871534       33.291987
  H            4.691871        6.628598       32.836414
  H            5.783544        6.061796       33.724766
  O           23.527220        2.104827       16.218412
  H           22.800030        1.665091       16.665125
  H           24.263701        1.494121       16.303706
  O           15.655675       37.074707       20.323516
  H           16.038654       36.265031       19.977861
  H           16.365816       37.477170       20.829841
  O           38.883858       13.921657       10.539396
  H           38.577746       14.746491       10.923674
  H           38.586186       13.958784        9.626897
  O           27.186595       38.783149       35.790014
  H           28.133887       38.890117       35.676338
  H           26.841971       39.679622       35.775437
  O            1.851983       23.771683       12.915158
  H            2.398503       24.494152       12.597227
  H            1.598230       24.037352       13.802666
  O           15.199998        4.446844       26.846058
  H           15.329010        3.498864       26.926145
  H           15.698260        4.818009       27.578596
  O           16.958890       30.304314       26.198046
  H           16.388791       30.684986       25.525884
  H           17.466469       29.636577       25.729930
  O           28.624116        8.614316        6.929824
  H           28.987958        9.477788        7.139013
  H           29.325733        8.170646        6.446573
  O           14.092107       21.875612        3.096165
  H           14.346722       21.543239        3.960123
  H           14.924054       21.988889        2.629608
  O           33.101209       12.678169        3.319927
  H           32.970643       13.403952        3.934677
  H           33.260566       11.915553        3.881767
  O            1.314735       36.232788        7.300109
  H            0.892385       37.009438        6.925729
  H            1.170827       35.544406        6.645845
  O           35.460141       32.881651       22.781863
  H           34.702895       32.407419       22.430569
  H           35.167358       33.195237       23.641272
  O           36.645165       15.430988       16.964493
  H           36.640683       16.384310       16.850994
  H           36.028064       15.273577       17.683555
  O           12.512558        9.897286       41.723632
  H           12.478076       10.838460       41.537278
  H           13.117157        9.545841       41.065157
  O           18.573361        8.228154        0.227027
  H           18.675438        8.431800        1.159676
  H           17.707931        8.577627        0.000000
  O           30.432873       39.105519        5.970800
  H           29.900643       39.877576        5.764924
  H           30.211854       38.899818        6.882655
  O            4.128445        4.187942       40.363984
  H            4.162588        3.528243       41.060659
  H            3.961240        3.682176       39.564681
  O            5.908216       29.887067       35.417309
  H            6.154028       30.541574       34.759342
  H            6.115744       30.303939       36.257423
  O           31.598155       30.856593       14.654408
  H           31.451394       31.805366       14.650237
  H           32.303922       30.727304       15.293015
  O            6.725053        2.605929       34.703284
  H            6.769507        3.526530       34.434503
  H            7.642517        2.324027       34.741137
  O           37.360095       17.218871       36.361074
  H           37.998794       17.005643       35.676733
  H           37.317901       18.178479       36.357194
  O            1.051132       20.456043       12.301112
  H            1.736791       19.784487       12.325803
  H            1.513389       21.275921       12.492843
  O            3.785229       21.294738       37.872858
  H            3.865277       20.459526       38.339483
  H            4.200604       21.934673       38.456457
  O           36.134084       18.305252       16.023653
  H           36.990184       17.996596       15.717796
  H           36.315320       18.701135       16.879850
  O           24.946024       26.424594       21.434752
  H           25.782717       25.972245       21.304174
  H           24.282168       25.766726       21.213062
  O           24.555439       27.191506       23.243063
  H           24.904245       27.381158       24.117186
  H           23.674208       26.846572       23.407670
  O           28.214238       10.544182       38.773332
  H           27.295777       10.268004       38.729963
  H           28.334062       11.096504       37.996657
  O            0.671944       34.807699       23.421818
  H            0.033933       34.144046       23.694274
  H            0.135241       35.551584       23.136817
  O           22.314290       20.105578       29.906662
  H           23.007455       20.763091       29.812197
  H           21.644000       20.540643       30.439646
  O           34.049341       41.323298       27.891845
  H           34.684838       40.945788       28.504506
  H           34.543390       41.437363       27.076035
  O           28.308939        5.023550       14.198818
  H           29.207396        4.795383       14.448699
  H           28.212415        5.940744       14.467295
  O           38.038586       13.577725       23.404839
  H           38.282303       12.990911       22.685133
  H           37.395581       14.176604       23.016856
  O            1.824302       36.341898        4.508795
  H            2.378828       35.637056        4.166124
  H            2.345063       36.733158        5.214745
  O           21.577802       30.830481        2.432189
  H           20.778097       31.358331        2.491951
  H           21.921187       30.815505        3.329131
  O           33.274661        7.063231       23.869719
  H           33.993396        6.621811       24.328296
  H           33.030943        7.788395       24.450565
  O            4.289285       26.246738       27.778184
  H            4.071197       26.353318       26.849312
  H            4.125664       25.317159       27.956376
  O            7.056004       18.545038        8.199865
  H            6.220011       18.894568        7.882580
  H            7.624289       18.546377        7.425468
  O           35.930392       12.679606       22.214091
  H           36.458576       11.879992       22.156095
  H           35.045674       12.399458       21.966232
  O           31.203831       29.820530       11.339371
  H           30.746479       30.174797       12.105562
  H           30.732020       30.189433       10.588406
  O           16.615204       26.398538       31.012000
  H           17.274330       26.409746       31.709963
  H           16.067101       27.167168       31.189294
  O           27.315630       24.213255       12.290190
  H           27.990375       24.797865       11.937095
  H           27.122261       24.570579       13.160575
  O            2.984634       11.281114       19.523055
  H            3.902648       11.036101       19.660689
  H            2.607304       10.535528       19.049383
  O           40.725071       19.367882       30.748711
  H           41.496948       19.832155       30.416474
  H           40.128005       19.329732       29.997247
  O           13.311305       30.359410       12.211897
  H           12.637973       29.936191       12.749703
  H           14.101350       30.336998       12.757761
  O           39.844690        6.851452       38.619159
  H           40.204996        6.573891       39.464656
  H           40.180284        6.204836       37.993135
  O           20.596915       15.657937       17.948577
  H           19.692386       15.531756       17.652551
  H           21.013805       16.151372       17.237685
  O           30.100750        5.123038       32.182687
  H           29.460455        5.785034       32.453813
  H           29.586801        4.316400       32.094180
  O           35.500690       18.603925       13.501323
  H           34.665599       18.974197       13.205948
  H           35.263111       18.041308       14.242714
  O           15.914221       22.378031       13.334735
  H           15.967672       22.099966       12.417376
  H           14.983784       22.574168       13.470601
  O            9.548858        4.164022       32.013267
  H           10.030167        4.814415       31.496494
  H           10.200365        3.486134       32.209857
  O           32.472463       18.608108       10.794894
  H           31.623747       19.047504       10.886209
  H           32.255092       17.739599       10.446921
  O            0.363368       17.705353       34.391968
  H            1.251810       17.677950       34.029138
  H            0.000000       16.837461       34.198655
  O           22.330160        3.257832       32.043296
  H           22.627147        2.391686       31.754655
  H           22.905509        3.473338       32.781655
  O           31.201212        9.187700       23.590968
  H           32.033211        9.644772       23.734453
  H           31.424513        8.467040       22.996470
  O           23.164979       32.231271       39.201068
  H           23.563331       31.385024       38.984491
  H           23.825047       32.674555       39.740003
  O           18.226779       18.238712        4.456468
  H           17.378026       18.608410        4.710764
  H           18.534033       18.811424        3.749193
  O            5.252468       20.033387       35.907959
  H            4.887148       20.915718       36.006741
  H            5.634328       19.835889       36.766923
  O           21.639057        2.890335        2.229851
  H           21.588199        3.832773        2.405775
  H           22.283150        2.814465        1.521311
  O           36.212616       33.890119       30.394026
  H           35.585734       33.344862       30.875107
  H           37.059706       33.697757       30.803999
  O            3.347399        0.874270       32.034554
  H            3.794042        1.479011       31.437458
  H            3.017373        0.175828       31.463674
  O            5.219709       18.269559       28.349337
  H            6.113417       18.154830       28.017904
  H            4.664840       18.198119       27.568531
  O           15.565231        8.644305       31.299178
  H           14.862967        9.288839       31.184611
  H           15.546699        8.435585       32.236587
  O           30.654735       38.425458       31.334088
  H           30.120291       38.821263       30.641677
  H           30.044640       37.856704       31.810475
  O           38.325646       11.927493       12.433807
  H           37.781807       12.539657       11.932590
  H           39.195236       11.996916       12.031766
  O           39.194900        0.798241       28.686321
  H           38.252094        0.728164       28.519193
  H           39.581232        0.081109       28.177292
  O           27.306806       10.097046       22.686977
  H           26.418180       10.433971       22.550779
  H           27.855122       10.884109       22.737221
  O           23.221064       39.324790       30.681741
  H           23.798777       38.647717       31.041666
  H           22.624096       38.845236       30.101827
  O           18.098546        5.881556        2.005901
  H           18.337511        6.195089        1.130505
  H           18.279660        6.627084        2.583852
  O            0.759264       37.056872       24.605282
  H            1.458758       36.457354       24.335077
  H            1.058810       37.408645       25.447405
  O           22.865901        6.475119       23.281421
  H           22.607272        6.773494       22.406316
  H           22.034829        6.283451       23.723264
  O            3.124867        8.244764        1.658084
  H            3.039458        7.349879        1.321019
  H            4.020021        8.503130        1.424441
  O           11.377865        9.642922       21.327593
  H           12.095962        9.415636       20.732276
  H           11.499893        9.060555       22.081648
  O           23.409293       41.843686       36.250636
  H           22.477380       42.000000       36.420424
  H           23.509286       41.999234       35.308060
  O           10.320331       31.228671       17.285151
  H           10.110815       30.329635       17.021403
  H            9.489067       31.580735       17.613317
  O           41.426045       25.565369        5.573027
  H           41.997157       24.799849        5.670674
  H           41.999182       26.245774        5.210804
  O           15.989538       24.456768        7.637994
  H           15.992632       23.925941        6.838033
  H           15.480730       23.938148        8.266316
  O           20.139206       13.294119       28.736693
  H           20.741685       12.546886       28.756346
  H           20.491013       13.866051       28.049840
  O            2.939428       22.469993       41.006568
  H            3.829837       22.166416       41.198238
  H            2.768340       22.158745       40.114102
  O           15.722913        0.476369       16.648890
  H           16.119786        0.473268       15.774701
  H           14.995708        1.099943       16.578386
  O            2.914267       32.753151       20.140332
  H            3.041840       31.861190       19.808886
  H            2.050304       33.009684       19.808067
  O           27.022008       25.830315       35.610627
  H           27.352609       26.646810       35.992416
  H           26.714721       25.321548       36.365195
  O           15.490008       19.764834       35.298406
  H           15.886251       18.893983       35.377989
  H           16.027436       20.324011       35.865092
  O           17.385405        5.785309       31.125771
  H           17.261206        6.704061       30.876387
  H           16.865569        5.683377       31.927035
  O           39.633614       31.827857        1.305700
  H           39.789380       31.584175        0.390233
  H           39.173538       32.669429        1.253452
  O            0.288476       10.779401        9.923227
  H            0.108490       11.620705       10.349299
  H            1.040341       10.957204        9.352502
  O           21.541678       13.213158       22.325400
  H           21.979996       12.359049       22.315382
  H           21.062326       13.244926       21.493622
  O           37.732665        9.266899       22.104960
  H           36.793620        9.284915       21.905975
  H           38.132204        9.807432       21.418787
  O           39.493926       30.512359       33.475546
  H           39.271056       29.579018       33.445063
  H           38.975664       30.904472       32.768232
  O            5.456990       17.602542       40.677958
  H            6.354091       17.942661       40.713359
  H            5.133636       17.688680       41.578327
  O            9.406830       11.567255       10.789261
  H            8.879490       10.867365       10.397100
  H            9.804292       11.160972       11.563600
  O           25.083609       40.563880        5.981202
  H           25.240263       39.751211        5.494628
  H           24.831503       40.270536        6.860425
  O            3.044049       12.154824       15.490622
  H            2.483438       11.647369       16.082170
  H            2.530975       12.942464       15.293085
  O           39.579992       22.021223       35.586889
  H           39.841412       22.722383       34.985425
  H           40.373924       21.491482       35.695001
  O           33.008861       29.540564       25.443419
  H           32.414705       29.477673       26.194917
  H           32.525358       29.129868       24.722173
  O           31.090879       37.715024        2.209078
  H           31.628344       38.478612        2.432211
  H           31.533524       37.325218        1.450949
  O           27.025846       10.200483       31.884396
  H           27.846263       10.078478       31.400913
  H           27.185865       10.971182       32.434905
  O           17.084580        3.702645       37.480879
  H           18.017849        3.908420       37.572480
  H           17.060509        2.748854       37.369764
  O           37.938542       27.349825       30.151896
  H           37.249896       27.091589       30.768991
  H           38.743967       27.338843       30.675167
  O           35.850895        3.574114       25.356153
  H           35.309207        3.539051       26.148031
  H           36.528599        2.909047       25.501221
  O            4.697947        0.769186       25.848010
  H            4.436136        0.000000       26.359413
  H            5.332547        0.428326       25.212605
  O           36.274496       23.509242       29.012914
  H           35.565912       24.153077       29.084403
  H           36.994453       23.992011       28.599106
  O           32.814091       23.011936       25.406724
  H           32.441869       23.144895       24.531797
  H           32.268998       22.323248       25.795600
  O           22.211392       29.947265       28.387144
  H           21.650579       29.197419       28.175140
  H           22.397947       29.848090       29.324163
  O           22.142750       24.544377        2.741550
  H           21.953918       23.605074        2.680091
  H           22.944919       24.660540        2.226115
  O           13.245417       27.639475       38.202729
  H           13.017372       28.016722       39.055609
  H           13.374860       26.704801       38.382371
  O           24.511483        9.688771       28.510646
  H           23.576219        9.472031       28.516203
  H           24.947651        8.869097       28.756680
  O            4.614897       35.991689        8.428909
  H            5.567464       35.932261        8.532871
  H            4.370442       36.781263        8.918252
  O            2.910870       10.227472       26.364125
  H            2.631883       11.126718       26.551868
  H            3.065618       10.218838       25.416169
  O           24.336172       39.025240       28.307341
  H           23.441219       39.306980       28.103855
  H           24.814453       39.843750       28.462030
  O           37.927883       29.298669       31.689920
  H           36.968104       29.278925       31.702621
  H           38.146842       29.707628       30.848819
  O           39.920797       29.115768       28.539732
  H           39.305444       28.857939       29.230087
  H           40.508695       28.361417       28.450447
  O           25.574952       35.444004       23.922387
  H           24.874513       34.893985       23.563793
  H           25.899907       34.951997       24.680658
  O           38.351498        3.489959        3.435543
  H           37.756164        2.874357        3.869520
  H           37.773312        4.056192        2.918124
  O           37.768918       19.973653       32.721260
  H           37.736176       20.930988       32.656742
  H           38.343277       19.804809       33.472422
  O           13.346743       27.270347       26.900641
  H           14.033068       26.850137       26.377089
  H           13.698770       27.276585       27.794330
  O           14.177392       26.320666       12.627559
  H           14.145789       25.374046       12.784519
  H           14.843258       26.641934       13.240789
  O           25.511004       26.697249        3.033178
  H           25.869849       25.817486        3.170916
  H           24.576095       26.607633        3.234564
  O           37.952473       18.112074       17.902980
  H           38.469228       18.073412       18.711184
  H           38.580572       18.389857       17.231437
  O           15.615459       31.280162       20.543198
  H           14.731282       31.563554       20.787421
  H           16.006083       32.051599       20.124941
  O            5.312868       12.580968        6.318454
  H            5.975263       12.315639        6.960760
  H            5.785657       13.157081        5.712478
  O           12.156083       14.370013       24.722914
  H           11.639772       14.016030       25.450819
  H           11.499924       14.689123       24.098202
  O           34.951192       16.944617       41.417522
  H           35.569252       17.672485       41.317848
  H           35.401382       16.327616       42.000000
  O           13.730424       19.000475       19.294820
  H           13.678003       18.624698       18.412908
  H           14.608953       18.764022       19.602911
  O           19.660412       18.707711       31.964811
  H           20.381504       19.341016       31.990811
  H           19.319139       18.697981       32.862630
  O           18.343428       31.730460       10.472923
  H           17.857614       31.218240        9.822277
  H           18.703657       32.468499        9.974751
  O           18.719273       31.774730        3.150188
  H           17.787205       31.565968        3.053273
  H           18.974535       31.349647        3.972859
  O           32.399635       28.514013       10.406606
  H           32.367164       27.592253       10.673118
  H           32.147382       28.503279        9.479840
  O           37.217658       39.231956       11.963313
  H           36.393561       39.567280       11.602552
  H           36.946671       38.549278       12.582311
  O           16.731533       17.667773        8.833982
  H           17.562345       18.141903        8.752269
  H           16.211176       17.967592        8.084329
  O           24.326456       20.999629       41.111292
  H           25.198739       20.773615       40.779983
  H           24.486431       21.327115       42.000000
  O           18.881373       22.065708       14.128486
  H           19.546603       21.375821       14.185488
  H           19.251347       22.795802       14.631203
  O           23.660056       30.740810       19.706628
  H           23.532255       31.440590       19.061879
  H           24.603140       30.753487       19.888486
  O           33.316053       13.045066       37.713296
  H           32.689205       12.442078       37.306857
  H           32.809563       13.846214       37.869086
  O            1.057936       40.198068       27.481928
  H            1.005654       39.275277       27.741637
  H            0.156986       40.429862       27.242756
  O           25.026851       35.024441       28.087105
  H           25.479916       35.868434       28.022822
  H           24.306600       35.186660       28.701569
  O            1.960782       13.790228       18.872693
  H            1.579799       13.187058       19.515159
  H            2.596745       13.255139       18.391161
  O           17.629507        2.371714        9.076307
  H           17.495623        1.804352        8.313483
  H           16.894838        2.164570        9.659397
  O           35.238787        3.461522        6.634498
  H           34.310224        3.371757        6.861300
  H           35.520814        2.567311        6.425956
  O           16.307731       12.570529       24.816730
  H           15.993463       13.411227       25.157591
  H           15.812038       12.442466       24.004000
  O           28.771771       19.701969       28.078550
  H           28.357936       20.158890       27.342554
  H           29.704740       19.915664       27.997647
  O            2.715941       26.256257       15.288674
  H            2.132009       26.976039       15.038351
  H            2.242580       25.797093       15.987058
  O            4.154896        1.556752        1.967363
  H            4.233451        1.797932        2.893315
  H            5.044639        1.300970        1.711288
  O           15.370554       18.422910       37.904884
  H           15.936277       18.101575       38.610876
  H           15.102851       19.298952       38.193895
  O            1.653893       34.021655       28.007172
  H            1.966422       33.232943       28.456598
  H            0.827479       34.235397       28.447622
  O           20.092273       12.166406       10.772682
  H           20.751006       11.515087       11.024830
  H           19.590536       11.739736       10.073501
  O           31.642590        5.081478       34.500946
  H           30.929828        5.641974       34.185448
  H           32.194084        5.668794       35.023971
  O           27.252847       36.242972       39.209030
  H           26.947889       35.345740       39.362979
  H           27.877469       36.407771       39.919896
  O           10.384827       29.156806       31.627483
  H           11.262403       29.042657       31.255254
  H           10.525641       29.697963       32.408484
  O           18.924003       23.938958       22.305151
  H           19.182545       24.841986       22.106602
  H           19.668173       23.580145       22.795158
  O            6.261132        7.898263       20.808095
  H            5.462819        8.245006       21.213299
  H            6.423574        8.482559       20.063210
  O           21.644662       11.959964       26.706950
  H           22.373888       11.362302       26.887932
  H           21.127391       11.508430       26.035244
  O            1.839684        1.233861       29.564292
  H            1.858454        1.746763       30.375651
  H            1.566216        1.862251       28.891251
  O           26.368888        3.763142       19.585249
  H           27.129210        3.803722       19.000451
  H           26.118025        4.681332       19.714239
  O           26.850639       30.574913       21.503601
  H           27.383814       29.905453       21.938656
  H           26.338613       30.086790       20.853827
  O           40.019528       29.974776       10.958929
  H           40.498462       30.605905       11.501169
  H           39.279707       29.702146       11.507544
  O           21.199379       26.688410       34.373160
  H           21.363009       27.520012       34.824145
  H           21.422436       26.866625       33.456030
  O            2.892661        1.790625       36.800731
  H            3.373509        2.392874       37.373274
  H            1.978395        1.871147       37.084063
  O           24.291132       12.869429       21.540088
  H           24.394556       12.664764       22.472365
  H           23.873134       12.088082       21.169390
  O           40.724437       25.742536       31.724855
  H           40.811151       25.738788       32.680989
  H           41.087745       26.590042       31.455816
  O           41.684488       37.286697        4.240587
  H           40.941630       36.691195        4.117036
  H           41.647545       37.524232        5.170562
  O            8.848662       32.294891       38.600940
  H            9.780921       32.096327       38.486090
  H            8.836306       33.037117       39.210522
  O           39.376272       39.630187       15.329601
  H           38.710162       40.040503       15.886075
  H           39.297574       40.086142       14.487845
  O           10.781463       26.536151        3.578951
  H           10.149701       27.042419        3.062914
  H           10.475445       26.625688        4.485029
  O            6.083104       20.490207        0.744717
  H            5.873272       19.855186        1.433516
  H            5.538538       20.222839        0.000000
  O           23.405096        0.939834       13.493491
  H           23.520092        1.844431       13.193146
  H           22.978037        1.025324       14.349618
  O           28.906420       21.047361       29.889213
  H           28.003863       21.271891       30.127338
  H           29.131882       21.671069       29.194377
  O           31.327933       11.850773       15.720246
  H           31.984878       11.634100       15.054511
  H           31.043630       10.998821       16.060821
  O            4.697191        8.741946       10.606651
  H            5.317053        9.469100       10.513150
  H            4.283589        8.889565       11.460925
  O           16.247292       30.205118        5.381538
  H           17.189764       30.342762        5.261013
  H           15.910429       30.069920        4.492220
  O            2.298895       32.200969       22.486874
  H            2.737141       31.548464       23.038147
  H            1.520037       32.453149       22.989295
  O           37.207691       29.335684       16.609995
  H           37.217681       28.465442       16.204652
  H           36.730237       29.885153       15.983287
  O           28.898712       15.778532       34.469347
  H           28.942037       14.888116       34.825727
  H           28.414638       15.682246       33.645306
  O           34.907463        8.131171       15.946516
  H           35.448990        8.750207       15.451270
  H           35.353143        7.286884       15.840734
  O           21.492958       31.573043       41.884508
  H           20.660665       32.037451       42.000000
  H           22.162746       32.251783       41.999999
  O           10.441000       24.793141       16.979662
  H           11.190999       25.373212       17.130473
  H            9.938798       25.228182       16.285996
  O           30.309073        2.076345        8.560654
  H           30.488815        1.743781        7.678147
  H           30.836780        1.518530        9.137724
  O           17.799637       15.462625        9.447103
  H           18.682777       15.758112        9.680505
  H           17.887899       15.133536        8.549020
  O            0.593779       33.271775       26.229619
  H            0.252422       32.387258       26.078523
  H            0.052201       33.835010       25.670957
  O           17.194498        4.823410       22.572243
  H           16.516375        4.315552       23.023855
  H           18.021565        4.462516       22.901421
  O           16.492037       14.622303        0.786880
  H           16.728829       14.559077        1.715135
  H           16.279524       15.550090        0.657684
  O            6.748268       34.268186       27.328553
  H            7.477384       34.647429       26.832277
  H            7.136283       34.022648       28.172233
  O           37.000194       32.345398        5.044178
  H           36.109245       32.077311        4.807400
  H           36.971840       32.450598        5.998522
  O           12.305567        9.304920       26.695995
  H           12.012512        8.762962       27.432287
  H           12.391622        8.687709       25.965045
  O           18.679705       19.256806       37.441269
  H           19.070379       19.785623       38.140877
  H           19.402129       18.708262       37.125289
  O            0.816296       38.418292       31.934475
  H            0.849445       39.356841       31.735098
  H            0.000000       38.308199       32.428624
  O           10.354018       34.098448       32.674240
  H           11.262972       34.213182       32.387248
  H           10.235439       34.759787       33.360688
  O           23.665050       41.956557       27.574048
  H           23.478546       41.618714       28.453140
  H           24.623764       41.999978       27.533739
  O           36.943293       15.980695       28.270900
  H           37.774894       15.624822       27.949156
  H           37.200039       16.718030       28.830419
  O           23.089674       11.081604       41.043547
  H           22.985709       10.183560       40.720384
  H           23.203361       10.981993       41.992122
  O           21.610256        7.659165       15.114674
  H           21.688581        8.365078       14.468705
  H           20.720802        7.318871       14.989319
  O           37.796657       18.550994        0.006245
  H           37.093955       19.205130        0.000007
  H           38.194496       18.636726        0.876311
  O           12.182518       20.631655       38.109056
  H           12.969187       21.048206       38.468725
  H           11.773572       21.316505       37.573905
  O           41.824622       15.227079       38.038489
  H           41.760459       14.385070       38.495249
  H           40.943547       15.374610       37.685525
  O           15.824043        8.312446        9.745593
  H           15.326570        8.504940        8.947350
  H           15.154891        8.072001       10.391398
  O           22.413022       16.166157       24.868525
  H           23.351400       16.080563       25.052499
  H           22.173699       17.018379       25.241465
  O           12.333995       14.277510       21.465542
  H           12.100735       13.432255       21.074570
  H           12.891980       14.048552       22.213120
  O           23.113972       14.580831       11.296965
  H           23.602825       13.842518       11.667966
  H           22.615824       14.196364       10.571241
  O           33.319138       26.043590        1.385528
  H           32.796866       26.660237        0.867164
  H           34.229397       26.264247        1.172500
  O           39.868640       35.035666       41.687688
  H           40.639285       34.555757       41.999965
  H           40.009642       35.936209       41.990646
  O           39.350101       15.108798       21.908405
  H           39.338848       15.164155       20.950003
  H           39.406297       16.022487       22.199363
  O            8.118578       12.877473       26.748837
  H            7.718295       12.530397       25.948189
  H            7.455231       13.471635       27.108815
  O           27.067357       19.218176       10.199304
  H           26.247746       19.105924        9.712106
  H           26.849875       19.849836       10.889485
  O           14.265346       20.253228       29.087970
  H           14.208210       21.169053       28.805615
  H           13.838271       20.241872       29.948272
  O            3.481587       31.197053       36.084460
  H            4.179738       31.325914       35.438159
  H            3.556430       31.954419       36.670496
  O           30.307077       20.345265       31.900014
  H           31.192490       20.294692       31.532303
  H           30.321339       19.734136       32.640932
  O           15.931258       24.104449       11.079624
  H           15.704845       24.719523       10.378093
  H           16.874289       23.956849       10.972159
  O           26.502459        7.931988       38.362528
  H           27.083204        7.268594       38.742488
  H           26.711599        7.923200       37.425071
  O            9.000135        3.991003        7.972280
  H            9.908934        3.845525        7.699064
  H            9.065895        4.623848        8.691880
  O           18.625357       22.564477       38.553006
  H           19.529921       22.859496       38.424741
  H           18.499762       21.884007       37.886801
  O           14.550104        4.303277       24.744551
  H           14.583225        3.355360       24.595957
  H           14.358222        4.673691       23.879325
  O           16.000095       30.557947       37.487631
  H           16.819896       31.051004       37.406719
  H           15.399142       30.992731       36.877335
  O           32.458983        2.257972        7.924022
  H           32.969388        1.899355        7.194225
  H           33.073551        2.835641        8.383638
  O           16.321518        5.667903       15.327100
  H           16.011514        4.902856       15.817330
  H           16.599918        6.288752       16.005098
  O           11.610080        8.021929       18.615226
  H           11.426568        7.616129       19.465740
  H           12.567036        8.101027       18.590302
  O            0.886739       18.255013       29.354155
  H            1.448449       17.493386       29.192501
  H            0.000000       17.943737       29.155551
  O           33.007801       21.465310        0.350022
  H           33.707562       20.908812        0.000211
  H           33.469700       22.143978        0.848721
  O           12.707129       31.916486        8.039191
  H           13.216427       31.296409        7.512079
  H           12.741891       31.557435        8.929424
  O           15.815112       34.383255       18.561834
  H           15.309243       33.578103       18.694319
  H           16.730217       34.109128       18.662223
  O            3.741711       12.055594       39.920822
  H            3.050973       11.416027       40.109394
  H            4.058113       12.326945       40.786212
  O            0.448912       41.369785       39.842009
  H            0.000000       41.908151       39.185986
  H            0.000169       41.574713       40.666191
  O            6.223930       36.516011       37.708665
  H            6.195963       36.366349       38.656581
  H            5.890114       35.699541       37.328421
  O            7.241115       37.301021       20.077588
  H            6.721824       37.777234       19.425450
  H            6.840109       36.428829       20.111014
  O            8.515422        6.345864       38.521115
  H            8.592649        5.649218       39.177198
  H            9.027926        7.072813       38.883780
  O            8.080605       19.625332       28.213681
  H            8.836690       20.149425       28.488248
  H            8.385520       18.716538       28.275016
  O           32.548969       11.502558       22.657738
  H           33.095065       11.345187       21.883956
  H           33.042096       12.148117       23.170300
  O           19.456983       31.064906       37.051256
  H           20.088287       31.302536       36.368093
  H           19.455388       30.104365       37.050742
  O           13.450439       35.829399       15.972782
  H           13.691044       36.742185       16.147871
  H           13.911473       35.613328       15.158286
  O           13.317196       34.294626       22.742026
  H           13.488245       33.683888       23.462766
  H           12.691856       33.830611       22.179637
  O           18.785383       28.447191       15.198359
  H           17.909099       28.146593       14.946385
  H           19.052279       27.844785       15.897298
  O           34.547234       23.629796        5.070616
  H           34.183143       24.513562        5.160722
  H           35.498603       23.760619        5.091242
  O           25.392686       15.086082       34.080485
  H           25.570702       14.592108       34.884241
  H           24.486990       15.389274       34.182617
  O           12.712191       42.000000       32.250704
  H           12.941532       41.112388       32.535789
  H           12.098382       41.865936       31.524132
  O           32.053363        8.464892       26.663968
  H           32.439047        7.589988       26.750661
  H           32.762247        9.003263       26.303022
  O           14.966068       11.979885       41.687555
  H           15.893644       11.781818       41.538901
  H           14.935380       12.937165       41.760461
  O            9.541962       14.460193       34.532107
  H            8.985928       14.892998       35.184204
  H           10.174713       15.134780       34.272877
  O           38.267203       40.258934       20.861456
  H           37.555812       39.947192       20.297130
  H           38.294298       39.625375       21.582921
  O            3.225852       10.469849        4.465378
  H            2.718089       11.254529        4.245882
  H            2.718200       10.044179        5.160890
  O           34.022569        5.840257        8.444160
  H           34.187970        6.057530        7.523747
  H           33.723195        4.927789        8.423666
  O           17.588795       20.334929        6.379315
  H           16.997428       19.620357        6.627101
  H           17.149154       20.762822        5.640218
  O           30.295245        9.360372       11.865168
  H           30.880525        9.500667       12.613159
  H           30.025194       10.244576       11.604599
  O            4.498372       11.278241       16.998990
  H            4.373146       10.401773       17.370269
  H            4.754217       11.820689       17.749280
  O           13.168699        9.661209       34.190611
  H           14.085409        9.914041       34.058537
  H           12.952860        9.134310       33.417026
  O           15.529179       39.464948       39.056785
  H           15.195883       40.355317       38.923058
  H           16.031773       39.276358       38.260246
  O           41.107035       41.972836       29.768157
  H           40.520381       41.834314       30.515401
  H           41.475660       41.103889       29.590140
  O           22.150083       22.119728       38.391732
  H           23.080082       21.914123       38.512373
  H           22.128302       23.074566       38.289498
  O            5.386725       27.736789       33.394998
  H            6.261923       28.108872       33.263441
  H            4.992088       28.289886       34.073959
  O           16.759624        8.228028       14.234439
  H           17.357868        8.954672       14.423694
  H           17.264151        7.647492       13.659049
  O            8.195905       40.944561       23.762011
  H            8.363864       40.144271       23.258971
  H            8.738528       40.849844       24.548924
  O           36.436880       22.969368       17.635289
  H           37.069501       23.634371       17.916867
  H           36.876695       22.512120       16.914088
  O           11.519358       26.348146       36.313307
  H           12.163785       26.921340       35.891540
  H           10.975219       26.027905       35.589428
  O           10.395280       30.228090       19.506047
  H           11.220094       30.044023       19.050497
  H           10.521624       29.862192       20.385136
  O           25.325491        6.934923        2.455269
  H           24.652633        7.604966        2.313743
  H           24.940604        6.344663        3.108031
  O            6.549867        0.633244       14.591865
  H            6.422458        1.449792       15.080478
  H            7.090266        0.887416       13.839530
  O            1.034045       29.860288       24.216680
  H            0.959198       30.808044       24.350397
  H            1.740426       29.765398       23.572736
  O           15.444343       39.790356       26.417371
  H           15.059124       40.664072       26.517126
  H           14.923016       39.377656       25.724162
  O           16.174201       30.457163       11.020461
  H           15.268087       30.764693       10.942313
  H           16.214159       30.051578       11.890257
  O           11.519440       31.776104       30.352231
  H           12.006981       32.587571       30.512070
  H           10.708654       31.881853       30.856300
  O           18.211545       31.151545       33.428397
  H           17.673026       31.432822       32.685022
  H           17.575744       30.858105       34.085886
  O           28.387927        5.938047        0.552803
  H           27.624886        6.442055        0.260451
  H           29.107632        6.252809        0.000000
  O           25.635972       19.415395       15.354877
  H           26.190663       20.169909       15.566425
  H           25.899571       18.741202       15.986242
  O           38.540338        8.172704        8.156957
  H           39.066463        8.891957        7.799756
  H           37.856509        8.609810        8.670726
  O            9.097723       37.454515       17.003726
  H            9.740730       36.844468       16.634796
  H            9.558487       38.296767       17.034544
  O           33.948493        8.623860       40.669509
  H           33.926685        9.567714       40.843835
  H           34.840217        8.357936       40.907741
  O            8.829684       26.433582       33.272350
  H            9.073979       27.314388       32.978705
  H            9.381935       26.277305       34.042569
  O            4.246847       21.847900       24.198216
  H            3.538351       22.493774       24.249249
  H            5.037642       22.372651       24.050151
  O           39.286466       10.680439        5.797642
  H           39.770185       10.772508        6.621817
  H           39.745126        9.978469        5.329122
  O           34.101580       16.776382        5.910956
  H           34.953115       17.148322        5.669558
  H           33.804928       17.317733        6.646876
  O            6.523333        8.051825        5.418036
  H            7.299078        7.995650        4.855196
  H            6.826409        8.528592        6.194875
  O            0.371911       21.523350       39.282279
  H            0.672644       22.429677       39.381563
  H            0.953408       21.150978       38.614566
  O           13.553156       30.810050        5.191641
  H           13.714267       30.465639        4.310081
  H           14.208489       31.503908        5.299993
  O           15.544121       10.730685       11.266941
  H           15.799872       11.655963       11.280283
  H           16.159427       10.322072       10.652876
  O            5.701147       11.873268       34.201867
  H            5.636304       12.576578       33.551577
  H            4.808190       11.525300       34.266578
  O           12.105199        5.522315       10.751382
  H           12.389928        5.579479       11.666471
  H           12.690866        4.869406       10.359789
  O            5.901601       24.963259       34.916163
  H            6.833366       24.733632       34.944624
  H            5.455538       24.195546       35.282614
  O            7.363341        7.826622       10.425968
  H            6.475308        7.471083       10.344028
  H            7.869626        7.360314        9.755988
  O            1.566736       19.040664       18.157996
  H            1.029358       19.315029       18.904772
  H            2.378782       19.545328       18.250399
  O           35.863072       13.041581       31.187927
  H           35.592839       12.138793       31.004427
  H           36.668053       12.949324       31.703811
  O            7.382650       13.831772       37.622611
  H            6.471643       14.053775       37.416443
  H            7.902152       14.390619       37.039130
  O           35.914415        8.665346       30.144961
  H           36.626876        8.059133       29.929024
  H           36.339757        9.362926       30.650044
  O           19.234437       13.428618       40.269255
  H           19.923037       14.095091       40.211212
  H           18.486039       13.891895       40.653853
  O           37.541596       17.367600        9.790726
  H           38.363766       17.017689       10.141903
  H           37.596793       18.312961        9.951619
  O           19.755778       11.102646       16.803155
  H           20.428436       10.418136       16.829650
  H           20.252544       11.923386       16.755706
  O            4.702296        7.308016       28.664525
  H            5.447388        7.577092       28.122159
  H            4.703657        7.929603       29.396829
  O            7.733458       32.968712       34.333184
  H            6.851391       32.602037       34.429267
  H            7.602661       33.775346       33.828332
  O           34.851449       14.598787        9.494734
  H           35.118210       15.518813        9.558878
  H           35.590923       14.109792        9.864469
  O           39.475268       39.089081       40.367377
  H           40.350023       38.911374       40.013895
  H           39.507969       40.011886       40.631961
  O            4.774059       20.519910       31.571462
  H            4.886123       20.166564       30.685847
  H            5.301507       19.941028       32.127643
  O           11.575712       16.458127       20.045499
  H           10.709296       16.785202       19.792381
  H           12.117410       16.587575       19.262908
  O           39.700437       40.773778        5.601546
  H           40.230459       41.548152        5.398699
  H           39.721233       40.252646        4.794928
  O           31.239059       11.139674        5.112572
  H           31.039672       10.973683        4.188225
  H           31.281929       12.096953        5.179064
  O           28.592779       15.686280        9.819518
  H           28.319041       16.413745       10.383067
  H           29.233721       15.203666       10.347645
  O            8.298534       13.030068       33.283775
  H            8.858326       13.350520       32.572672
  H            8.794581       12.303076       33.668565
  O           38.152820       10.175528       16.366747
  H           37.910069       10.735019       17.108210
  H           37.331386        9.747884       16.111778
  O           19.515545       15.929404        6.854869
  H           19.631461       16.281089        7.740649
  H           18.589467       16.087552        6.654842
  O            1.925775       21.303800       28.132783
  H            0.993233       21.120249       27.997135
  H            2.045558       22.193957       27.792321
  O            4.443762       37.018126       34.193552
  H            4.570498       36.086110       34.385929
  H            5.012437       37.470694       34.821590
  O           10.784225       12.681274        7.947086
  H           10.486552       11.881319        7.507555
  H           10.457800       12.594816        8.846316
  O           14.270034       38.382571       37.281933
  H           14.016759       39.308244       37.308492
  H           14.940461       38.338414       36.595478
  O            1.863022       17.790522       10.103217
  H            2.433860       18.519799        9.850191
  H            1.317682       18.148178       10.808433
  O            3.456548       38.464697       24.577814
  H            3.355623       37.569068       24.908553
  H            2.799293       38.537058       23.881092
  O           11.284925        2.341891       18.682371
  H           10.538703        2.441972       19.278074
  H           10.985229        1.703870       18.029873
  O           27.047609       35.639769       12.937684
  H           27.469121       36.481507       12.749190
  H           26.572034       35.789811       13.758633
  O           15.381553       14.793120        9.661559
  H           15.083347       13.972497       10.060779
  H           15.806452       15.267484       10.380643
  O           40.956897        1.385875       22.827772
  H           40.808925        2.138683       23.404929
  H           40.555354        1.642318       21.993721
  O           36.468015       24.593029       31.549756
  H           36.562020       25.420983       32.026601
  H           36.916873       24.746615       30.714544
  O            1.772298       26.032028        7.711891
  H            1.798758       26.875768        7.254587
  H            1.638531       26.264784        8.634156
  O           29.169202       23.006804       36.910718
  H           29.702340       22.633748       36.204801
  H           29.809443       23.295108       37.566167
  O            9.026798       19.887062       38.427431
  H            9.429673       20.749536       38.302708
  H            8.446754       20.002061       39.184376
  O            6.908882        5.226349       28.116106
  H            6.237829        5.782820       28.518291
  H            7.519146        5.845811       27.708079
  O           33.251954        5.001212        5.594967
  H           33.586026        5.877816        5.390793
  H           33.813440        4.408294        5.089177
  O           33.435921       27.835610       40.359685
  H           33.244069       26.921122       40.139165
  H           32.600593       28.183450       40.681982
  O           34.540734       27.926296       29.116402
  H           35.043458       27.147527       29.366424
  H           34.453672       28.425924       29.932143
  O            7.625255       33.358158       17.228847
  H            8.533885       33.557125       17.466604
  H            7.137950       33.450051       18.051483
  O           33.287591        1.377442       37.394778
  H           32.987973        0.471738       37.502731
  H           33.707029        1.591224       38.232043
  O           17.080066       14.545596        6.211447
  H           17.879022       14.175698        5.828603
  H           16.809596       13.899716        6.868962
  O           14.543478       39.541830        0.941187
  H           14.008765       39.883941        1.661442
  H           14.431156       40.183432        0.235231
  O           20.389198       13.832037       31.330685
  H           19.523790       13.574005       31.004781
  H           20.237519       14.067361       32.249520
  O           29.842577        1.274871       37.262050
  H           29.015443        0.810400       37.409844
  H           29.776802        2.059774       37.811816
  O           31.072765       18.241658       23.524550
  H           31.686088       17.672387       23.995177
  H           30.704611       17.679619       22.838097
  O           39.046258        4.732365       23.039410
  H           38.406720        4.076398       22.752315
  H           39.659024        4.241660       23.592914
  O            5.338319        3.368229       30.461443
  H            5.801880        3.879420       31.128916
  H            4.423360        3.368362       30.753832
  O           19.888209       26.918837       22.257294
  H           19.746023       27.381238       21.428021
  H           20.808253       27.092032       22.472153
  O           20.145433        1.887334       33.494639
  H           19.186749        1.928478       33.525566
  H           20.369589        2.206524       32.616850
  O           14.387069       28.682556       19.380179
  H           14.890300       29.473926       19.174707
  H           14.744109       28.013265       18.790931
  O           18.927136       11.165816        0.316776
  H           19.592223       10.477817        0.239049
  H           18.107779       10.688986        0.471471
  O           28.411442        9.551701        3.797236
  H           29.309318        9.246361        3.647868
  H           27.936077        8.765892        4.078614
  O           18.397811       14.295057       35.567438
  H           18.030991       13.480964       35.920169
  H           19.195328       14.440166       36.082755
  O           13.151585       22.542913       11.749627
  H           13.907206       22.352437       11.188840
  H           13.372442       23.376765       12.172184
  O           10.697637       23.287652       37.762497
  H            9.880765       23.681230       38.077998
  H           10.683293       23.436833       36.813718
  O           17.198568       39.106567       12.814305
  H           17.767582       39.049848       13.585494
  H           17.773387       38.885723       12.077112
  O           19.124925       36.580414       15.150656
  H           19.652425       35.826185       15.423799
  H           18.306180       36.490242       15.644788
  O            7.950512       17.585768        9.976483
  H            7.060665       17.701122       10.317939
  H            8.016688       16.644558        9.796521
  O           18.410877       26.046123       10.927528
  H           18.930957       25.308602       10.599953
  H           18.755846       26.208151       11.809223
  O           27.744838       13.451697       16.733192
  H           27.073306       13.969647       17.183190
  H           28.145475       14.067124       16.114013
  O           31.862467        4.583548       16.155060
  H           32.709252        4.167586       15.977136
  H           31.944130        4.916263       17.052430
  O           37.715026       13.805280       34.813375
  H           36.870437       13.946345       34.379214
  H           38.122328       14.675016       34.830870
  O           14.796589       39.532011       33.157348
  H           14.232027       39.899796       33.841255
  H           14.979649       40.273595       32.574953
  O            1.079069       28.627013       29.233962
  H            1.739064       27.941840       29.104848
  H            0.488631       28.266761       29.900479
  O           19.207213       39.666058       22.478119
  H           19.147955       40.624188       22.492233
  H           19.957506       39.481958       21.907322
  O           21.625316        8.276180        4.516050
  H           22.226062        8.152021        3.777529
  H           21.913189        7.632566        5.168378
  O           28.762029       22.817055       39.934756
  H           28.680927       23.662172       39.486510
  H           28.800264       22.172619       39.223503
  O           40.033222        7.640517        6.020575
  H           40.758007        8.058604        5.549815
  H           39.541106        7.177450        5.337910
  O           22.588395       26.273559       31.674835
  H           23.187761       26.995139       31.470368
  H           22.916896       25.536017       31.154487
  O            4.791639       22.740726       26.932905
  H            4.055186       23.190202       26.511795
  H            5.162421       22.189201       26.239377
  O            2.359880       13.993089       12.522127
  H            1.748851       13.866209       13.251696
  H            1.823487       14.382268       11.826811
  O            8.037671       35.596063       21.479414
  H            7.245712       35.142451       21.777344
  H            8.748362       34.973411       21.652228
  O           32.933481        9.614709       38.591719
  H           32.353673       10.187239       38.084020
  H           32.363716        9.235535       39.265690
  O            5.755894        7.203259        2.331607
  H            6.393041        6.785015        2.915422
  H            5.807120        6.694010        1.518783
  O           33.314182        8.195441       21.152356
  H           33.535948        8.669886       21.956996
  H           34.088946        7.657146       20.971736
  O           36.423626       40.888700        1.463878
  H           35.529591       41.219734        1.577210
  H           36.854834       41.549369        0.915956
  O           23.279983       27.830771       20.614977
  H           23.034696       28.758957       20.609522
  H           22.777359       27.455601       21.342478
  O           28.695929       33.294332       13.675059
  H           28.534508       34.089263       13.161489
  H           29.469427       32.898749       13.265354
  O           25.671062       16.663878       36.755165
  H           26.344334       16.106259       36.358313
  H           26.161071       17.256007       37.331288
  O           30.579196        4.750973       12.620316
  H           31.250003        4.447129       13.236288
  H           30.509978        4.043002       11.974850
  O            3.837343        1.078485        9.819931
  H            3.513697        1.617131        9.094095
  H            3.044329        0.816139       10.294216
  O           17.503436        3.850257       13.956058
  H           18.365158        3.544147       13.663728
  H           17.416078        4.723983       13.566683
  O           23.936112       21.623123       25.062531
  H           24.624377       20.957230       24.994678
  H           23.627167       21.739477       24.160502
  O            1.503169       27.654289       21.771973
  H            2.439922       27.861730       21.806432
  H            1.108924       28.220034       22.440662
  O           41.524297       23.053648       24.084550
  H           41.999977       23.849199       24.334655
  H           41.998418       22.723693       23.317099
  O           19.823530       38.421468       38.678116
  H           19.695021       39.358292       38.512074
  H           19.151983       38.200239       39.328288
  O            6.044524       24.708279        9.406081
  H            5.171050       24.712506        9.007646
  H            5.881620       24.866420       10.339406
  O           28.166980       30.321075        0.802357
  H           29.122635       30.247187        0.857023
  H           27.912752       30.741605        1.627683
  O           34.854688       28.689901       11.207478
  H           34.795798       28.359278       10.308064
  H           34.049223       29.199281       11.327478
  O            6.081203       35.917307       28.644151
  H            6.939015       36.341918       28.569382
  H            5.595006       36.469217       29.261929
  O           32.601485        9.031032       17.042950
  H           33.160092        9.459954       16.390486
  H           32.942947        8.134860       17.096997
  O           23.570085       11.466784       31.479302
  H           24.386243       10.963315       31.525454
  H           22.896476       10.811319       31.281166
  O           25.146379       22.769186        3.998652
  H           25.575914       22.714293        4.855513
  H           24.962366       23.704903        3.883693
  O           27.073649       40.344814        3.522306
  H           27.974226       40.272133        3.197646
  H           27.157157       40.820703        4.352485
  O           28.634158       12.625935       32.851335
  H           28.963406       13.017503       33.663736
  H           27.836982       13.123647       32.652753
  O           36.774406       36.356762        2.117454
  H           36.474127       35.787953        1.404702
  H           37.732696       36.306655        2.074880
  O           24.726631       37.875534       34.370411
  H           24.928123       38.785005       34.138056
  H           24.224616       37.943558       35.186497
  O           27.564481       39.571927        7.701975
  H           28.375363       39.193569        8.049882
  H           27.797158       39.860903        6.815975
  O            9.995082       21.094076       20.798070
  H            9.459204       20.344319       21.067187
  H            9.483418       21.515592       20.102968
  O            8.352343       30.281480       21.075671
  H            7.748331       29.790310       21.637495
  H            8.149406       29.980033       20.186520
  O           26.362493        3.262324       24.898577
  H           26.875168        3.472560       24.114556
  H           25.449273        3.379388       24.624777
  O           30.101285       32.582592       34.050594
  H           30.395458       33.438081       33.729150
  H           29.558189       32.789159       34.815459
  O           13.768804        6.779377        5.978492
  H           14.692357        6.935158        6.189461
  H           13.634061        5.848026        6.171033
  O           18.775823       31.516070       25.246231
  H           19.456612       32.067878       24.854110
  H           19.235308       31.018229       25.927164
  O           33.494798       20.063694       33.090428
  H           33.129049       19.613225       32.325554
  H           32.972992       19.740777       33.829403
  O            5.901314       32.105168       13.731267
  H            6.396481       31.304155       13.918117
  H            4.999173       31.802624       13.599928
  O            8.830535       14.675860       10.752070
  H            9.678630       14.543112       10.322142
  H            8.980071       15.410394       11.352686
  O           13.899744        3.499569       14.010632
  H           13.104169        3.372571       14.532799
  H           13.696925        4.249401       13.445603
  O           32.768082       15.840380       40.387350
  H           33.610720       15.418586       40.571136
  H           32.902396       16.758921       40.634096
  O            1.187660       22.143841       25.427872
  H            0.416965       21.581174       25.533522
  H            1.929600       21.576554       25.652266
  O           30.547998       36.124264       30.249225
  H           30.359199       35.788780       31.128731
  H           29.859769       35.745263       29.696648
  O           23.230241       14.828529        4.176055
  H           24.071874       14.831261        4.637976
  H           23.438593       14.486735        3.302895
  O           36.375534        3.490449       40.668757
  H           35.676122        3.807300       41.245084
  H           36.447876        2.554827       40.873745
  O            7.410482       27.003884       25.966379
  H            7.770855       27.806874       25.582890
  H            7.232663       27.235623       26.881431
  O           12.906220       17.234983       22.525989
  H           12.062904       16.793250       22.650146
  H           13.101405       17.118261       21.592758
  O           14.121272       38.981486       20.888580
  H           13.834433       39.286571       20.024652
  H           13.423395       38.387021       21.175323
  O           28.301285       31.838417       25.040880
  H           27.892290       31.977045       24.183424
  H           28.710604       32.682090       25.249003
  O           12.391665       23.061986        4.440424
  H           13.222121       23.515223        4.277190
  H           12.005920       23.531619        5.184257
  O           26.267200       24.538542       26.067873
  H           26.612572       25.371947       25.739422
  H           25.626624       24.792994       26.736871
  O           11.174755       35.532017        4.663070
  H           12.109191       35.602846        4.454414
  H           10.793131       35.089328        3.900816
  O           18.413247       21.760120        4.104100
  H           19.025907       21.276581        3.545027
  H           18.975573       22.216194        4.735311
  O           22.881898       38.097080        0.660882
  H           23.612877       37.500767        0.482541
  H           23.233994       38.969933        0.469057
  O            4.851760       31.978706       16.505841
  H            4.633331       32.621418       15.826919
  H            4.060306       31.440713       16.588341
  O           34.877836       20.091489       15.461108
  H           35.093983       20.748140       16.127302
  H           35.570057       20.184083       14.801641
  O           21.589368        8.481393       36.358946
  H           22.492231        8.172245       36.463785
  H           21.653961        9.436651       36.436089
  O            5.061971       38.211341       26.323406
  H            5.035917       37.256396       26.418946
  H            5.753727       38.492620       26.927556
  O            3.210056       35.253209       12.651974
  H            4.134850       35.050402       12.492754
  H            3.202608       36.193306       12.848958
  O           38.284564        5.858289       28.116745
  H           37.329838        5.782750       28.049543
  H           38.495402        5.466534       28.968048
  O           22.275957       21.187354       12.406519
  H           21.566529       21.783019       12.658748
  H           22.492765       21.442501       11.506221
  O           16.512520        1.127570       41.111307
  H           16.561471        1.852322       40.483561
  H           17.237279        0.548013       40.863359
  O           24.233861       27.253258        0.509365
  H           23.796403       26.838369        1.256508
  H           23.518351       27.642148        0.000000
  O           17.913979       11.876752       26.178895
  H           18.648250       11.868184       25.560431
  H           17.599957       10.969043       26.188772
  O           18.929563       10.772752       39.402128
  H           18.713341       10.064133       40.012727
  H           19.431044       10.342199       38.705147
  O           20.767877       31.268776       39.115435
  H           21.264419       31.229345       38.294694
  H           21.379469       30.941855       39.780055
  O           24.879708        0.739309       40.589858
  H           25.462357        1.494808       40.696944
  H           25.473573        0.000000       40.436927
  O           39.538823       25.776421        7.160090
  H           40.063650       26.543390        6.919173
  H           38.799172       26.139233        7.653979
  O           36.929415        3.930131       33.018786
  H           36.163326        3.986733       32.442914
  H           36.755022        4.572394       33.711409
  O           18.385086       27.972485       35.070594
  H           17.760155       27.775316       35.772243
  H           17.837872       28.089763       34.289924
  O           36.498774       10.704204       28.293482
  H           36.296830       11.372202       27.634148
  H           35.763404       10.747647       28.909912
  O           22.720316       28.703862       38.217169
  H           22.216586       29.001956       37.456170
  H           22.275714       29.103714       38.968894
  O           37.157876        1.096449       38.722696
  H           37.768032        0.369365       38.866861
  H           37.624530        1.868359       39.052894
  O           24.977113       31.334761       17.200186
  H           24.987683       30.389886       17.030407
  H           25.549056       31.446216       17.963796
  O           18.011729       20.430990        9.311733
  H           18.810064       20.061736        8.926975
  H           17.437124       20.592736        8.559198
  O            3.124744       22.033022       13.420270
  H            3.848857       22.548875       13.782598
  H            3.515026       21.561281       12.680146
  O           13.405575       31.091137       14.732777
  H           13.538166       30.240993       15.158687
  H           13.241949       31.698541       15.458676
  O           34.419030        4.855971       39.254620
  H           35.248027        4.497011       38.929601
  H           34.664565        5.347134       40.042727
  O           34.406253       16.202647       13.601425
  H           34.595603       15.587669       14.313938
  H           33.618570       15.846841       13.182381
  O           27.979233       28.860929       39.417396
  H           28.649053       28.205578       39.208636
  H           27.281459       28.360070       39.847388
  O            4.774346       25.072005        3.764429
  H            5.658010       24.759251        3.556947
  H            4.492359       25.533723        2.970741
  O           40.682921       23.319467       28.812785
  H           39.840363       23.224577       29.263137
  H           41.329651       23.000235       29.447193
  O           41.328819       28.087806       33.578725
  H           41.999824       27.408433       33.479083
  H           41.459782       28.665050       32.822233
  O            5.040055       23.737205       12.007972
  H            4.089954       23.708981       11.872931
  H            5.361463       22.923295       11.611880
  O           11.929828       38.643525       12.249485
  H           11.939315       39.014357       13.134989
  H           11.131340       38.998657       11.850811
  O           30.462976       11.955667       22.119784
  H           30.282473       11.481392       22.934773
  H           30.676498       11.266814       21.485330
  O           11.973492       12.142497       17.287178
  H           11.248151       12.705740       17.567112
  H           11.594021       11.588933       16.600002
  O            2.607355       22.327488       10.733924
  H            2.153025       21.625540       10.262142
  H            1.903542       22.910666       11.029210
  O           41.335078       12.020537       25.589700
  H           41.313625       12.859672       26.055659
  H           42.000000       12.143556       24.907507
  O           11.107037       18.779672       33.555862
  H           11.889265       18.247124       33.393883
  H           11.440332       19.564603       33.997946
  O           18.284184       17.470574       19.245209
  H           18.846307       17.498730       20.022994
  H           18.258377       16.541380       19.003188
  O           34.116226       25.229969       39.512373
  H           33.284517       24.829194       39.775743
  H           34.628108       24.501696       39.151489
  O           22.721861       31.745826       10.004355
  H           22.992051       31.860617        9.090273
  H           23.530506       31.505360       10.463606
  O           16.690042       19.595727       18.410493
  H           16.299132       18.878089       17.906599
  H           16.818799       19.228070       19.288498
  O            4.190968       25.030353        6.100197
  H            3.262585       25.213762        6.262035
  H            4.597978       25.898114        6.037150
  O           33.764157        0.556821        4.158381
  H           34.153851        1.403326        4.389235
  H           34.250780        0.274728        3.379752
  O           19.879299       26.245976        5.526718
  H           20.145445       26.570859        6.390050
  H           19.412620       26.984544        5.127506
  O           35.593483       23.702496       26.932545
  H           35.967593       22.819261       26.891768
  H           34.643685       23.560086       26.916898
  O           34.837779        7.178218       36.187729
  H           34.761956        8.009038       36.662823
  H           35.153624        7.429890       35.316209
  O           10.676558       33.347728       24.069399
  H           10.333511       33.250311       23.178021
  H           10.801290       32.446263       24.376719
  O           40.042373       17.995370        2.681666
  H           40.917328       18.315555        2.913313
  H           39.448297       18.493707        3.248566
  O            3.490107        6.144027        9.572253
  H            3.442586        5.759795        8.693713
  H            3.662104        7.076020        9.415896
  O           27.040868       34.015243       33.870227
  H           27.840552       34.472626       34.140469
  H           26.807149       34.419387       33.030772
  O           24.486115       24.495445       36.226132
  H           24.377490       23.552111       36.367716
  H           23.841199       24.900250       36.811674
  O           32.807485       32.676649       40.477620
  H           32.143281       33.304174       40.772188
  H           32.912267       32.862409       39.541054
  O            9.610831       28.454223       24.540259
  H            9.533577       27.532025       24.284705
  H           10.273897       28.454312       25.235231
  O           29.240986       24.984910       34.370524
  H           28.963293       24.407587       35.085583
  H           29.949853       24.503225       33.936785
  O           40.494742       38.626847       25.020296
  H           41.414733       38.804894       25.229198
  H           40.133245       39.485110       24.785037
  O           31.112242        8.630627        8.028680
  H           31.728103        8.583084        8.763649
  H           31.578304        8.213462        7.299707
  O            6.856611       35.432303       23.962688
  H            6.776253       35.758690       24.861987
  H            7.767206       35.620008       23.721389
  O           18.865488       41.155693        7.054879
  H           18.808796       42.000000        6.601386
  H           18.583869       41.347982        7.952853
  O            6.844497        3.323345       37.773520
  H            7.756872        3.055620       37.906262
  H            6.577823        2.870829       36.969309
  O           21.005376       13.912790        3.016786
  H           20.353640       13.253744        2.766541
  H           21.520358       13.488495        3.707734
  O           35.725844       31.080593       31.926888
  H           35.335790       30.961958       31.057688
  H           36.535983       31.568937       31.760041
  O           41.121340       23.266091        0.493975
  H           41.999999       23.004769        0.208679
  H           41.242957       23.562294        1.399577
  O           17.504591       24.196894       39.994992
  H           16.963884       24.069450       39.211973
  H           17.576979       23.319908       40.380085
  O            1.703260       29.757222       34.116595
  H            2.556604       30.073887       34.421970
  H            1.911358       28.981127       33.590274
  O           37.839844       21.495636       29.976482
  H           37.787608       21.855938       29.088125
  H           37.930151       20.548473       29.844697
  O           39.287118       15.644828       24.425351
  H           39.215763       14.936996       25.070027
  H           38.384053       15.793885       24.133980
  O           26.822144       29.923195        6.212552
  H           26.445284       30.747332        5.895536
  H           27.058119       30.104641        7.125807
  O           34.867306       16.827692       20.003145
  H           34.224299       17.512203       20.202421
  H           35.154366       17.023623       19.107684
  O            2.448017       25.832788       18.497630
  H            1.786494       25.166839       18.296074
  H            3.154656       25.344456       18.927555
  O           25.770007       29.866959       34.575188
  H           25.749406       30.179823       33.667765
  H           25.691982       28.912536       34.500154
  O           13.809993       22.425526       36.115666
  H           14.109293       21.824467       36.801868
  H           13.126532       21.935809       35.651230
  O           13.900487       19.608301       33.021811
  H           14.087574       18.683344       33.198383
  H           13.423053       19.600111       32.188365
  O            1.548318       41.670442        2.540856
  H            1.629830       41.120319        3.323445
  H            0.734975       41.373969        2.124662
  O           35.371540        0.795414       36.708820
  H           36.068601        0.599303       36.078446
  H           35.564226        1.687808       37.007396
  O            9.237117        6.370768       29.193568
  H            9.712071        5.557941       29.381866
  H            9.377519        6.914894       29.972578
  O            9.094757       30.833277       25.274218
  H            8.489052       30.115148       25.472052
  H            8.990540       30.980008       24.330687
  O            1.952257       12.023167       37.018126
  H            2.239965       12.855505       37.400437
  H            1.434474       11.608138       37.712600
  O            8.183516        7.272909       15.122598
  H            7.336669        7.270739       14.670304
  H            8.326957        6.354470       15.364543
  O           28.158696        1.651142       18.187479
  H           27.267979        1.994629       18.085671
  H           28.721655        2.333747       17.813621
  O           15.922620       22.427751       38.168512
  H           15.564969       23.205310       37.733526
  H           16.185937       21.850868       37.447047
  O           30.015483       33.763970       10.459230
  H           29.749082       33.227547        9.708893
  H           29.930199       33.176631       11.214479
  O           35.487653       20.931068       34.208070
  H           35.671340       20.341484       33.472968
  H           35.476594       20.356367       34.977640
  O           20.204527        2.802063       23.961827
  H           19.491136        3.276218       24.395387
  H           19.970365        1.875847       24.061493
  O           25.619903        2.242705       37.471411
  H           24.775572        1.840906       37.689098
  H           25.913702        2.641028       38.294613
  O            6.428750       12.827130       40.603668
  H            7.330914       12.692533       40.304151
  H            5.954790       13.104621       39.815631
  O           29.300578       39.781252        1.347729
  H           30.024181       39.151392        1.310317
  H           29.641101       40.562231        0.904154
  O           27.427689       32.833905       35.718923
  H           26.608096       32.465100       35.381320
  H           27.696699       32.223827       36.410357
  O           24.579901       37.336634       38.385613
  H           25.372334       37.679493       37.965825
  H           24.523058       36.427437       38.081029
  O            1.952983        0.935454       40.197823
  H            1.134155        1.425058       40.305221
  H            2.607707        1.607806       39.993078
  O            9.239738       27.019768       18.498370
  H            8.509269       27.475559       18.923099
  H            8.822137       26.312929       17.999742
  O            4.953551        9.098163        4.004347
  H            4.479643        8.265476        3.942949
  H            5.329615        9.223549        3.129420
  O           13.737932       15.002564       19.761150
  H           14.049387       15.556640       19.041622
  H           13.004343       14.510989       19.383206
  O           31.803621        8.465516       14.320898
  H           31.810097        8.105313       15.210807
  H           32.119784        9.366422       14.426024
  O           23.506262        7.929097       31.400782
  H           22.791934        8.543204       31.586074
  H           23.977223        8.326487       30.663953
  O            3.444620       13.770479       28.968920
  H            2.802954       14.478953       28.879175
  H            4.168899       14.030543       28.394090
  O           22.964774       12.004115       12.699146
  H           23.840550       12.155876       13.062063
  H           23.106347       11.369499       11.992137
  O           28.578257       30.161543        9.153758
  H           28.824383       29.914705        8.259210
  H           27.859808       30.788670        9.038931
  O           28.506471       26.879896       27.525012
  H           27.984405       27.631949       27.235892
  H           27.855255       26.218859       27.773185
  O           16.583659       22.909419       28.902531
  H           15.744301       23.375163       28.885602
  H           16.486171       22.218251       28.242664
  O            4.332999        5.871942       23.477420
  H            4.997406        6.556457       23.369122
  H            4.250249        5.768366       24.428770
  O           23.507823       28.848511       34.229194
  H           23.391625       27.934824       33.958270
  H           23.056707       28.905532       35.075293
  O           39.540101        2.940077       17.325938
  H           39.522151        2.995982       16.367670
  H           40.276887        2.354117       17.516829
  O            2.913255       17.642208       24.589887
  H            3.367016       18.478680       24.716931
  H            3.490242       16.993202       25.000398
  O            3.647451       33.397871       30.813606
  H            4.541928       33.173097       30.546934
  H            3.695057       34.328301       31.047433
  O           32.494041        2.945161       11.516134
  H           33.365711        3.278175       11.290263
  H           32.072311        2.786314       10.667869
  O            8.797551       24.409229       19.683606
  H            8.474131       23.609467       20.104920
  H            8.133879       25.072360       19.889614
  O           11.393289        6.987925       24.469925
  H           10.806494        7.580635       23.994433
  H           12.231605        7.059966       24.006592
  O           25.819971       37.780440       20.155738
  H           24.961937       38.142003       19.921699
  H           26.439960       38.483988       19.947712
  O           34.105083       41.020241       21.825143
  H           33.850575       41.944306       21.769888
  H           34.230334       40.863185       22.764445
  O           12.374283        7.555068       31.335973
  H           11.469188        7.775619       31.103842
  H           12.849473        8.386283       31.259041
  O           28.313347        3.023586       10.419449
  H           28.879581        3.798882       10.423909
  H           28.503337        2.594395        9.581392
  O            2.438207       36.173646       22.188156
  H            2.380657       35.239153       21.975704
  H            3.073170       36.215923       22.907654
  O           31.722275       24.825745        1.102214
  H           30.960736       25.279779        0.733925
  H           31.366705       24.323373        1.839665
  O           19.363590       22.849989       35.168378
  H           19.336425       22.891019       36.127181
  H           20.271399       23.071392       34.945879
  O           13.572780        2.503426       10.656710
  H           13.570340        3.127381       11.386367
  H           13.836202        1.670523       11.056115
  O           16.712109       14.649845       26.827733
  H           16.905149       15.587343       26.753192
  H           15.870872       14.615658       27.290112
  O           22.098404       20.094680       24.402408
  H           21.957491       19.148520       24.483954
  H           21.816095       20.451566       25.248326
  O           23.938460       41.050544       20.407506
  H           23.796682       42.000000       20.394924
  H           24.708397       40.917019       19.848928
  O            1.309867        3.638627       40.617956
  H            0.366583        3.784301       40.721498
  H            1.583745        3.248096       41.451694
  O            9.544704       37.629298       13.628482
  H           10.347010       37.385804       13.160785
  H            9.816279       37.699699       14.547140
  O           19.261301       22.934871       12.072123
  H           18.464103       22.466871       11.812940
  H           18.951647       23.804607       12.337295
  O            5.295850       15.130869        9.654115
  H            5.958816       14.436462        9.653914
  H            4.573580       14.770797       10.174997
  O           15.445471       21.564265       26.407560
  H           14.625860       21.965529       26.109314
  H           15.194685       20.673879       26.666328
  O           24.535648       29.515153       23.998248
  H           24.505399       30.389598       23.603082
  H           24.663424       29.681403       24.935626
  O           37.135903        3.686620       12.614868
  H           36.960182        2.821875       12.993106
  H           37.883256        3.543109       12.028771
  O           36.739820       36.410135       41.473688
  H           36.471583       35.648869       40.953833
  H           37.630165       36.198069       41.765160
  O           30.802796       22.500705       18.468220
  H           29.946898       22.121271       18.255630
  H           31.433977       21.822925       18.213530
  O           29.876549        2.743410       35.618892
  H           29.085408        3.171259       35.954700
  H           30.135817        3.279401       34.865144
  O            8.966121       33.861680        2.117740
  H            9.155546       33.119779        1.538580
  H            8.403969       34.436751        1.592459
  O           34.085148        6.860312       32.639524
  H           33.614070        7.089578       33.444041
  H           34.360049        7.705461       32.275115
  O            1.032086        7.742406        9.815005
  H            1.469722        8.178704       10.549746
  H            1.575822        7.956255        9.052600
  O            9.848973       12.867684       12.895932
  H            8.904163       12.716481       12.974646
  H            9.922209       13.607064       12.287165
  O           37.900081        9.116887       39.239789
  H           38.785913        8.944310       38.912308
  H           37.984128        9.935926       39.734513
  O           17.692775       29.276912       17.759456
  H           16.864177       29.604617       18.116890
  H           17.942880       29.929505       17.100508
  O           30.274380        6.112526       15.979246
  H           30.551954        6.748503       16.642729
  H           30.176653        6.631973       15.177207
  O           18.776249       17.390159       29.008612
  H           19.071453       18.288082       28.840343
  H           19.472626       16.837991       28.644179
  O           34.518014       31.332037       18.696519
  H           35.462337       31.189262       18.598562
  H           34.450298       32.060024       19.319490
  O           16.459109       28.089095       29.094087
  H           16.512882       28.993941       29.410451
  H           17.331349       27.910274       28.733723
  O           17.433629        7.307422        8.569168
  H           16.802353        7.168758        7.859247
  H           17.222628        6.625925        9.212349
  O            8.874123        6.418348       26.347268
  H            9.803613        6.180962       26.309555
  H            8.428850        5.715390       25.867451
  O           11.651932       35.123032       25.337603
  H           12.063319       34.329893       25.688911
  H           11.760012       35.776029       26.033704
  O           16.338751        3.817375       11.876291
  H           15.508504        3.632450       12.321508
  H           16.122138        3.776861       10.941369
  O           31.532136        7.802521       31.637886
  H           31.700114        7.802584       32.583142
  H           31.081644        6.969792       31.475832
  O           15.728123       20.984031       20.834531
  H           15.644486       20.351133       21.551589
  H           16.667435       20.994344       20.633961
  O           31.224257       20.680837       16.258475
  H           30.419612       20.854298       16.752624
  H           31.554270       21.552597       16.026597
  O           35.906973       18.760101        2.882135
  H           36.751097       18.609028        3.313827
  H           35.777033       17.982263        2.333750
  O           25.317902       20.212790       31.368512
  H           24.444830       19.821604       31.288248
  H           25.543442       20.478253       30.473356
  O           21.355735       21.665413       22.917235
  H           20.854515       21.807968       22.110896
  H           21.611152       22.547677       23.198332
  O           19.040271       20.480632       27.581954
  H           19.632756       21.233368       27.645779
  H           18.171988       20.843668       27.774133
  O            8.650109       24.111812       36.259422
  H            8.228395       23.262402       36.409037
  H            8.985876       24.056387       35.361185
  O           34.100900       38.832314       40.007786
  H           34.548569       39.644472       39.759357
  H           33.545062       39.083789       40.749708
  O           25.751412        6.934266       15.514617
  H           25.108880        7.087179       16.211391
  H           25.942622        7.810297       15.170161
  O           27.139239       35.186366       36.611624
  H           27.716704       34.584975       37.087636
  H           27.387323       36.057747       36.930673
  O           25.337132       26.149954       29.352842
  H           26.138487       26.675223       29.292445
  H           24.868676       26.515612       30.107485
  O           14.203229       36.364239       24.083469
  H           14.552205       36.145941       24.950813
  H           14.493165       37.267047       23.930117
  O           22.662578       35.141873        1.093564
  H           23.420580       34.599207        0.864060
  H           21.961348       34.828055        0.516990
  O            7.215286       28.483474       17.226160
  H            7.580450       27.691536       16.824646
  H            7.983103       29.024026       17.428406
  O           14.377776       31.304441       17.554366
  H           14.601738       32.145606       17.149387
  H           15.106765       30.724920       17.319052
  O           10.732311        6.080993        8.711425
  H           11.165697        6.800058        9.177093
  H           11.413244        5.409264        8.623382
  O            5.670091       28.679034       25.385480
  H            5.156081       29.484003       25.483172
  H            5.229591       28.044143       25.956019
  O           20.367498       23.939279       32.916682
  H           19.470007       23.602058       32.966855
  H           20.327542       24.624446       32.244677
  O           35.681526        1.180212       22.014225
  H           34.974275        1.826771       21.955204
  H           36.270928        1.404767       21.289779
  O            1.296979       39.589926       38.865851
  H            1.465699       38.888192       39.498959
  H            0.468163       39.340868       38.449107
  O            0.625743       35.924406       19.956757
  H            0.726257       36.441660       19.154217
  H            1.291670       36.276849       20.552548
  O           20.159028       21.516789       32.686903
  H           20.878966       21.796068       33.257355
  H           20.372026       21.896737       31.830799
  O           30.886388       36.786354       38.115278
  H           31.305577       36.155221       37.525636
  H           30.181736       36.287592       38.536400
  O           10.375619       22.017317       26.613831
  H           10.264464       21.237981       27.163381
  H            9.723668       21.912165       25.916304
  O           30.090970       23.643252       10.666175
  H           30.368964       24.051151       11.489621
  H           29.843568       24.382800       10.105369
  O            8.574725       27.234271        0.416437
  H            9.193548       26.904253        1.072083
  H            7.905840       27.694078        0.930063
  O           24.114052       17.985008       14.852533
  H           24.762967       17.277798       14.874636
  H           23.367671       17.639334       15.348584
  O            1.171306       17.640744        7.146765
  H            1.046936       17.472650        8.083783
  H            0.288127       17.828141        6.818864
  O           35.257683       17.361653       30.894201
  H           35.032310       16.522112       31.301759
  H           36.072278       17.626612       31.328796
  O           11.939597        4.214544       30.894092
  H           12.379696        3.395934       30.653437
  H           12.510587        4.605273       31.560384
  O           11.235366       25.936425       28.544271
  H           10.290763       26.059634       28.663725
  H           11.462070       26.521618       27.817087
  O            0.736207       16.995711       31.490138
  H            0.604838       16.302659       30.838873
  H            0.000000       17.596684       31.350592
  O           35.457797       12.157725       10.878288
  H           35.001180       11.607480       11.518957
  H           35.068094       11.914821       10.034623
  O           34.385128       17.615521       24.159317
  H           34.452080       18.204383       24.914621
  H           34.815843       18.093023       23.445791
  O           21.168196        9.132540       11.463101
  H           20.579233        8.666268       12.060962
  H           21.757483        9.622079       12.042527
  O           15.210987        9.815940       13.244490
  H           14.716730       10.563045       13.589842
  H           14.775343        9.047206       13.621193
  O           17.106386        2.320445       20.926526
  H           16.610281        3.122839       21.104766
  H           17.737181        2.575758       20.248621
  O            6.615541       23.574867        5.617216
  H            5.866067       23.193430        5.154054
  H            6.802939       22.950334        6.322540
  O           33.067669       37.264493       30.881544
  H           33.156461       37.537748       29.965481
  H           33.177010       38.075785       31.384029
  O           38.313934       40.958605        2.650909
  H           39.261804       40.824523        2.578176
  H           38.188194       41.293341        3.542415
  O           10.509467       36.921887       39.828895
  H           10.476555       37.878748       39.757770
  H           11.184657       36.659009       39.198295
  O           27.695650       11.511922        4.773341
  H           28.532454       11.325906        5.205639
  H           27.077043       10.897948        5.177077
  O            2.239054       25.040578        4.279255
  H            1.472504       25.266565        3.747224
  H            2.691517       24.363417        3.769968
  O           34.586389       15.545152       38.041397
  H           35.076616       15.276006       37.261036
  H           34.691329       16.499470       38.071515
  O            9.592442       34.933013       19.795035
  H           10.233087       34.368703       19.355886
  H            8.740413       34.592450       19.510948
  O           29.098615       18.540892        7.674093
  H           29.525855       18.550643        8.533800
  H           29.733925       18.958951        7.087364
  O           22.482085       11.139339        8.717054
  H           21.837658       11.845114        8.625838
  H           22.290583       10.750957        9.574450
  O           24.071827        9.291220       22.654426
  H           24.538651        9.658463       23.408703
  H           24.042369       10.010796       22.018828
  O           10.849527       30.958797       37.233604
  H           10.603629       30.030977       37.253808
  H           11.663633       31.000817       37.741647
  O           27.201727       36.879117        8.505646
  H           26.418707       37.382658        8.271016
  H           27.149442       36.788107        9.460437
  O           30.534126       14.850517       30.974269
  H           31.442800       15.142115       31.079189
  H           30.547405       14.309707       30.180551
  O           23.354357       33.295889       17.680964
  H           23.494816       33.609367       18.577472
  H           24.191254       33.457360       17.238050
  O           36.748400        6.640303       23.454321
  H           36.054289        7.270824       23.660182
  H           36.281236        5.876674       23.106081
  O            6.402132       10.911163        5.311612
  H            5.675725       10.440194        5.726638
  H            6.737910       10.298453        4.652460
  O           11.076103       10.533575       32.810972
  H           11.192333        9.781936       32.225093
  H           10.219661       10.894652       32.568542
  O           41.082092        1.362623        1.704816
  H           41.069604        1.472314        0.751119
  H           41.999993        1.505312        1.949231
  O           33.406267        1.100021       26.027384
  H           32.846137        0.460127       25.581834
  H           33.861375        1.555621       25.314680
  O           31.334083       34.321732       27.360147
  H           30.837631       35.133012       27.490855
  H           30.987552       33.959531       26.540776
  O           18.827271       25.701853       17.478729
  H           18.334599       26.087197       18.207090
  H           18.377063       24.872693       17.298595
  O            1.967450       21.200554        5.658792
  H            1.129674       20.869573        5.990920
  H            1.769986       22.091669        5.359520
  O            8.880972       12.666838       15.706475
  H            9.516692       13.339949       15.960456
  H            9.241516       12.290736       14.899507
  O            7.593084       19.984497       15.456794
  H            8.053721       20.318736       14.683603
  H            7.889463       20.550455       16.174076
  O           32.098636       28.606078       31.014460
  H           31.180220       28.832074       31.179273
  H           32.498999       29.430307       30.726364
  O            7.070381       11.756222       12.002352
  H            6.909402       12.660846       12.280681
  H            6.276706       11.510203       11.520483
  O            8.854363       38.905592       32.370603
  H            8.068426       39.456716       32.387654
  H            9.142403       38.929346       31.454574
  O           38.478215       25.745190        2.705776
  H           39.142488       26.393033        2.952283
  H           38.549675       25.062796        3.377991
  O           38.173103        2.105739       23.003335
  H           38.543502        2.150227       23.887954
  H           37.449866        1.478163       23.078958
  O           22.435455       16.461945       22.672826
  H           23.205818       16.953027       22.967961
  H           21.689295       16.998657       22.951798
  O            0.856742       11.738490        5.366040
  H            0.145060       12.362930        5.525129
  H            0.566179       10.930879        5.797293
  O           10.043934       27.996868       40.326561
  H           10.278592       27.391286       41.033618
  H            9.103884       28.152417       40.448021
  O            7.770991        9.248182       34.197457
  H            8.396566        8.567412       33.938746
  H            6.912649        8.823119       34.125259
  O            2.481554       36.648281       17.547557
  H            1.578990       36.900145       17.338588
  H            3.009087       37.056314       16.856283
  O           29.539105       12.918019       40.687007
  H           29.184674       12.316429       40.028075
  H           28.767365       13.223989       41.170166
  O           19.818849       38.182024        3.397451
  H           18.993747       38.672071        3.369411
  H           20.459823       38.770885        2.991202
  O           17.061606       34.601078        7.278338
  H           16.941977       34.421347        8.213812
  H           16.413646       35.282334        7.081667
  O            9.299604       37.139962       21.319959
  H            9.451912       38.085008       21.246374
  H           10.116360       36.741851       21.008415
  O            3.053494       16.317766        8.966224
  H            3.915002       16.737247        9.025925
  H            3.230333       15.467206        8.556446
  O           16.603101       13.703583       39.205787
  H           17.033813       13.544937       38.362553
  H           16.707715       12.878276       39.685961
  O           39.793980        6.241268       14.510235
  H           38.885149        6.457592       14.288978
  H           39.719830        5.583138       15.205942
  O           35.605562       18.285539       27.608231
  H           34.850833       18.872361       27.696260
  H           35.872863       18.376958       26.690171
  O           37.449210       31.970407       34.716175
  H           36.955393       31.206203       35.022544
  H           36.888494       32.361846       34.041627
  O           13.355458        5.028133       37.264305
  H           12.621860        4.410934       37.213067
  H           13.728310        4.883348       38.137610
  O           35.170441        8.810879        7.877468
  H           35.722082        9.466784        7.444795
  H           34.555313        9.326976        8.404633
  O           26.242243       31.144603       38.688501
  H           25.940893       32.038535       38.866820
  H           25.626958       30.585212       39.169281
  O           18.525488       23.540416        9.365230
  H           17.920947       24.193281        9.004644
  H           19.363551       23.728263        8.935107
  O           40.131830        2.605176       13.263897
  H           40.051624        2.701951       14.215699
  H           40.115535        1.655834       13.118548
  O           40.965005        3.727132        1.787447
  H           40.376060        4.396038        1.430471
  H           40.465205        3.327004        2.503506
  O           39.919450       39.246299       31.206935
  H           40.717283       39.756313       31.365280
  H           39.644437       38.956484       32.080444
  O           16.632030       24.105833       32.336609
  H           15.837294       24.527096       32.000964
  H           16.308652       23.440870       32.949710
  O           21.079932       25.948131       27.061273
  H           20.315252       26.161312       27.601220
  H           20.902330       25.062098       26.735627
  O           25.019626        4.191511       14.979658
  H           24.386578        4.600353       15.574489
  H           25.530284        4.927307       14.632564
  O           30.049893       10.696701       36.679052
  H           30.470432       11.491428       37.015626
  H           30.290400       10.013985       37.310477
  O           21.859984       25.921332        0.585793
  H           21.146565       26.185162        0.000001
  H           22.524534       25.550035        0.000000
  O            8.022533       10.559674       41.242492
  H            7.921556       11.237920       41.914438
  H            8.630828       10.943469       40.605844
  O           34.761364        5.692111       28.366730
  H           34.705280        6.498688       27.849030
  H           34.503936        4.997756       27.754976
  O           17.862244       18.166716       41.239834
  H           18.516295       18.143742       40.537400
  H           17.019775       18.204954       40.780024
  O            3.104165        4.224217       29.399852
  H            2.587569        3.816996       30.099156
  H            2.743903        5.111313       29.322956
  O           34.352199       22.107631       35.752446
  H           33.524243       22.522592       35.499423
  H           34.110817       21.507183       36.462262
  O           10.602094       16.552491       36.973986
  H           10.205099       15.859294       37.506525
  H            9.964395       17.270224       37.003015
  O           33.018374       26.909295       26.816941
  H           33.363362       27.499207       26.142617
  H           32.128205       26.703196       26.520691
  O           22.762286       39.000451       13.824121
  H           22.202911       39.412788       14.486543
  H           22.712736       38.061630       14.021102
  O           36.843358        4.464645       16.880249
  H           37.001954        3.775884       17.530003
  H           37.380408        4.209106       16.125982
  O           27.871548        0.000000       41.344313
  H           27.545534        0.902863       41.327594
  H           28.673426        0.026232       40.816160
  O            7.167245       12.416999       31.300459
  H            7.170068       13.152434       30.683328
  H            6.578070       11.772375       30.900490
  O            7.803440       15.426532       31.380737
  H            7.620589       15.151713       32.282272
  H            8.176381       16.307116       31.470900
  O            6.434318       11.660786       20.150343
  H            6.037495       10.788441       20.207536
  H            6.310237       12.037006       21.025389
  O           13.979411       39.607074        8.282812
  H           13.411689       40.375581        8.188931
  H           14.820101       39.884749        7.910282
  O           32.960072       25.201478       28.202432
  H           32.159672       25.666724       28.456657
  H           32.672558       24.585807       27.523516
  O           21.625499       10.891288       19.019028
  H           21.195363       11.700178       18.731965
  H           21.059051       10.555203       19.718189
  O           37.454541        6.675185       16.986606
  H           37.530302        6.966485       16.074943
  H           38.028582        7.270226       17.475530
  O           35.803810        1.614527        1.886378
  H           36.597056        1.307667        2.331713
  H           36.129266        2.187137        1.187209
  O           33.463979        9.876853       30.484318
  H           33.978505        9.620203       29.715476
  H           32.586014        9.527889       30.310985
  O           21.786217       25.929683       29.272277
  H           21.332281       26.669938       29.681776
  H           21.360649       25.153356       29.644901
  O            7.561685        5.293217       22.201879
  H            6.940843        5.961947       22.500342
  H            7.994627        5.691701       21.442660
  O           41.653078       39.339893        2.855875
  H           41.519472       39.983578        3.555548
  H           41.165183       39.695219        2.108651
  O            3.374834       39.433682       36.351173
  H            3.036996       38.813456       35.700858
  H            2.912662       39.204838       37.161524
  O           11.511585       40.381054        9.378879
  H           11.019443       39.572427        9.539018
  H           11.021339       40.824497        8.681986
  O           36.813609       40.573985       40.855618
  H           37.057710       40.088859       40.063916
  H           37.294660       41.402421       40.785438
  O           21.916898        6.551481       12.234256
  H           22.342459        6.420881       11.383630
  H           22.422891        7.255065       12.648483
  O            7.497931       10.023958       31.879192
  H            6.622150       10.006081       32.272147
  H            8.009159       10.591239       32.461842
  O           18.745038       40.382714       30.682853
  H           18.807548       40.648244       31.603348
  H           18.951772       41.180786       30.189918
  O           35.853000       29.229271       28.156460
  H           36.490250       29.947288       28.147030
  H           36.269723       28.533850       27.641316
  O            9.339959       35.026626       37.414255
  H            8.438646       35.086024       37.088938
  H            9.388507       35.692371       38.104956
  O            0.108145       18.054909       24.795943
  H            0.927622       18.462023       25.086531
  H            0.310076       17.116813       24.753014
  O           18.114153        7.392989       22.576734
  H           17.370721        6.997620       23.037947
  H           18.783474        6.704086       22.568743
  O           19.985491        2.881252        3.739743
  H           19.116797        3.273086        3.856198
  H           19.959672        2.081764        4.271526
  O            1.159027       24.383169       33.087690
  H            1.515242       25.237689       32.833465
  H            1.617969       23.756022       32.523153
  O            6.041997        8.895561       41.390583
  H            5.651800        9.768714       41.474700
  H            6.784381        8.906446       42.000000
  O           27.932064       21.410926       23.226320
  H           28.655811       21.673730       23.799774
  H           27.835469       22.143938       22.613129
  O           38.857067        1.874760        2.002402
  H           38.732950        1.027961        1.567372
  H           38.385419        2.499942        1.446220
  O            9.767416       12.031416       27.934527
  H           10.297771       12.815131       28.096520
  H           10.200088       11.599697       27.193544
  O           28.415568       29.310759       35.999979
  H           27.531660       29.028334       35.753669
  H           28.680089       28.694029       36.687230
  O           10.552910       26.976347       10.741711
  H           11.431390       27.202301       11.056264
  H           10.383285       27.605359       10.035870
  O           34.019703       28.247086        0.393189
  H           34.854579       28.138382        0.854589
  H           34.076677       29.121620        0.000014
  O           40.650102       18.546836       10.483776
  H           41.371960       19.119636       10.214431
  H           40.106311       18.462312        9.696509
  O           16.365599       10.082817       39.414015
  H           16.153286        9.233175       39.020623
  H           16.485141        9.890187       40.347421
  O           16.698189       40.088222       28.470045
  H           16.491927       40.970406       28.152344
  H           15.978852       39.876781       29.070454
  O           12.211952       13.951660        2.129849
  H           12.118205       14.332730        1.253651
  H           11.423608       13.414424        2.241799
  O           18.398119       33.277454       15.042746
  H           17.447284       33.332252       14.921779
  H           18.528309       32.469586       15.545779
  O           34.140055       16.112263       27.619006
  H           34.348657       15.256511       28.000973
  H           34.231532       16.728421       28.350186
  O           10.433154       31.394770       14.445077
  H           11.066650       31.006419       15.053017
  H            9.616057       30.919819       14.616593
  O           25.088611       34.406320        7.076492
  H           24.192427       34.195200        6.804450
  H           25.249441       33.834853        7.831609
  O            7.512403       18.223803       13.916228
  H            8.169130       17.753632       14.435241
  H            6.680945       18.039855       14.360619
  O           17.323305       16.767468       11.741124
  H           18.069303       16.750007       12.345200
  H           17.656761       17.222216       10.963529
  O           24.800991        1.493435       23.628375
  H           25.210144        1.967275       22.900504
  H           24.226876        0.851844       23.202471
  O           11.159352       33.542827       38.218960
  H           11.862105       33.011978       38.601140
  H           11.337509       34.433929       38.530151
  O           16.539293        9.746489       35.351882
  H           16.534795       10.402950       36.052427
  H           17.458117        9.698468       35.076022
  O            8.922139       21.243673        2.038040
  H            9.643952       21.086743        2.651297
  H            8.173935       20.784519        2.427925
  O           29.772502       40.430412       16.155652
  H           29.150867       40.427102       16.887283
  H           29.442828       41.113039       15.565756
  O            9.845660        3.458407       40.195699
  H           10.537997        2.793360       40.206037
  H            9.436232        3.362952       39.332045
  O           22.365922       27.957828        9.194958
  H           21.676183       28.466567        8.762327
  H           22.327611       28.236871       10.113277
  O           33.334856       38.167424       22.386170
  H           32.863263       38.885885       21.958222
  H           32.756593       37.407487       22.282484
  O           31.311820        3.185443       24.315156
  H           32.176523        3.227109       23.900093
  H           31.013125        2.286828       24.154178
  O           41.173477       13.498428       17.899425
  H           41.810598       12.831688       18.166369
  H           40.651072       13.069354       17.217054
  O           17.093394       34.065495        1.523406
  H           17.721661       33.345750        1.618126
  H           16.346089       33.671102        1.066644
  O           22.536429       12.764745        5.572812
  H           21.909361       12.055824        5.733879
  H           23.139937       12.723337        6.318938
  O            4.974707        3.217937       24.104993
  H            4.188961        3.582610       24.518927
  H            5.164803        3.820771       23.381739
  O           20.084287       16.503108       37.855300
  H           20.313529       15.832480       37.207665
  H           20.539862       16.227969       38.654920
  O           23.356944       24.999535       10.521187
  H           23.885969       24.731585       11.276210
  H           23.986574       25.408251        9.921889
  O           22.387283       15.290605       20.161177
  H           22.764493       14.704442       20.821366
  H           21.698059       14.767632       19.743910
  O           21.043953       20.110111       10.230025
  H           21.323011       19.907244        9.334092
  H           21.533488       19.491525       10.778066
  O           19.503598       22.854900        0.374310
  H           19.000476       22.281972        0.957703
  H           19.761609       23.594270        0.930552
  O            4.087466       28.670870       23.951136
  H            3.910497       29.508940       23.517495
  H            3.650003       28.018983       23.397681
  O           14.436039        4.940102        2.650956
  H           15.188309        5.526702        2.759192
  H           14.542319        4.576439        1.768292
  O           38.114683       28.395935        1.003488
  H           37.842528       27.486859        1.149220
  H           38.382963       28.419617        0.081476
  O            3.398720       14.907241        6.339141
  H            4.244738       14.587501        6.661236
  H            3.085756       14.209519        5.757867
  O           15.298640       11.147393        6.557865
  H           15.875159       11.915059        6.551625
  H           15.892041       10.404676        6.695299
  O            4.886936       21.111891       21.731219
  H            4.608642       22.025806       21.826280
  H            4.154061       20.601477       22.084791
  O            6.560103       21.203011        4.489601
  H            6.600473       20.428476        3.923748
  H            6.456134       20.846082        5.375283
  O           14.140747       31.813827       24.472577
  H           14.192592       31.449169       23.585976
  H           13.398301       31.356530       24.875435
  O            6.073315       16.562442       35.590576
  H            5.130790       16.612995       35.766120
  H            6.322990       15.681497       35.880818
  O           18.913350       28.497823        7.020805
  H           18.055754       28.858926        7.257149
  H           19.222310       29.063691        6.308781
  O           11.253281        3.739825       12.072846
  H           10.658994        4.421700       12.394706
  H           11.598941        3.329339       12.869503
  O           26.804491       18.667632       29.259424
  H           26.967260       17.725961       29.351546
  H           26.294654       18.743300       28.448880
  O            1.228638       15.674786       32.972411
  H            0.465363       15.095480       32.912905
  H            1.727085       15.336347       33.720510
  O           13.320792       38.170443       25.739414
  H           12.550701       37.597286       25.752640
  H           14.012914       37.649469       26.154378
  O           40.304906       27.475194       38.884851
  H           39.821319       27.166771       38.114952
  H           40.777841       28.251374       38.574176
  O           18.472604       33.189725       26.953225
  H           17.629105       32.731337       26.963879
  H           18.238142       34.119083       26.890266
  O           19.145582       26.984340        9.048578
  H           18.866853       26.639297        8.197121
  H           18.699061       27.831769        9.120182
  O           26.221869       22.320480       38.653749
  H           25.483713       21.803868       38.322142
  H           26.571143       21.798170       39.380276
  O           34.519318       22.963760       32.788197
  H           34.720393       23.030498       33.724595
  H           35.048159       22.222246       32.483030
  O           28.991783       30.359237       28.505058
  H           28.756388       31.092384       27.931638
  H           28.148783       30.018798       28.815049
  O            1.705714       34.996947       35.842565
  H            2.659043       34.928053       35.752329
  H            1.361525       34.306820       35.269940
  O            7.068384       10.553353       14.609018
  H            6.899845        9.613166       14.705805
  H            6.488743       10.967087       15.253597
  O           22.073851       28.388586       23.722076
  H           22.571059       28.662268       24.496419
  H           22.311871       29.029289       23.047177
  O           40.863851       30.711529       26.600172
  H           40.879760       29.759545       26.723456
  H           39.949134       30.908592       26.383143
  O            2.157055        7.711149        6.439596
  H            2.169421        6.995513        7.079468
  H            2.024106        8.501762        6.968650
  O           18.314792       28.374038       11.659376
  H           18.000438       28.711090       12.501577
  H           18.492508       29.161463       11.138780
  O            6.921052       39.780615        9.296977
  H            7.594347       40.440530        9.478395
  H            7.087001       39.513975        8.389229
  O           40.099912        5.222874       17.444606
  H           40.569024        4.702543       16.788165
  H           39.200132        5.271327       17.111903
  O           14.853868       17.768802        2.240952
  H           14.153016       17.118475        2.328169
  H           14.395778       18.586058        2.029085
  O           20.467325        7.508020       20.264198
  H           20.645250        8.451397       20.274537
  H           20.287783        7.309343       19.341737
  O           21.142952       32.235169       18.294546
  H           21.261671       33.133385       18.612097
  H           21.517128       32.243612       17.409919
  O            1.841124       11.737289       12.634937
  H            1.220664       11.145176       12.203479
  H            2.239673       11.202548       13.326205
  O            2.502146       20.375334       30.703536
  H            1.663600       20.692667       30.360221
  H            2.257723       19.775128       31.412516
  O            4.552923        5.362334       30.636260
  H            3.783397        5.446360       31.204147
  H            4.924292        6.247645       30.605409
  O           31.017615       39.033991       37.826756
  H           31.826090       39.126315       37.317276
  H           30.917321       39.880109       38.270228
  O           25.182720       23.618359        1.564255
  H           25.772947       23.262095        0.896098
  H           24.346135       23.174169        1.404685
  O           30.541410       41.301644       30.739394
  H           30.409828       42.000000       31.384925
  H           31.453953       41.405730       30.458194
  O           11.556427       39.075089       20.101673
  H           11.339431       38.260330       20.560809
  H           11.626343       38.817457       19.178971
  O           38.988056       33.582059       33.400556
  H           38.649079       33.077248       32.657599
  H           38.233078       34.090209       33.707855
  O           29.376609        8.521497        9.915893
  H           28.867218        8.086120       10.603420
  H           28.960810        8.240432        9.096896
  O           25.378321        3.764319        6.725581
  H           25.453227        3.268494        5.906880
  H           25.343153        3.091014        7.409734
  O           35.814606       34.873789       22.571875
  H           34.861818       34.796621       22.482625
  H           35.967639       35.814754       22.689385
  O           19.433767       30.239954       21.964292
  H           19.828841       30.877347       22.563768
  H           19.823787       30.442397       21.110159
  O           10.193997       28.073524       37.321565
  H            9.484500       27.427675       37.286662
  H           10.919143       27.608388       37.746363
  O           16.594571       37.723702       34.541069
  H           16.124824       37.084556       35.081953
  H           16.256304       38.575004       34.830035
  O           13.056050       34.276852       34.888707
  H           13.925438       33.880897       34.793266
  H           12.500892       33.782693       34.280226
  O           13.804406       34.430056        9.626064
  H           14.741010       34.301214        9.793091
  H           13.523247       33.614705        9.203224
  O           13.214324       33.879847       40.960968
  H           12.353224       34.290850       40.854630
  H           13.170119       33.452563       41.820105
  O           11.450002        1.695434       36.338157
  H           12.048969        1.279944       36.962922
  H           12.008969        1.933404       35.594136
  O           26.834294       14.581384        7.065822
  H           27.577788       14.897232        7.584649
  H           26.714732       15.251432        6.388045
  O            3.423221       17.570936       30.159055
  H            3.605081       17.087991       29.349477
  H            4.205632       18.111238       30.295251
  O           18.255825       24.504980        6.827921
  H           18.109497       25.404786        6.526818
  H           19.134675       24.286379        6.507799
  O           26.985256       17.199234        8.668340
  H           26.353652       17.550264        8.036217
  H           27.788995       17.073567        8.157602
  O           34.794462       15.067014       21.556797
  H           34.147075       14.400560       21.798571
  H           35.508530       14.945724       22.187699
  O            3.242936        8.765736       37.912917
  H            3.983887        8.873780       37.312047
  H            3.187311        7.817354       38.054756
  O           13.408843       42.000000        2.936374
  H           12.475089       41.855029        3.106115
  H           13.847034       41.262431        3.368371
  O           25.653160       15.054372       39.340694
  H           25.786413       15.191758       38.399900
  H           26.537377       14.914247       39.688785
  O           36.622205       20.466746        1.766900
  H           37.143503       21.225492        2.039440
  H           35.918780       20.841024        1.230475
  O           28.797944       38.011505       38.442792
  H           28.973550       38.927318       38.671208
  H           27.976789       38.043053       37.945448
  O            7.664101       38.370933       24.534088
  H            8.101299       37.535033       24.712566
  H            6.933275       38.139005       23.955516
  O           28.824641       32.241220       21.330393
  H           29.627188       32.673330       21.028857
  H           29.121447       31.640487       22.018628
  O           28.734464       27.523745        6.807768
  H           28.601947       28.086766        6.041496
  H           29.139601       28.100586        7.460271
  O           37.114303        8.065307       19.770804
  H           36.531427        8.788098       19.526771
  H           36.643178        7.604649       20.469715
  O           40.435701       35.900710        5.975871
  H           40.716251       35.179366        5.407822
  H           41.071084       35.897890        6.696233
  O           13.253312       29.856963       38.159811
  H           14.157297       29.627419       37.932116
  H           13.341576       30.494654       38.872694
  O           28.750449       37.307560       14.246987
  H           27.826510       37.391236       14.494087
  H           29.199315       37.097997       15.069936
  O           20.827961       39.980405       23.833498
  H           20.820837       39.028298       23.956649
  H           20.292936       40.318302       24.556144
  O            0.964904       36.735477       14.969227
  H            1.460496       37.379080       14.457478
  H            1.553472       35.979276       15.035481
  O           20.793597       15.146146        9.781525
  H           20.637360       15.500856       10.659873
  H           20.410287       14.265805        9.808244
  O           20.476410       13.064138       37.969561
  H           20.816844       13.725896       37.363009
  H           19.532475       13.238023       38.006875
  O            7.422539        6.251595       35.810564
  H            7.360536        6.785323       36.606186
  H            7.347250        6.884798       35.092213
  O           38.819525       37.082257       11.905768
  H           39.293582       37.906649       12.037571
  H           39.288411       36.649777       11.187611
  O           41.156621       33.793608       21.421112
  H           41.999970       34.197555       21.638630
  H           40.588634       34.534499       21.195027
  O            4.797970       36.544307       40.504476
  H            5.475691       35.930987       40.798173
  H            4.057514       36.381803       41.094357
  O           12.496963       36.457981       29.210691
  H           12.091061       36.399224       28.342638
  H           12.980078       35.633072       29.304327
  O            0.355169        6.334587        5.030366
  H            0.510349        5.390260        4.953611
  H            0.332136        6.496270        5.976923
  O           30.675429        4.114999       29.400017
  H           31.007044        3.422827       29.976780
  H           29.730653        3.949687       29.347948
  O           26.130229        2.102918       15.264975
  H           26.881486        1.847411       15.805396
  H           26.045452        1.392941       14.623580
  O           11.441917       38.281539       27.275183
  H           12.297204       38.286670       27.711283
  H           11.422236       39.103889       26.779205
  O            6.304146       16.568410        0.750890
  H            6.561267       15.696273        1.059093
  H            6.993104       17.150653        1.080999
  O            5.362989       34.219167        0.784269
  H            4.639445       34.765982        0.469305
  H            5.976214       34.186528        0.045667
  O           41.917752        7.289846       16.383493
  H           41.587712        7.900345       17.046886
  H           42.000000        6.453622       16.848904
  O           41.256679       35.760723       36.195583
  H           41.588529       35.608767       35.307602
  H           40.483590       36.316631       36.069326
  O            4.699856       35.652004        5.711949
  H            4.355253       36.462666        6.093787
  H            4.656439       35.013703        6.428420
  O           29.525141       20.732350       20.541438
  H           29.807364       20.087463       21.194275
  H           30.344130       21.101576       20.201481
  O           11.513402       39.308310       23.724100
  H           12.183056       38.857337       24.243630
  H           11.947169       39.496896       22.888083
  O           24.492934        6.671988        0.000000
  H           24.208938        6.129367        0.739347
  H           25.437547        6.782711        0.134494
  O           17.261171       14.802441       29.198038
  H           17.359232       15.710540       28.902292
  H           16.393443       14.777989       29.609246
  O            2.237951       16.675347       26.781273
  H            1.308932       16.904038       26.701595
  H            2.298075       16.210809       27.619861
  O           17.704603       40.427580        4.294399
  H           16.998776       41.033940        4.058051
  H           18.501282       40.962885        4.257078
  O           30.319902       29.741035       40.076499
  H           31.195258       30.078700       39.872883
  H           29.723616       30.314837       39.588813
  O           12.890546        4.089809       22.225187
  H           12.563511        3.742723       23.058437
  H           12.279437        4.797545       22.005423
  O            4.053139       18.268217       22.300004
  H            4.061290       17.494236       21.732015
  H            4.721894       18.083516       22.964303
  O            3.158380       30.647052       30.387137
  H            2.682612       31.113365       31.078457
  H            2.635198       29.857225       30.228722
  O            7.247891       22.263030        0.030781
  H            6.726623       23.068671        0.000000
  H            8.062770       22.522845        0.467943
  O           21.727234       11.868447       36.331727
  H           22.538605       12.373677       36.421971
  H           21.762632       11.518151       35.438037
  O           29.262890       31.297092       11.371949
  H           28.782366       31.646016       10.617579
  H           28.845520       30.450407       11.549628
  O           19.539941       34.969395        0.306352
  H           19.932646       34.148629        0.000000
  H           18.630524       34.927515        0.000003
  O           24.921416       33.134832       32.558114
  H           25.236994       32.400281       33.089688
  H           24.648309       32.730406       31.730772
  O            4.456525       12.778347        9.180269
  H            4.413503       11.819748        9.149231
  H            4.344868       13.051748        8.266252
  O            6.809432       30.380457       24.093237
  H            6.636411       30.825245       23.260198
  H            7.134135       29.513356       23.837610
  O           39.615881        1.028714       34.665963
  H           39.449548        0.091413       34.541358
  H           38.740819        1.420167       34.726569
  O            9.047968       22.328020       23.595829
  H            9.331463       23.244627       23.561393
  H            8.345433       22.320178       24.250829
  O            1.665271       11.727572       21.254603
  H            0.953019       11.431952       21.826469
  H            2.173054       12.333618       21.800045
  O           28.988324        1.395008       15.886860
  H           29.682498        1.099611       15.293069
  H           29.007667        0.762603       16.609585
  O           37.885939        8.504708       28.165518
  H           38.747797        8.146124       28.389887
  H           37.542963        7.902548       27.500376
  O           15.125746        3.726500       35.684841
  H           15.308292        4.375206       36.368641
  H           15.980047        3.562662       35.277447
  O           20.786001        4.273100       41.123532
  H           21.349548        3.657129       41.597576
  H           21.303515        5.080854       41.075014
  O           11.958999       29.873717       40.607367
  H           12.279102       29.009063       40.875009
  H           11.398161       29.695815       39.848121
  O            7.892622       14.539694       17.729256
  H            7.735175       15.401469       18.122039
  H            8.520630       14.710767       17.022868
  O           27.214604       37.048402       30.326530
  H           27.780358       36.451457       29.831249
  H           27.788990       37.781720       30.560982
  O            4.193563       17.722994       15.339117
  H            4.242106       18.564265       15.799152
  H            4.351030       17.945474       14.418059
  O           13.656359       24.030495       20.751100
  H           13.646015       24.920535       20.391314
  H           14.573276       23.754041       20.677083
  O           37.254101       17.956326       12.356097
  H           37.713491       18.766650       12.123584
  H           37.737745       17.616956       13.113433
  O           18.691151       36.764570       21.144668
  H           18.800372       36.110933       21.839329
  H           18.192394       36.307064       20.463073
  O            7.721946       32.617715       21.289662
  H            7.244766       31.877448       21.671798
  H            7.816714       33.240271       22.014980
  O           16.481580       17.918931       32.805698
  H           15.831856       17.232057       32.972397
  H           16.086736       18.458267       32.115874
  O           30.289178        8.613488       20.062820
  H           29.933888        8.050604       19.370971
  H           31.162337        8.253603       20.238087
  O            8.805213       37.345567       41.154041
  H            7.907459       37.654262       41.010966
  H            9.055919       37.725226       42.000000
  O            2.415880       41.060041       22.431009
  H            3.025314       41.648356       22.882895
  H            2.834192       40.888588       21.583507
  O           18.334018       32.778873        6.301838
  H           19.029331       33.072494        6.895178
  H           18.581081       31.879683        6.071491
  O           34.673863       15.111729        3.265049
  H           34.382746       15.971590        3.577484
  H           35.195355       15.306500        2.482264
  O           25.999627       28.124975       21.427629
  H           25.149830       28.551768       21.559606
  H           26.015708       27.910107       20.491565
  O           25.169238       26.901780       36.305985
  H           24.731516       26.885813       37.160309
  H           24.597815       27.443034       35.755384
  O           23.578836        0.970584       10.862063
  H           23.204361        1.798943       10.553333
  H           22.815063        0.426040       11.068860
  O            7.388146       25.897037       22.007606
  H            7.593710       26.834815       22.001303
  H            6.657171       25.817326       22.625640
  O           22.449305       33.501240       11.489644
  H           22.407333       34.395003       11.837712
  H           23.291866       33.463716       11.029943
  O           14.968663       22.933747       41.198566
  H           15.495079       22.885637       42.000000
  H           15.302306       23.709219       40.740343
  O           32.042178       27.970428       38.642337
  H           31.104239       28.065677       38.823786
  H           32.204545       28.566768       37.907042
  O           25.674392       30.293872       13.938654
  H           26.330949       29.618425       14.124204
  H           25.762962       30.917966       14.663433
  O           35.563203       22.344614        2.786366
  H           35.708271       22.966834        2.069761
  H           36.165377       22.632076        3.477304
  O           39.299169       34.222551       35.627735
  H           38.745791       34.942931       35.938462
  H           38.756570       33.438342       35.742812
  O           25.962489       14.124777        2.064252
  H           25.142834       13.656363        1.889666
  H           26.650174       13.509853        1.796670
  O           25.036555        9.781134        0.244346
  H           25.406027       10.666877        0.270324
  H           24.985406        9.516989        1.166438
  O           39.662618       21.767899        1.413685
  H           39.443515       20.969602        0.927433
  H           40.425990       21.522888        1.942718
  O            2.327285       27.191920       34.860495
  H            3.070522       27.776680       35.025963
  H            2.477437       26.444329       35.444622
  O           23.385798       15.567120        1.360572
  H           22.526525       15.835401        1.694338
  H           24.013310       16.069197        1.886680
  O           26.133327        5.534978       24.304563
  H           25.696009        6.371747       24.130507
  H           26.243604        5.517496       25.258594
  O            9.632969        6.925910       33.013285
  H            9.827673        6.715690       32.096975
  H           10.058869        7.774462       33.158924
  O            2.401382       35.722303       33.679877
  H            1.691472       36.263224       34.033654
  H            1.989738       35.223252       32.969849
  O           12.493641       12.357057       34.452430
  H           12.808525       13.076029       35.005289
  H           13.062776       11.616627       34.677132
  O           14.991332       21.790055       34.370466
  H           15.258733       21.252678       33.621168
  H           15.809150       22.182532       34.686342
  O           19.397918       38.633699       32.885245
  H           19.628492       38.864292       31.982256
  H           18.783999       39.320498       33.157370
  O           40.765901       37.911070       10.676429
  H           41.185923       38.232618       11.477624
  H           41.495741       37.612613       10.127886
  O           39.032563        9.304130       18.940537
  H           38.383968        9.959389       19.208279
  H           39.518315        9.726832       18.227789
  O           34.147207       22.094813       39.520711
  H           33.686324       22.637637       40.164647
  H           34.876277       21.708617       40.012598
  O           32.080285        4.886059        1.277602
  H           32.585722        4.230129        1.763414
  H           32.084760        4.567374        0.371478
  O            7.065050        2.454974       23.148429
  H            7.509432        2.439443       23.999315
  H            7.774653        2.567277       22.510859
  O           27.769707       12.511563       11.126892
  H           28.580839       11.999202       11.091176
  H           27.989273       13.336618       10.686759
  O           40.053036       18.725492       34.450216
  H           40.649182       19.439447       34.688129
  H           39.629952       18.482431       35.277600
  O           29.971463        0.670732       25.223373
  H           29.285554        0.000000       25.186338
  H           30.628898        0.306672       25.821605
  O           36.432619       38.062772       19.417343
  H           36.018947       38.892689       19.168672
  H           36.931862       37.802600       18.639070
  O           25.679124       38.306808       22.693130
  H           25.299175       38.591488       23.527588
  H           25.792117       39.119133       22.193128
  O           40.253598       19.364707        6.154265
  H           40.969158       20.004007        6.122735
  H           40.424006       18.779303        5.412036
  O           24.725733       17.848718       24.452718
  H           25.004844       18.694274       24.093751
  H           24.304007       18.071199       25.286559
  O            0.726109       36.568842       27.974169
  H            1.512156       36.597537       28.524652
  H            1.007120       36.105226       27.181241
  O           36.563534        1.515117       32.617240
  H           37.407865        1.782609       32.987751
  H           36.658609        0.571674       32.463883
  O            6.455809       27.508633       30.638465
  H            6.129380       26.639251       30.394861
  H            7.064844       27.340529       31.361970
  O           30.890364       21.998596        0.000000
  H           31.154123       22.902889        0.185500
  H           29.951338       21.978092        0.201126
  O           38.663642        9.559860       34.403859
  H           38.834368        8.677518       34.066147
  H           37.706564        9.639930       34.388643
  O           22.680557        2.421281       27.113625
  H           23.580292        2.248634       27.400673
  H           22.288506        2.912140       27.840258
  O           40.760599        5.077971       32.144624
  H           40.197156        5.835485       31.970185
  H           40.148822        4.372804       32.370700
  O           41.264751        5.858122       23.559786
  H           42.000000        5.373695       23.177079
  H           41.672675        6.437357       24.208421
  O           26.770140       17.418486       31.967738
  H           27.666944       17.097906       32.088968
  H           26.221200       16.637659       32.075517
  O            2.159929       31.427436       11.710564
  H            2.914412       31.613469       12.274364
  H            2.438661       30.677510       11.178999
  O           27.166472       22.555877       35.756613
  H           26.938603       23.303500       35.199065
  H           26.340341       22.317000       36.184501
  O           24.996336       10.238878       12.477819
  H           25.414967        9.469706       12.871323
  H           24.737940        9.946767       11.600013
  O           23.498031       20.763457       18.740791
  H           22.627508       20.384701       18.883825
  H           23.766867       21.077386       19.607865
  O           18.003187       36.842960       37.181560
  H           17.827288       37.552814       36.559554
  H           17.650447       37.163741       38.015416
  O           40.836313        2.515332        7.939447
  H           40.732747        3.288038        7.379158
  H           41.562688        2.028346        7.542123
  O           22.562438       40.318676        2.604555
  H           23.388229       40.404112        3.086731
  H           21.882981       40.465209        3.267509
  O           30.618524       17.414717       40.160079
  H           30.505195       16.556576       39.744777
  H           30.458610       17.251103       41.092978
  O           12.550256       29.313000       21.305413
  H           12.027861       29.094818       22.080800
  H           13.041556       28.509830       21.115193
  O           20.180451        3.112371       10.374552
  H           20.983433        3.498423       10.732196
  H           20.221870        3.304336        9.434298
  O           28.406666       27.267518       30.293185
  H           28.784234       28.145929       30.380144
  H           28.411273       26.916434       31.187255
  O           32.381375        0.882920       28.604314
  H           31.864721        0.286581       28.057346
  H           31.740045        1.272299       29.204081
  O           18.643446       12.255171       21.061445
  H           18.798711       13.196496       20.954089
  H           19.406282       11.839439       20.651702
  O            5.423929       11.264182       27.827691
  H            4.914580       10.578386       27.389545
  H            5.131607       12.079893       27.413197
  O           32.784916       31.225468       35.810997
  H           32.142231       31.807406       35.398651
  H           33.403736       31.820665       36.241631
  O           28.372360       21.856823       33.813973
  H           29.090804       22.449724       34.046421
  H           28.752350       21.267746       33.157285
  O           25.585597        5.060233       38.611003
  H           25.219692        5.566722       39.339910
  H           26.473906        4.835406       38.899105
  O           17.246853       25.113171       23.339129
  H           17.003041       24.199042       23.502368
  H           16.408032       25.566670       23.223546
  O           39.929160       36.866465       17.706125
  H           40.232674       36.317120       18.432640
  H           40.730459       37.266057       17.358435
  O           21.142640       33.234891        8.739555
  H           20.852890       32.402983        9.121260
  H           20.797529       33.903969        9.336109
  O           10.340307       26.160872       39.018063
  H           11.279959       26.009098       38.892583
  H           10.031539       25.376605       39.478746
  O            4.250111       37.011420        2.781532
  H            5.075505       37.059817        2.293570
  H            4.518904       36.993358        3.703522
  O            5.181518        3.993649       33.027348
  H            4.776192        3.181858       32.713609
  H            4.485553        4.431074       33.524273
  O            0.552880       25.426342       35.764740
  H            0.367957       26.027461       36.490126
  H           -0.000000       25.742913       35.045887
  O           41.168054       34.639521       10.822569
  H           41.491482       33.942586       10.246894
  H           41.915870       35.234408       10.920151
  O            1.755931       38.812351        3.229619
  H            1.882540       38.769121        4.180316
  H            1.704420       37.893666        2.953925
  O           26.079580        4.148589       27.202088
  H           25.216611        3.874493       26.882899
  H           25.887063        4.807882       27.873588
  O           19.085818       37.103588       28.679742
  H           18.573475       37.875692       28.930909
  H           19.754686       37.445658       28.081206
  O           10.320008       14.961899        5.293256
  H            9.862088       14.520171        6.012220
  H            9.796856       15.749878        5.125795
  O           18.429196       33.557055       38.539089
  H           17.693004       33.024134       38.229666
  H           19.046106       32.920038       38.908242
  O           25.689368       13.720989       30.632019
  H           26.610811       13.652080       30.892636
  H           25.207367       13.294604       31.345120
  O           29.656800       18.152005       31.023051
  H           30.511724       18.367347       30.642975
  H           29.388946       17.349527       30.568160
  O           23.838361       17.213411       38.634643
  H           23.996731       17.725688       37.838266
  H           24.608612       17.381490       39.183374
  O           33.614524        3.048850       28.623458
  H           33.633896        2.724884       29.527004
  H           34.131968        2.408028       28.129252
  O           27.781461       40.163052       20.645125
  H           28.122844       40.790664       21.286440
  H           27.043706       40.620179       20.233550
  O           13.774561       13.585970        5.482146
  H           14.278328       14.381674        5.295602
  H           13.121844       13.863398        6.129940
  O           26.294831       42.000000       22.149052
  H           25.505373       41.456952       22.089223
  H           26.681583       41.765913       22.996559
  O           41.174547       13.682947       21.277553
  H           42.000000       13.778483       21.758413
  H           40.574771       13.280858       21.910984
  O           24.402391       30.777566       41.953254
  H           24.517362       31.039479       41.036789
  H           23.495202       30.465372       42.000000
  O            4.369899        7.001638        6.896208
  H            4.917952        6.365611        6.430555
  H            4.520866        7.830021        6.434003
  O            8.827810       10.584752        2.311126
  H            8.095207       11.179400        2.133895
  H            9.496967       10.832554        1.668113
  O           39.150358       36.340771       24.434962
  H           39.775611       35.679915       24.741642
  H           38.630405       35.885604       23.767794
  O           16.961650       26.280419        3.630755
  H           17.753117       25.746461        3.529790
  H           16.239582       25.672470        3.452829
  O            8.981183       29.043851        6.727778
  H            9.261423       29.357471        5.864741
  H            8.838458       29.845157        7.237857
  O           27.950825       34.105439       16.296010
  H           27.936317       33.327712       15.733289
  H           28.077859       34.837697       15.687485
  O           25.851360        9.018132       17.106566
  H           26.353145        9.822195       16.953533
  H           24.953549        9.322993       17.260313
  O           38.783250       41.260591       36.483216
  H           38.635362       40.986708       37.391425
  H           38.985862       40.444910       36.018184
  O           17.576077       24.266966       36.405473
  H           16.838583       24.750531       36.784937
  H           17.184561       23.453056       36.078507
  O           15.535843       41.246405       22.566347
  H           15.117416       40.501504       22.128435
  H           14.989472       42.000000       22.329248
  O           28.914398       37.069183        4.622821
  H           29.090447       37.923077        5.024811
  H           28.187457       36.708910        5.137022
  O           30.331460       16.969041       11.958526
  H           29.419069       16.920128       12.253272
  H           30.280649       17.383168       11.093332
  O           11.511559       10.274111       30.092805
  H           11.695351       11.202087       29.929081
  H           10.946545       10.010428       29.362140
  O            5.922904        2.104038       17.471568
  H            6.680934        1.795176       17.973284
  H            5.473048        2.708620       18.067179
  O           39.812281       25.042877       38.801383
  H           40.727955       25.272898       38.975612
  H           39.860046       24.390001       38.098451
  O           31.947877        2.328033       42.000000
  H           31.331014        1.695960       41.623587
  H           32.680685        2.344697       41.379229
  O            7.334795       39.121422       34.667974
  H            6.966399       38.521778       35.320995
  H            6.623250       39.252210       34.036120
  O            7.494348       38.436391        1.903511
  H            8.296292       38.929241        1.714540
  H            7.759438       37.515478        1.838023
  O           36.588579       22.852009       41.944120
  H           36.725158       23.682532       41.482274
  H           36.775969       22.178987       41.284901
  O            5.329102        7.037618       12.358467
  H            6.053789        6.522380       12.720520
  H            4.985268        6.495963       11.643603
  O           16.543298       36.941480       10.419195
  H           17.289198       37.545072       10.387040
  H           16.785731       36.230739        9.820266
  O           33.672852       25.755144       34.765879
  H           32.821860       25.327913       34.888393
  H           34.240750       25.061081       34.421771
  O           35.417464       38.393121       41.714779
  H           35.423545       39.309820       42.000000
  H           36.070483       38.357979       41.011236
  O           28.176586        7.003679        2.783716
  H           27.514375        6.357325        2.527927
  H           28.569302        6.639866        3.581248
  O           38.206506        1.239992       16.897803
  H           38.774544        0.506896       17.146053
  H           37.669680        0.893423       16.180621
  O           32.537059       24.735582       23.062065
  H           33.246077       25.368945       22.928384
  H           31.745623       25.200335       22.778735
  O           37.028795       13.645166       29.370203
  H           36.941048       13.642758       28.414159
  H           37.345242       12.763519       29.582812
  O           31.913631       28.665249       28.163346
  H           32.638952       29.262357       28.361073
  H           31.357735       28.697978       28.946002
  O           19.549216        3.561446       29.784766
  H           19.595897        4.090668       30.584435
  H           19.391060        2.667717       30.099215
  O           14.994029       18.748952        6.340379
  H           14.704765       17.841557        6.461568
  H           14.440482       19.082795        5.629903
  O            8.921940        4.208452       16.695828
  H            7.964302        4.209829       16.764050
  H            9.206633        4.877743       17.323237
  O            2.605606       33.568739       17.969457
  H            2.577538       33.922520       17.077394
  H            2.709040       32.621640       17.847202
  O           30.070304       28.266126       24.203702
  H           30.107287       29.225392       24.190803
  H           30.768972       28.008721       24.810536
  O           21.228155       18.399792       20.133101
  H           21.084531       17.693258       20.767063
  H           21.231341       17.957885       19.280253
  O           22.097373       28.973655       18.246258
  H           22.810360       29.569200       18.003975
  H           21.614856       29.445128       18.930021
  O           36.981152       34.414285       20.084507
  H           37.731543       34.970884       19.863518
  H           37.163655       34.111585       20.977652
  O           26.227583       32.870942       19.959009
  H           26.815850       32.195534       19.613335
  H           25.889909       33.315737       19.177488
  O           10.116301        0.587331        3.568622
  H            9.187441        0.495306        3.793290
  H           10.580820        0.175145        4.301402
  O           18.122547       16.461254       30.856435
  H           18.912368       15.954763       30.653029
  H           18.360978       16.972900       31.633617
  O           13.835646       40.876014       10.802085
  H           13.462633       40.103283       10.371420
  H           13.350277       41.615377       10.427383
  O           13.153325       24.571795        6.825743
  H           13.610042       24.937980        7.586692
  H           13.840252       24.117805        6.331104
  O           14.729245       28.027898        4.007333
  H           13.916071       28.321470        3.589855
  H           15.229048       27.620306        3.295498
  O           23.133568       17.588234       35.339338
  H           22.503298       18.031012       34.766248
  H           22.983163       16.652774       35.181427
  O           14.683766       37.622654       18.055912
  H           15.562307       37.477987       17.696801
  H           14.592278       38.578402       18.084506
  O           17.648569       16.329273       40.478886
  H           16.862924       15.795811       40.337798
  H           18.070612       16.364831       39.616763
  O           38.845865       37.409523       15.431409
  H           39.699716       37.032827       15.656719
  H           38.589566       37.904241       16.213846
  O           15.448656       22.397354       16.259707
  H           15.344590       22.978808       17.016547
  H           16.116094       21.764054       16.535569
  O           18.689857        5.393259       27.655884
  H           18.713239        6.296581       27.331559
  H           18.690005        5.483200       28.612206
  O            8.593813        6.446451        6.496164
  H            8.220845        6.964522        7.213257
  H            8.204601        5.574959        6.604131
  O            2.672564        8.389576       27.573894
  H            1.775204        8.519303       27.889554
  H            2.785897        7.435807       27.562873
  O           21.872686       11.873013       39.182672
  H           22.260667       12.722156       39.406617
  H           22.444161       11.523935       38.494048
  O           30.100009       35.136660       35.590366
  H           29.879205       36.064954       35.696386
  H           30.898562       35.140978       35.056571
  O           36.050035       41.866176       19.519162
  H           35.646062       40.995495       19.498037
  H           36.769167       41.780117       20.150101
  O           40.925248       17.852274       36.935937
  H           41.090164       17.963329       37.875189
  H           41.156438       18.701501       36.551219
  O           32.088954       17.497044       13.380984
  H           32.565843       18.086355       13.970063
  H           31.748927       16.807815       13.957167
  O           28.679502       10.465208       18.389820
  H           28.397636       11.374321       18.264158
  H           27.923132       10.035155       18.796761
  O           14.950342       11.990038       37.358938
  H           15.759365       12.269114       36.923825
  H           14.386803       11.686701       36.642662
  O           24.429757       22.060793       32.340059
  H           23.573260       22.004044       31.910039
  H           24.634732       22.999210       32.340280
  O           17.549737       14.175541       22.526007
  H           17.311706       14.011919       23.441591
  H           17.103486       14.997413       22.306853
  O           34.788145       20.062129       29.688018
  H           34.100940       20.673354       29.963477
  H           35.463217       20.622702       29.297278
  O           27.060464       32.735257       30.567913
  H           27.908237       32.396816       30.270485
  H           26.653292       31.992958       31.021616
  O           26.387644       17.559867       13.168620
  H           26.905192       17.964808       12.468697
  H           26.706267       17.977417       13.972843
  O           22.649007        9.417236       25.586326
  H           23.305109       10.031343       25.248498
  H           22.522840        8.786732       24.872752
  O           20.137961       22.558121       17.410875
  H           19.455687       22.880817       16.817499
  H           20.866842       22.323461       16.830954
  O           34.647254       39.140652       32.635988
  H           35.210752       38.370182       32.533175
  H           34.716415       39.364017       33.567635
  O           14.435068        6.551779       25.236478
  H           13.581695        6.223460       25.529200
  H           14.239314        7.404698       24.840433
  O            2.276444       17.315475       17.414422
  H            3.168614       17.542638       17.686735
  H            2.339460       17.201057       16.462803
  O           40.260269       12.557730       39.970829
  H           41.132112       12.225281       39.744794
  H           40.208304       12.461193       40.925095
  O           10.459118       17.938752       30.431164
  H            9.643882       18.431301       30.310702
  H           10.231412       17.251509       31.062423
  O           21.101273        5.350625       19.942363
  H           20.605563        4.861682       20.603371
  H           21.872361        5.675117       20.414347
  O           19.805262       29.232307        4.194133
  H           18.908428       28.894297        4.137886
  H           20.342990       28.551361        3.782061
  O           29.538865       20.519004       14.746963
  H           30.257384       19.920036       14.530878
  H           28.986566       20.522154       13.961089
