53
Properties=species:S:1:pos:R:3:forces:R:3 XYZ=T file=T generated=T by=T Avogadro.=T energy=-352.11151123046875 stress="inf nan inf nan inf -inf inf -inf inf" pbc="F F F"
N        1.32624323      -3.50128957       5.15577309      -0.00249138      -0.00332868       0.00282161
C        1.86377588      -4.65000588       5.89084033       0.00088748      -0.00415441       0.00255191
C        1.68686048      -5.99487761       5.19818709      -0.00428942       0.00029087      -0.00299419
N        0.28183716      -6.33714070       4.93962986      -0.00116145      -0.00383800       0.00317258
C       -0.37162261      -6.82501799       6.15780291      -0.00129059       0.00028786       0.00147940
C       -1.89387640      -6.76696432       6.13763789       0.00141513      -0.00081116       0.00157746
N       -2.42676761      -5.41301962       5.94660732       0.00242519       0.00034431       0.00138164
C       -2.35498201      -4.63812259       7.18787860      -0.00085055       0.00511575      -0.00256169
C       -2.44423445      -3.12895548       7.00342730       0.00234163       0.00271332      -0.00209464
N       -1.37653456      -2.57799948       6.16135181       0.00079186       0.00062940      -0.00024793
C       -0.12217975      -2.46673134       6.91113413      -0.00115368       0.00087629      -0.00089183
C        1.12948568      -2.35471982       6.05129528      -0.00512254      -0.00013077       0.00072165
C        2.20198213      -3.12657249       4.03102134       0.00183442      -0.00180590       0.00098151
C        2.12684870      -4.11880695       2.86026080       0.00124693      -0.00873375      -0.00208843
O        0.93231031      -4.50083514       2.58450427       0.00068390      -0.00087166      -0.00145257
O        3.15880352      -4.46093331       2.30739258       0.00065589      -0.00169587       0.00301576
C        0.18471806      -7.32248221       3.84710723      -0.00103891       0.00234981       0.00184318
C       -1.23678685      -7.42918143       3.27206056       0.00275886      -0.00079238      -0.00462711
O       -1.80683449      -6.29230790       3.09135299       0.00335574      -0.00343549       0.00034136
O       -1.70318826      -8.53371492       3.04635373       0.00150025       0.00598025      -0.00011885
C       -3.80394331      -5.46730101       5.42323372       0.00214624       0.00206196       0.00065935
C       -4.26735850      -4.13201949       4.81985012      -0.00469875      -0.00056636      -0.00219673
O       -3.38431794      -3.56038968       4.08187746      -0.00007701      -0.00335729       0.00562668
O       -5.39067357      -3.72886212       5.07281828       0.00435495      -0.00444996       0.00221115
C       -1.78507307      -1.27883234       5.59716199       0.00060439      -0.00032946       0.00155056
C       -0.90660984      -0.84455251       4.41320983       0.00469750      -0.00253981       0.00566518
O       -0.65490855      -1.79235820       3.58289903       0.00100774       0.00504673       0.00064802
O       -0.52635833       0.31262902       4.35357217       0.00209224      -0.00094461      -0.00188074
Pr      -1.08069549      -4.12926752       3.81467916      -0.00193219       0.00016425       0.00555514
H        2.93672236      -4.51022486       6.08907395       0.00290883      -0.00158226       0.00075316
H        1.37472255      -4.67689497       6.86634134      -0.00134659      -0.00016395       0.00145391
H        2.21209180      -5.99241493       4.24557924      -0.00109839      -0.00147334      -0.00068006
H        2.17436806      -6.76083354       5.81994871      -0.00447874       0.00520295      -0.00661901
H       -0.07738774      -7.86568501       6.36011217       0.00072528       0.00371769      -0.00031009
H        0.00455115      -6.23393582       6.99488709      -0.00147415       0.00235549      -0.00189334
H       -2.25797231      -7.21062447       7.07641376       0.00177950       0.00417893       0.00217324
H       -2.27637103      -7.39276535       5.33443295      -0.00016190       0.00165793       0.00053620
H       -3.15820908      -4.93907452       7.87674137       0.00341526      -0.00403966      -0.00392330
H       -1.41578206      -4.89113425       7.68396009      -0.00583994       0.00141914      -0.00239576
H       -3.39871203      -2.86749541       6.55106415       0.00366679      -0.00008187      -0.00125957
H       -2.44053886      -2.66839370       8.00265027      -0.00210736      -0.00537486      -0.00013342
H       -0.15143070      -1.59305759       7.57888362       0.00170716      -0.00342783       0.00201377
H       -0.04464965      -3.34292528       7.55788548       0.00079795       0.00298819      -0.00211425
H        1.07801407      -1.45698258       5.43880854      -0.00132044      -0.00188628      -0.00055173
H        1.99008725      -2.22263952       6.72399278      -0.00565898       0.00032790      -0.00310081
H        1.82828018      -2.17817000       3.63809565      -0.00518970       0.00532240       0.00016518
H        3.23989263      -3.00518752       4.35565050       0.00875899       0.00115063      -0.00358826
H       -2.79060590      -1.41048823       5.19084828      -0.00542048       0.00239898      -0.00160843
H        0.80947439      -6.95459428       3.02963071       0.00209442      -0.00044443       0.00004333
H        0.53673339      -8.30915273       4.16391141      -0.00320912       0.00004464       0.00223152
H       -1.79542696      -0.49631122       6.36187510       0.00156536       0.00715122      -0.00275251
H       -3.80224104      -6.18204192       4.59655527      -0.00200165      -0.00273764       0.00056455
H       -4.51333201      -5.79432241       6.19002621       0.00119317      -0.00077922       0.00034627
