188
Properties=species:S:1:pos:R:3 XYZ=T file=T generated=T by=T Avogadro.=T energy=-1245.360107421875 stress="inf inf inf inf inf -inf inf -inf inf" pbc="F F F"
N     18.4909013902   30.8031432273   23.0575809568
C     17.0521470550   31.1204136561   23.1078450188
C     16.6087449897   31.7512581742   24.4319599091
N     16.9292006029   30.9063193549   25.5922556530
C     15.9708006223   29.7970872023   25.7223751895
C     16.4702587351   28.6585618465   26.6097066620
N     17.7219394693   28.0921005708   26.0879185890
C     17.4388397046   27.0636072958   25.0740499263
C     18.6455109808   26.7716904076   24.1812429301
N     19.1826770292   27.9972637220   23.5726741524
C     18.4225788535   28.3940310063   22.3861021380
C     18.7446733304   29.8328964195   21.9813279851
C     19.2683411422   32.0248065436   22.8127322837
C     20.6962726840   31.8738490150   23.2321020705
O     21.0266247657   31.2110225792   24.3191404216
O     21.5680415558   32.4270730564   22.5869058611
C     17.0021517546   31.7201383494   26.8115788247
C     18.1871054537   32.6418087699   26.7934400552
O     19.3237235959   32.2932078251   26.2267850378
O     18.1012086093   33.7334918050   27.3248905990
C     18.5279995251   27.5420101350   27.1827465334
C     19.0982423398   28.6120929230   28.0583514229
O     19.4894384787   29.7761784179   27.5862474709
O     19.2247017277   28.3902671693   29.2488219143
C     20.5970244237   27.8128898000   23.2403431416
C     21.4178677878   27.9281708460   24.4716043942
O     21.0305032849   28.6946010369   25.4663920478
N     22.5728048388   27.2114662508   24.5665057415
H     16.7735721592   31.7949544068   22.2690470237
H     16.4340794142   30.2171786272   22.9497311777
H     17.0962274558   32.7431080899   24.5105295660
H     15.5196872290   31.9730586587   24.4004600587
H     15.0004261891   30.1746850341   26.1112681865
H     15.7405062754   29.3491969899   24.7378701038
H     15.6839882015   27.8756255780   26.6894617374
H     16.5846694354   29.0427779705   27.6431283150
H     17.0928600366   26.1197318019   25.5508042416
H     16.6106848390   27.3821438377   24.4101769344
H     19.4140031988   26.2692130998   24.8047434705
H     18.3752082158   26.0225475902   23.4048409906
H     18.6333227430   27.7084106306   21.5359785619
H     17.3345665054   28.3156698736   22.5762495787
H     19.7900302509   29.9025504274   21.6245369323
H     18.1533252081   30.0914801907   21.0758108533
H     20.3471975389   20.2392484917   24.0613498423
H     18.6345622849   19.8145689199   24.1071703051
H     20.7602146954   26.8400512583   22.7261894511
H     16.0587178351   32.2896666630   26.9623430572
H     17.1499234016   31.0890387794   27.7098570261
H     21.0127882185   28.5913463362   22.5758941093
H     17.9247905046   26.8302211303   27.7894810866
H     19.4027904702   26.9788754283   26.8048191703
C     23.4174665654   27.1760452203   25.7570322486
H     22.8529996154   26.6121542988   23.7576598842
H     26.8748855836   27.3120202959   23.4831502919
H     24.0981150787   29.9090539198   25.5479991101
C     24.8966494956   27.1928181176   25.3622395829
C     25.3149013296   28.4088041200   24.5322998400
H     25.5153984580   27.1535043674   26.2843095640
H     25.1289999434   26.2896860362   24.7603456237
H     27.4973938484   31.5554875599   23.5344759332
C     26.7673620686   28.2305542554   24.0984017845
C     25.1635659892   29.7174338516   25.3066564575
H     28.3346204493   29.2629960180   23.0362458319
C     25.6732397290   30.8975782540   24.4937815585
H     25.5733063231   31.8274252092   25.0910723403
C     27.2675224758   29.4210097014   23.2981535647
C     27.1313315410   30.6886044984   24.1226349076
C     23.0802752199   25.9339796937   26.5879447898
H     23.2416164327   28.0609056858   26.4045070794
O     21.8788173514   26.1461047147   27.2663627116
N     22.9550798579   24.7466964674   25.7439610657
C     22.7630993185   23.5053480985   26.4988903340
C     21.3714449305   22.9467631936   26.2060952046
S     21.0632403358   22.8229705224   24.4150399924
N     24.5237153737   21.8987824205   27.2016578774
C     23.8354609027   22.4953971712   26.1881326726
O     24.0900515506   22.2172452968   25.0266862027
H     14.4006580120   23.6081891432   23.2082276444
H     20.6267837295   23.6585051372   26.6196581344
H     21.2540349259   21.9582543931   26.6985799571
C     25.5873963574   20.9130229481   27.0202415504
C     25.1327000547   19.5333108780   27.4970091958
O     29.1864422122   25.9434245133   25.5155809925
C     26.8453550711   21.3074793629   27.7913017348
O     24.2257815524   19.6080880085   28.5572021018
H     27.2266676600   25.9717097515   27.3232963669
N     24.6307891851   18.7368365473   26.3848840544
H     28.5559860783   21.4775791912   25.6462732951
H     28.6749506292   26.6921786983   25.1205262044
C     27.7447417526   25.0057975827   27.1562757778
C     28.2514065415   24.9290258349   25.7229833771
H     26.4802421864   23.9389555758   28.5275618111
H     25.8908128586   20.8317204173   25.9543124015
C     27.5699004473   22.5480546927   27.2701224019
H     26.6154712359   21.4303912128   28.8709721292
H     27.5760960088   20.4746739715   27.7056467086
C     28.0040101858   22.4265201203   25.8124141414
H     29.2134671922   23.5197852637   24.3831301308
C     26.8088561844   23.8500553641   27.4714886968
C     28.9169630709   23.5876235172   25.4510983736
C     24.0433161984   17.4457305514   26.7408086883
C     24.8789278652   16.5434018956   27.6759849902
H     25.4486081815   18.5582259148   25.7580464316
H     27.1854133774   17.7069588948   29.1498381708
C     23.5807963958   16.7695750636   25.4475604277
H     29.2260079352   17.3485647556   28.2813062754
C     26.4024403666   16.4134977224   27.5562708199
H     23.0978002838   17.6562499611   27.2859608257
O     24.6540025475   16.3974293062   24.6395839445
H     24.7232556186   16.9121289992   28.7124493658
H     24.4346309643   15.5258887523   27.6665367156
C     27.2037977746   17.6098679569   28.0430788599
C     28.5181856395   16.2723972620   26.7301771291
C     27.0952236393   16.0888011516   26.2589194398
N     28.5531951384   17.5055887805   27.4966933361
H     30.5226718186   16.3656235925   25.9237176341
C     29.3510400152   14.8652486807   24.8998038632
H     30.0121620758   14.8100167943   24.0102684510
H     25.9319652654   14.4549000639   25.4263532982
H     27.8540590217   13.5495374826   24.0707111763
C     29.4821873476   16.2316046208   25.5603649732
C     26.9773124463   14.6752758467   25.7182062291
C     27.9056107844   14.5658033171   24.5105098136
N     22.6577085470   15.6551239340   25.6748064151
O     20.8115520178   17.3327000329   24.4192908383
H     21.9287671607   15.9922644473   26.3451681191
C     21.9332365948   15.2348719805   24.4662558694
C     22.7453994147   14.1794651522   23.7063029514
C     23.0966816730   12.9778359357   24.5839946614
C     21.5088885203   16.4391675206   23.6024415814
N     20.6906891789   16.0854437472   22.4373175341
C     23.7746347354   11.8569256809   23.7995740409
H     23.7395230583   13.2874191248   25.4354828783
H     22.1513060552   12.5667617210   24.9998342321
C     25.1493676516   12.2404492023   23.2682748439
H     23.8963872031   10.9865294929   24.4776469243
H     23.1151456435   11.5497414440   22.9607730478
N     25.7397815917   11.1259135802   22.5445400515
H     25.0920395610   13.1170051930   22.5911602551
H     25.7978538488   12.4899310919   24.1308339807
H     25.1707870782   10.9573792455   21.6841152505
H     26.6863674629   11.4265385072   22.2196838202
C     20.5927562806   17.2011934808   21.4887465561
H     21.1995424806   15.3346740817   21.9249999913
C     19.7906890705   18.3302293375   22.1398853902
H     19.1068584873   18.5823617617   19.4338919345
C     19.9679166044   16.7078199926   20.1681410518
O     18.4429727958   17.9862805508   22.2655859445
C     17.9248359793   20.9708666440   21.5507041513
N     19.9991361919   19.6440141665   21.5278191613
N     16.8789885222   21.4481098730   22.4526148030
S     19.0499583687   22.1521633284   24.6378881762
H     19.8675069019   21.6645757665   21.9927895032
C     19.2961914299   20.7369615372   22.2125364084
H     22.1486459084   13.7692062106   22.8662516332
O     17.4864514481   19.8608178962   20.8263123963
C     19.3415185783   20.5895762774   23.7451770767
H     23.6607279776   14.6442055874   23.2874313740
C     15.5677358255   21.5758179164   21.8061023095
H     15.3156101164   20.6576742365   21.2312111002
C     19.8042061913   17.7884360553   19.1056026257
O     20.7715371758   15.6961952315   19.6276544819
H     21.6191245200   17.5737801175   21.2713553820
H     20.1806963202   15.1058688542   19.0927001756
H     20.7855566884   18.2383184423   18.8486543419
H     19.3656316782   17.3409552472   18.1887908344
H     17.1509864952   22.3940641126   22.8025824968
C     14.4831896101   21.7011746196   22.8827951572
H     16.1974474779   21.8822577150   19.2524311798
H     13.5987909484   20.5560387423   24.4987485952
C     15.5294505421   22.7669113652   20.8398765328
O     14.7190946637   22.8104875872   23.7031852496
O     14.2585913468   22.9388232511   20.2866531446
C     14.4140559345   20.4505178224   23.7520017477
O     16.4751359951   22.6500590845   19.8158842277
H     20.9989245102   14.7229177129   24.7918678531
H     13.4826993424   21.7894499753   22.4029535241
H     14.1976156503   19.5570313832   23.1279413867
H     15.3691390434   20.2859582424   24.2942694685
H     23.7725695311   24.6704666766   25.0995547605
H     22.7956323702   23.7001961893   27.5938511501
H     24.2828720132   22.1529790474   28.1866099343
H     21.0235077559   19.8354141269   21.6221546058
H     18.9609358478   16.2954755633   20.4036893321
H     19.1889417544   32.3465511361   21.7519509051
H     18.9013144897   32.8745229578   23.4189916691
Tb    19.1924756149   30.1597090791   25.2971980029
