        1268
  Built with Packmol                                             
  N            5.155051       16.313869        3.899987
  C            4.440306       15.493377        4.871710
  C            2.996122       15.224350        4.480288
  N            2.190165       16.444076        4.351937
  C            1.793239       16.969369        5.653896
  C            1.389598       18.434293        5.605686
  N            2.466895       19.323252        5.156368
  C            3.458623       19.545674        6.201180
  C            4.775026       20.085846        5.666382
  N            5.428649       19.182373        4.713259
  C            6.100032       18.078734        5.391006
  C            6.372670       16.896610        4.475705
  C            5.506959       15.558596        2.685729
  C            6.068811       16.488673        1.594008
  O            5.569756       17.674453        1.618964
  O            6.894363       16.043250        0.819689
  C            1.028886       16.169894        3.487855
  C            1.468531       15.839289        2.048889
  O            2.534125       16.459544        1.682797
  O            0.799311       15.058523        1.399578
  C            1.885918       20.583402        4.662635
  C            1.011131       20.347550        3.416125
  O            1.403637       19.357557        2.692789
  O            0.067424       21.087880        3.219277
  C            6.348574       19.952961        3.861441
  C            5.584637       20.971623        2.993594
  O            4.411647       20.572970        2.646869
  O            6.130433       22.021131        2.710727
  La           3.561252       18.345474        2.712867
  H            4.946707       14.527079        5.022721
  H            4.469497       16.003518        5.836771
  H            2.971786       14.708844        3.521745
  H            2.551696       14.536932        5.214781
  H            0.955537       16.391348        6.074138
  H            2.626095       16.836049        6.347025
  H            1.020002       18.734109        6.597425
  H            0.557683       18.552809        4.913675
  H            3.081414       20.243083        6.965225
  H            3.632826       18.598300        6.716115
  H            4.600074       21.034144        5.161013
  H            5.436954       20.306542        6.516383
  H            7.055102       18.405271        5.830467
  H            5.477132       17.762430        6.230204
  H            7.005101       17.219556        3.650317
  H            6.944902       16.139526        5.031581
  H            6.223621       14.757655        2.898880
  H            4.599703       15.124519        2.261351
  H            7.116029       20.466170        4.451160
  H            0.412603       15.355948        3.884670
  H            0.423080       17.074583        3.412223
  H            6.833393       19.273261        3.157960
  H            1.302003       21.090796        5.437808
  H            2.693903       21.239112        4.331773
  O           17.003534       21.482961        3.442068
  H           16.123448       21.834977        3.594576
  H           17.523240       22.246400        3.178042
  O           11.384225       19.420160        6.191865
  H           11.411207       18.503033        5.909244
  H           12.181277       19.531626        6.716198
  O            8.436809       11.811570       16.809241
  H            8.564920       12.756908       16.917169
  H            7.925117       11.731122       16.000327
  O            9.916214       10.471442        9.430331
  H            9.488402       11.051661        8.796259
  H            9.428393       10.608917       10.246280
  O            8.805070        7.437863       18.165672
  H            8.477826        6.761911       18.763774
  H            9.587967        7.046979       17.769537
  O            8.116354        4.610855        7.079097
  H            8.163005        3.663555        7.227995
  H            8.878505        4.963340        7.545489
  O            8.767226       13.301733       10.832845
  H            8.441015       12.445826       11.120481
  H            8.708529       13.269537        9.874639
  O           12.759315        3.438567       13.594293
  H           13.715345        3.474762       13.514153
  H           12.604347        3.274793       14.527998
  O           15.853617       22.351142       12.740230
  H           16.507931       21.654191       12.651582
  H           16.170578       22.883824       13.474006
  O            6.536633        3.368227        3.487797
  H            5.944408        3.886185        2.937602
  H            6.010533        2.611149        3.757418
  O            6.974773       19.844340       16.226384
  H            6.112355       19.486270       16.449421
  H            6.792706       20.742072       15.937299
  O           18.554021       17.878915       18.760297
  H           18.794521       18.695770       18.316864
  H           17.921389       18.148908       19.430762
  O           20.735831       14.659788        7.866841
  H           21.559078       14.481702        8.327575
  H           20.744947       14.055590        7.120179
  O           13.500166        3.723323       10.829298
  H           13.920613        2.860344       10.814596
  H           14.013901        4.228043       11.464889
  O            2.760961        2.342363       20.115693
  H            3.044687        1.451398       20.333424
  H            2.590602        2.314126       19.170800
  O           12.720234       18.627962       15.705320
  H           12.362046       17.769027       15.469402
  H           13.090264       18.499273       16.582337
  O            3.531111        2.776722       12.186626
  H            2.674683        2.617815       12.590366
  H            3.387999        3.534889       11.614487
  O            2.096408       10.905523        8.131003
  H            2.906791       11.270489        7.767955
  H            1.892291       11.474277        8.877660
  O            6.823198       22.242717       13.122043
  H            7.502717       22.540299       12.512597
  H            6.898579       21.285169       13.114138
  O           21.314399        0.686951        4.219457
  H           21.247535        0.323334        5.105481
  H           20.446521        1.061819        4.049450
  O           18.155254       16.730399        0.374316
  H           17.763018       15.921976        0.036189
  H           17.601927       17.430599        0.019082
  O            6.788246       10.663097       17.715725
  H            6.492625       10.300218       16.877481
  H            6.056757       10.501216       18.316857
  O            8.593830        4.803032       16.099574
  H            8.972381        5.652105       15.859785
  H            8.251843        4.936577       16.987185
  O           16.073248        1.393296       11.647911
  H           15.503446        0.909385       11.045515
  H           15.471499        1.945448       12.153548
  O            1.703492       13.352949        0.875146
  H            1.023589       12.679087        0.948408
  H            2.468996       12.883246        0.534523
  O           18.618576       10.304008       16.794023
  H           18.417602        9.726331       17.534039
  H           19.577563       10.358258       16.787484
  O            0.110167       20.793185       19.398238
  H            0.003213       19.874330       19.141349
  H            0.117118       20.773022       20.358544
  O            9.619711        3.353261       21.790907
  H            9.426584        3.913434       22.546310
  H           10.063132        3.935905       21.169180
  O           17.806738       16.645739        6.675331
  H           17.044087       17.163998        6.407947
  H           18.295324       17.226696        7.263902
  O           10.165498        6.070233       20.495899
  H           10.738200        6.838803       20.551011
  H           10.474490        5.597880       19.718693
  O            4.788190        7.842959        9.660591
  H            5.491736        7.227094        9.442743
  H            3.992845        7.427148        9.318293
  O            7.688409       16.875403       12.494849
  H            8.529048       17.234422       12.201325
  H            7.435400       17.434418       13.233856
  O           18.727848       13.611436        4.636580
  H           18.239708       13.502937        3.817023
  H           18.662647       14.549943        4.830475
  O            4.798185       13.131124       17.162138
  H            5.245989       12.286314       17.075570
  H            4.038778       13.059368       16.578362
  O            7.947624        4.701170       11.024100
  H            7.942869        4.025955       11.706587
  H            8.199600        4.231002       10.225293
  O           15.423963       20.605352       18.864225
  H           15.929639       19.811136       19.051942
  H           14.569492       20.279961       18.569874
  O            3.278770       11.345276       17.733060
  H            2.569155       10.836876       17.333435
  H            3.871528       10.682531       18.096447
  O            9.806066        9.546105       16.468202
  H            9.088132        9.321408       17.064698
  H            9.397468       10.106767       15.803861
  O           22.513540       13.512524        5.644701
  H           22.805505       14.421778        5.546014
  H           22.735814       13.098472        4.806968
  O           16.343562       14.618291        3.841832
  H           15.528237       14.179046        4.094883
  H           16.385311       14.512462        2.888050
  O            8.357334        0.955394       10.692959
  H            9.212518        0.620585       10.413157
  H            8.566305        1.621469       11.352745
  O           10.372220        2.900167        8.566300
  H            9.990677        3.691152        8.954232
  H           10.316770        3.048655        7.618925
  O           10.421462       18.580947        7.730878
  H            9.626085       18.392388        8.234412
  H           10.765315       19.388199        8.121712
  O           19.158261       22.021990       20.069913
  H           18.878138       22.669723       20.720833
  H           18.531617       21.300452       20.166572
  O            3.276456       11.558348        4.422889
  H            4.058060       11.629516        3.869938
  H            3.426688       10.767857        4.947481
  O           17.545195        6.179990       21.399349
  H           17.062103        5.638089       20.771105
  H           18.123912        5.561434       21.852248
  O            8.511220        0.635166       21.660615
  H            9.266892        0.051492       21.760659
  H            7.832864        0.244511       22.217269
  O           17.360891       19.633039       14.790472
  H           17.201566       20.579505       14.767198
  H           17.086148       19.366597       15.671475
  O           21.377532        4.538318        0.180174
  H           21.240305        5.471481        0.001009
  H           20.716465        4.323053        0.842965
  O           12.248012       15.374053        8.481257
  H           13.145985       15.034981        8.461286
  H           12.289148       16.122739        9.081606
  O            6.399765       22.221428        0.518942
  H            6.496084       21.415555        0.006090
  H            5.790730       22.758932        0.006294
  O           11.426431       20.390451       16.573430
  H           11.025256       20.946486       17.245448
  H           11.670964       21.001134       15.873493
  O            6.193536       12.447866        3.741229
  H            5.577589       12.823561        3.107836
  H            5.956288       12.858154        4.576705
  O            2.632941       22.999039        0.389692
  H            2.146442       22.206803        0.150095
  H            3.252868       22.704112        1.061518
  O           11.880895        6.840920        6.216294
  H           10.963522        7.078723        6.369923
  H           12.380087        7.595199        6.539578
  O           15.462516        6.896297       14.993561
  H           14.639797        7.262311       14.660557
  H           15.198515        6.364343       15.748525
  O            9.694739       21.698440        1.695011
  H            9.156009       20.907302        1.620199
  H            9.872229       21.952882        0.785946
  O           17.080619        4.285445       16.460710
  H           16.249254        4.515844       16.881985
  H           17.084948        4.795617       15.646863
  O            8.940869        8.984483        2.020524
  H            8.157707        8.457064        1.846706
  H            8.728785        9.469219        2.822205
  O            1.290449       12.462440       18.769474
  H            1.572318       12.900436       17.962979
  H            1.410924       13.124454       19.454941
  O           10.973501       10.412394       12.759175
  H           10.391225        9.746955       13.133169
  H           10.402974       10.936437       12.191267
  O           13.350184       16.067967        1.351559
  H           13.319936       16.817377        1.950886
  H           14.271091       15.794950        1.357479
  O           16.212317       22.302911       20.020426
  H           16.273114       23.000000       20.677766
  H           16.540945       22.706944       19.213331
  O            1.716346       13.156086        3.382008
  H            2.292278       12.734787        2.739719
  H            0.879397       13.257147        2.921634
  O            4.131860        4.974561        6.530427
  H            4.590355        4.133078        6.588859
  H            4.386482        5.440893        7.330642
  O           22.999953        1.438255       14.043539
  H           22.895432        1.098784       14.935481
  H           22.738932        0.707032       13.478010
  O           20.292451       19.512539       19.926200
  H           20.599955       18.634188       19.690264
  H           20.740002       19.707636       20.753410
  O           10.853217       13.791824       15.840474
  H           10.883005       13.074670       16.478069
  H            9.932845       13.830880       15.568383
  O            1.855884       13.838399       14.779244
  H            2.155549       14.692571       15.099113
  H            2.504016       13.591945       14.114543
  O           17.010840       11.307632       21.891441
  H           16.179242       11.778303       21.984384
  H           17.561078       11.653831       22.598566
  O            0.736785       16.521323        9.481563
  H            0.001448       16.060260        9.891960
  H            1.040169       17.134281       10.156013
  O           15.243013       15.556248       10.485455
  H           14.835725       14.721874       10.729709
  H           14.810673       15.800980        9.663366
  O           11.871628        5.361852        3.426574
  H           10.986326        5.528211        3.094475
  H           11.944005        5.922006        4.203511
  O            5.021452       11.717554        8.178091
  H            5.775063       12.229711        7.875616
  H            4.735752       12.164072        8.979115
  O            1.744312        9.996701        0.379322
  H            2.066218       10.865647        0.630389
  H            2.510584        9.558997        0.000000
  O           21.616101        5.253870       14.585421
  H           22.249810        5.004429       15.262117
  H           21.012680        4.508073       14.537323
  O            1.668180        7.936373        9.574958
  H            2.129052        8.700451        9.929229
  H            1.938591        7.900712        8.653953
  O           19.390465       20.044205        3.208636
  H           18.542084       19.730200        2.887115
  H           19.692511       19.350820        3.800774
  O            3.177476        9.306427       15.760334
  H            2.934141        8.377864       15.743502
  H            3.849705        9.389131       15.079224
  O            9.102415       12.523245        7.207046
  H            8.955190       13.387268        7.598855
  H            9.740007       12.684428        6.506948
  O            8.310339       13.576559        3.685129
  H            8.323736       12.618290        3.627980
  H            8.994124       13.786768        4.326138
  O            0.038634       15.016706       13.034178
  H            0.863116       14.540989       12.909087
  H            0.177194       15.527210       13.835944
  O           22.793132        7.005181        0.413697
  H           22.999972        7.908056        0.161191
  H           22.179911        7.097286        1.147263
  O           19.418519        6.364815        7.467576
  H           19.750162        5.663534        6.901941
  H           18.756016        6.809359        6.932682
  O            3.203463       22.318163        7.545901
  H            2.537861       22.996400        7.682628
  H            3.847248       22.729780        6.963875
  O           14.656749        1.557298       14.262369
  H           15.064527        2.033019       14.989784
  H           13.806102        1.275898       14.608572
  O           22.281789        2.229359        2.211878
  H           22.743344        1.842316        2.959467
  H           21.628100        1.569330        1.967552
  O            5.799440       11.411597       14.731164
  H            6.343934       10.734520       14.322729
  H            4.986470       11.404480       14.219627
  O            2.344949       10.365186       19.658339
  H            2.625406       11.047586       20.272666
  H            2.118491        9.618499       20.218533
  O            3.861851        9.640349        1.734182
  H            4.616616        9.317876        2.232244
  H            3.873606       10.590854        1.872179
  O           19.381682       20.812953       14.541197
  H           19.535245       19.943068       14.917285
  H           19.763161       21.419865       15.180551
  O           18.936454       11.335274       14.411269
  H           19.123939       12.249250       14.637592
  H           19.427761       11.185007       13.599678
  O            7.925572        9.214846       12.996876
  H            7.349691        8.978511       12.265964
  H            7.702818        8.586775       13.688648
  O           21.732913        5.876529        8.862181
  H           22.282386        6.018456        9.636559
  H           20.836697        5.852347        9.206934
  O           17.339306       10.838753       12.565898
  H           17.419358       11.755617       12.839171
  H           17.253496       10.351234       13.389064
  O            2.592149       16.255419       12.686948
  H            3.441134       16.696748       12.608350
  H            2.381950       16.307758       13.622747
  O           12.772478        5.391883       21.581416
  H           12.026707        5.172070       22.144651
  H           13.361594        4.637350       21.660567
  O           14.703910        5.043069       19.189221
  H           13.872574        4.674782       19.497395
  H           14.461953        5.569979       18.423411
  O           18.692001       22.124417       11.342911
  H           18.982484       21.331333       11.799378
  H           19.497900       22.497630       10.977013
  O           11.514281       10.366949        2.590326
  H           10.623136       10.422970        2.237555
  H           11.458066        9.695130        3.274534
  O           13.476358       17.876068        6.826863
  H           12.857194       17.176103        6.606845
  H           14.116650       17.454745        7.405789
  O            1.363496       16.434526       17.607716
  H            1.433043       15.973565       16.768429
  H            0.856766       17.224804       17.404424
  O           19.214334       16.873208        4.630416
  H           19.704525       17.587257        5.044628
  H           19.603071       16.793174        3.755704
  O           16.010031        1.229283        6.785703
  H           16.669370        1.517898        6.150331
  H           15.175650        1.309789        6.316694
  O            6.157870        2.370793        0.945824
  H            6.906311        1.951001        1.376329
  H            5.965895        1.803598        0.194773
  O            4.087068        8.768189       21.022359
  H            3.866843        7.922880       21.420704
  H            5.047404        8.782011       21.007961
  O           10.462720        8.634868       21.893644
  H           10.922304        9.422713       21.593966
  H            9.536468        8.888974       21.905037
  O           22.374431       15.136566       17.641745
  H           22.492389       15.096673       18.593701
  H           21.980890       15.998871       17.486184
  O            8.340311       20.148065       21.541170
  H            9.179017       20.514534       21.251346
  H            8.243649       20.459256       22.444751
  O            1.372780       22.498656       20.912247
  H            1.274403       22.851090       20.024645
  H            0.741446       22.996509       21.437796
  O           12.623473       15.554043       15.046609
  H           13.538239       15.845139       15.060431
  H           12.600107       14.873258       14.369387
  O           21.580334        9.887695       19.882190
  H           21.370228        8.951410       19.913025
  H           20.849664       10.280191       19.397721
  O           16.681164       20.754119       22.656727
  H           16.875455       20.153601       21.933294
  H           16.177547       21.463300       22.249205
  O            3.286415       21.426911       21.193210
  H            3.522142       20.821463       20.486393
  H            4.124245       21.646189       21.608660
  O            0.637558       18.966382       14.927967
  H            0.367705       18.387640       14.211055
  H            0.006602       18.786929       15.629631
  O           19.829451        0.606754       22.827142
  H           19.833809        1.433986       22.339911
  H           20.739830        0.302783       22.789012
  O            4.481263       14.257006       13.347620
  H            4.419495       14.708757       14.192505
  H            5.310038       13.773819       13.395630
  O            9.240634       16.423705        2.020932
  H            8.949607       16.270053        1.119034
  H            9.559929       17.329618        2.017374
  O            1.048068        4.193759        2.204133
  H            1.414146        3.382822        2.564817
  H            0.880055        3.989482        1.280724
  O           18.847759       14.815809        1.870858
  H           19.357071       14.109081        1.467294
  H           19.427620       15.580525        1.830698
  O           22.259423       11.226943        1.164878
  H           22.030256       11.685779        1.976467
  H           22.842070       10.517816        1.448257
  O            1.723247       13.899638        8.039934
  H            2.048727       13.262510        7.399734
  H            2.375790       13.884186        8.744626
  O            7.032929       14.622089        6.636208
  H            7.920278       14.979852        6.715849
  H            7.004796       14.248965        5.751545
  O            4.594466       13.528366        6.753596
  H            4.158608       12.733067        6.438552
  H            4.219533       13.676291        7.625482
  O           21.527274        1.496836       19.917010
  H           21.915313        0.660640       20.185202
  H           20.895445        1.258313       19.233971
  O            8.179449       20.609421       19.465961
  H            7.461721       21.160022       19.144356
  H            8.974724       21.098640       19.240474
  O            0.261376        6.587223        2.993957
  H            0.455585        7.492894        3.246480
  H            0.906345        6.386586        2.311021
  O            0.000000        2.999867       18.805601
  H            0.009971        3.837872       19.273974
  H            0.752196        3.050434       18.210382
  O           14.877142        2.707592        2.704785
  H           14.123060        3.255297        2.935230
  H           15.542383        3.331962        2.404353
  O            5.635033       17.781069       17.885275
  H            4.832410       17.895094       17.370962
  H            6.209217       17.259599       17.318685
  O           13.916268       10.233395       17.705246
  H           13.371686       10.439958       18.468455
  H           13.497075       10.702334       16.979287
  O           16.216970       14.263173        6.526404
  H           16.376998       13.374999        6.198893
  H           16.784418       14.821391        5.988782
  O           13.145471       18.681281        0.437339
  H           12.283513       19.005730        0.166254
  H           13.228184       17.830085        0.000001
  O           15.483900       14.825488       14.106994
  H           15.498601       14.814611       15.066885
  H           16.402444       14.705271       13.853090
  O           14.438030       20.380865        8.755350
  H           13.946181       19.579696        8.950129
  H           14.457640       20.421275        7.795858
  O            1.028526        9.190222       14.113265
  H            1.747396        9.783578       13.883309
  H            0.244234        9.617750       13.760069
  O           11.619976       14.639464        3.652607
  H           12.064987       15.474864        3.813224
  H           10.689880       14.872151        3.594128
  O            5.498665       21.941528        8.804791
  H            4.647607       22.367225        8.932102
  H            5.581059       21.853515        7.851845
  O            7.393317        5.801132       14.266091
  H            6.792090        6.132266       13.594823
  H            6.872600        5.800639       15.073244
  O            5.743112       20.221543       11.234283
  H            5.980194       20.856351       10.554182
  H            5.296332       20.745386       11.904073
  O            0.562035        3.796945       12.084552
  H            0.928336        4.625375       11.766349
  H            0.169548        4.019848       12.932437
  O            7.298316       15.915242       15.127886
  H            6.612120       15.655832       14.508558
  H            7.088111       16.826074       15.348886
  O           13.642136       17.506732       18.496162
  H           12.893516       18.057389       18.737141
  H           14.402909       18.086330       18.585220
  O            0.667542       13.452489       11.007266
  H            0.991050       13.014696       10.216441
  H            0.000002       14.063562       10.685364
  O            4.821599       15.940031        8.702792
  H            5.471395       15.950481        9.409461
  H            4.194263       16.625705        8.945573
  O           13.199898       15.768078       11.834662
  H           12.940252       16.206814       11.021140
  H           12.391482       15.726746       12.351767
  O           18.379471        7.423733       17.071870
  H           17.629705        7.124718       16.552096
  H           19.145529        7.190639       16.541339
  O            4.101907        3.963401       16.127110
  H            4.579142        3.131834       16.176776
  H            3.469880        3.833459       15.415563
  O            4.353503       16.131508       18.605551
  H            4.702773       15.237771       18.574421
  H            3.401516       16.017629       18.547296
  O           18.544043        3.996634        8.734575
  H           18.331928        4.265045        7.837532
  H           18.744329        3.060001        8.662140
  O            5.701557       21.497275       17.692804
  H            5.007967       20.847146       17.826930
  H            5.310209       22.144794       17.101020
  O           11.581791        0.941689        5.095126
  H           10.976261        0.599714        5.757026
  H           11.026282        1.463943        4.510915
  O           19.698808        3.711015       21.406103
  H           18.776209        3.457094       21.328256
  H           19.903763        4.125886       20.564369
  O           15.709927       22.397143        9.454851
  H           16.254823       22.147654        8.704805
  H           15.059049       23.000000        9.086663
  O           16.077402        4.514246        7.672610
  H           15.167296        4.788612        7.537868
  H           16.320401        4.081979        6.849969
  O           15.628492       10.411277       16.161993
  H           16.279106       11.043025       15.846842
  H           15.448472        9.854381       15.400348
  O            6.820238       11.571557        9.782402
  H            7.307281       11.179172        9.054014
  H            6.187869       10.895282       10.038143
  O            4.675578       11.482535       21.232250
  H            4.840917       12.139301       21.912725
  H            5.521091       11.041891       21.115706
  O            8.177064        2.053207        5.587024
  H            9.055089        1.666845        5.548012
  H            7.744080        1.742390        4.787924
  O           11.716416        7.325079        0.679366
  H           11.682733        8.250335        0.933317
  H           12.394607        7.288799        0.000114
  O           16.147768       13.985570        0.107421
  H           15.877414       14.906002        0.145349
  H           15.673707       13.567818        0.830880
  O            1.810741       23.002569        5.138501
  H            2.758115       22.992172        5.293740
  H            1.424955       23.000995        6.018165
  O            2.279522        7.658670       11.863842
  H            1.718229        8.370307       12.180463
  H            3.146604        8.061675       11.772203
  O            5.231403        8.783285       13.476719
  H            4.715030        9.438677       13.001804
  H            4.895235        7.940587       13.161293
  O           11.729639       15.004783       17.970102
  H           10.804130       14.750297       17.989974
  H           11.841060       15.432471       17.117277
  O            1.465834        4.133721        9.048895
  H            0.531696        3.930235        9.136672
  H            1.832783        3.375202        8.587767
  O            9.538672        8.079221       14.821794
  H            8.832004        7.865368       15.435481
  H           10.330794        7.732529       15.240111
  O            2.755457        8.173913        3.818555
  H            2.248435        8.771098        3.263557
  H            2.881509        8.659098        4.637914
  O            7.151249       16.165071       19.377169
  H            7.823454       16.699383       19.806559
  H            6.806492       15.606694       20.078596
  O            3.670081        4.729694       18.407614
  H            2.969717        4.173753       18.058120
  H            4.112305        4.176444       19.056454
  O            2.282342       18.376551        9.194394
  H            3.155172       18.380957        8.794554
  H            2.214626       19.230728        9.628488
  O           22.048871       19.968123       10.178376
  H           21.270759       19.607977        9.746448
  H           22.706029       19.271369       10.105446
  O           14.096379       12.836526        8.231232
  H           14.653167       13.600375        8.063164
  H           13.594652       13.074986        9.014845
  O            5.708509        6.600998        3.898458
  H            5.143133        7.374745        3.840226
  H            5.588431        6.285080        4.797580
  O           19.023911        9.981182       22.075154
  H           19.840581       10.136120       21.594769
  H           19.275699       10.044012       22.999977
  O           15.733423       22.926428       16.526909
  H           15.508179       22.302740       17.221174
  H           14.931874       22.999351       16.002654
  O            9.812386        1.847239        0.987662
  H            8.989516        1.429840        0.722352
  H           10.263994        1.176116        1.505625
  O            0.399796       18.558509        0.004937
  H            0.937119       17.763965        0.046268
  H            0.024253       18.638443        0.885402
  O            5.047698        7.636333       15.655907
  H            5.985799        7.804997       15.540826
  H            4.906979        6.780362       15.243411
  O           22.895456        7.970861        7.472679
  H           22.034408        7.815778        7.867989
  H           22.999980        8.925421        7.495768
  O           11.521741        2.771800       10.972256
  H           10.621230        2.548546       10.725352
  H           11.424812        3.486470       11.606680
  O            3.059888        0.776471       11.401134
  H            2.196968        0.899692       10.998751
  H            3.681400        0.940077       10.687273
  O           17.420245       15.107500       19.964005
  H           17.995845       14.379557       20.209989
  H           17.984735       15.697295       19.457906
  O           18.596612        2.255319        3.108091
  H           18.953114        2.975406        3.633549
  H           19.256217        2.109102        2.425315
  O           16.603983        7.319377       19.055381
  H           17.159916        6.584047       18.787138
  H           17.069718        7.711829       19.798156
  O           19.634351       12.652900       17.745518
  H           18.990622       12.868018       17.066502
  H           19.115487       12.252324       18.447630
  O           16.666442        6.809032        6.235872
  H           16.442258        5.999297        5.771333
  H           16.476291        6.615729        7.157348
  O           18.897551       11.942057        1.322160
  H           19.855971       11.885954        1.319055
  H           18.659154       11.898175        2.251614
  O           21.159522        4.841718       12.367506
  H           20.258641        4.650772       12.096071
  H           21.527529        5.343982       11.636108
  O            5.248204        5.672158       20.696933
  H            5.396194        6.197904       21.486499
  H            5.151964        6.319602       19.993942
  O           14.124355       12.317023        3.228105
  H           14.834943       12.638115        2.668024
  H           13.685884       13.113764        3.537282
  O           12.406292       11.661262       11.558977
  H           12.991062       12.224970       11.047115
  H           12.391483       10.831453       11.075408
  O           16.561620        9.786146        6.207722
  H           16.742878        9.065154        6.815209
  H           16.131762        9.364843        5.459145
  O            3.469184        8.326685       18.553822
  H            2.578888        8.469890       18.224292
  H            3.434446        7.459523       18.965482
  O           18.709129        2.008146       11.526031
  H           19.160622        1.660105       10.753538
  H           19.366550        2.559067       11.958380
  O           14.305403        5.127689        5.143632
  H           14.929666        4.960093        4.433750
  H           13.631021        4.452800        5.032382
  O            9.347653       10.447294        5.627756
  H           10.129193       10.178222        5.139370
  H            9.639713       10.486991        6.541959
  O           20.886878       22.458067        9.052454
  H           20.199739       21.861810        8.745791
  H           21.285987       21.999535        9.796163
  O            2.493730       17.838454       19.525672
  H            1.630977       18.248881       19.431169
  H            2.365302       17.165857       20.199291
  O           21.353308        3.434564       10.192224
  H           20.464135        3.780658       10.085845
  H           21.324171        2.953731       11.023242
  O           16.766579        3.748621        4.476793
  H           17.543801        4.031467        4.964285
  H           16.881085        2.800394        4.374834
  O            6.061883        4.718037       17.031700
  H            6.043632        4.471228       17.959319
  H            5.876869        5.660593       17.032073
  O           11.633375        3.451423        1.377678
  H           12.474195        2.988514        1.399178
  H           11.371456        3.513004        2.299767
  O            8.028630        9.110449        8.853873
  H            8.738824        9.021535        8.213995
  H            7.229862        8.937966        8.349034
  O            7.723406       13.738573       19.137074
  H            7.083999       13.077776       19.413174
  H            7.295764       14.193904       18.407391
  O           15.443975        8.357594       17.105117
  H           15.735954        8.944139       17.806857
  H           14.994115        7.643174       17.563235
  O           14.354404        8.208383        7.936990
  H           14.421677        8.906517        7.281393
  H           14.391750        7.396356        7.425269
  O            8.335651       22.164870       15.182714
  H            7.909655       22.973849       14.889786
  H            8.847917       21.876583       14.423033
  O           17.050515       20.099206       11.188565
  H           16.207170       19.667261       11.033911
  H           17.148976       20.702270       10.447444
  O           19.216217        7.323061       20.443655
  H           19.521761        6.418632       20.341794
  H           19.287985        7.699597       19.562910
  O            0.164616        0.021665        1.053905
  H            0.431887        0.924405        0.865882
  H            0.024670        0.007432        2.004091
  O           20.602617        7.223583        4.593134
  H           19.764772        6.964256        4.983635
  H           20.360690        7.839531        3.896915
  O           20.274320       19.506689        7.038706
  H           19.432999       19.236408        7.414010
  H           20.820570       18.717967        7.085298
  O            3.199224        4.875108        3.965441
  H            4.080697        5.100090        3.658661
  H            3.027539        5.498672        4.675605
  O            9.634656       21.081653        8.936536
  H            9.026263       21.761656        9.235162
  H           10.170266       21.517458        8.268825
  O            4.725401       15.272300       16.324279
  H            4.884326       16.100952       15.866236
  H            3.776621       15.260605       16.473683
  O           12.486902        2.900205        6.808988
  H           11.979787        3.450110        6.207187
  H           13.297695        2.708502        6.330965
  O            9.714988       19.159846       15.942338
  H            9.121978       19.534941       16.597600
  H            9.132932       18.847864       15.244828
  O           14.894016       14.919695       18.259145
  H           15.500723       15.593930       18.573850
  H           15.370091       14.483815       17.547806
  O            8.362619       22.844769       18.050364
  H            7.421754       23.000000       17.939002
  H            8.734718       22.999999       17.178533
  O            8.091341       10.110933       19.400337
  H            8.178081       11.040677       19.623446
  H            7.978422        9.672030       20.247246
  O           20.903119        9.810733       11.599231
  H           20.270144       10.530846       11.649279
  H           21.020811        9.532925       12.511159
  O           19.799790       16.717723        9.647343
  H           20.708018       16.510212        9.879259
  H           19.702301       16.390680        8.749467
  O            8.130439       17.697940        9.731179
  H            7.994588       18.616863        9.488591
  H            7.512247       17.547409       10.450776
  O           12.218263       22.866667        8.993931
  H           11.790956       23.000000        8.144604
  H           11.516969       22.998380        9.636956
  O           15.315700       19.569035        5.717082
  H           14.366789       19.638703        5.588869
  H           15.413857       18.933681        6.430757
  O            4.277311        9.952047       10.730389
  H            3.974413        9.893321        9.821253
  H            3.936751       10.794692       11.041211
  O           11.551390        3.888266       17.284334
  H           11.792734        3.566672       18.156145
  H           12.084682        4.678287       17.165558
  O           11.607916        0.801567       11.947323
  H           10.702255        0.561797       12.157115
  H           12.110984        0.000000       12.111806
  O           19.399193        9.290648        7.235034
  H           19.772746        9.866627        6.563892
  H           20.044319        8.585341        7.329881
  O           14.033393       12.115330        0.632106
  H           13.547146       11.559028        1.245145
  H           13.372113       12.408253        0.000009
  O           20.068571       15.219777       16.699977
  H           20.118441       14.829908       17.575900
  H           19.852131       16.141612       16.861269
  O           19.881758        9.175139       14.831951
  H           20.282344        8.327759       15.039802
  H           19.267606        8.980213       14.119587
  O            4.973801        9.242792        7.759816
  H            5.136188        8.398433        7.332719
  H            4.027834        9.379915        7.665028
  O            4.449750       22.693526       19.050006
  H            3.537193       22.562852       19.318126
  H            4.960795       22.195106       19.692698
  O           16.486430        4.535484       10.646809
  H           15.743765        5.101366       10.423314
  H           16.645552        4.024718        9.849037
  O           18.148734        5.002868        0.984648
  H           18.516323        4.120724        1.076435
  H           18.902270        5.587978        1.096318
  O            7.358125        7.195922       21.358690
  H            6.911412        7.526819       20.575951
  H            8.291894        7.244610       21.138812
  O            0.337784       17.126251       20.831728
  H            0.523825       16.422205       21.457375
  H            0.000049       16.672341       20.055491
  O           15.129720        8.092080        2.352747
  H           15.720019        8.737403        2.748765
  H           14.730760        8.556500        1.612620
  O           21.023489        1.724444       16.658441
  H           20.325602        2.268132       17.031379
  H           20.992279        1.909526       15.716416
  O           11.958362        1.558204       19.967787
  H           12.448912        1.050431       19.317210
  H           12.368641        2.426559       19.951255
  O           15.158143        2.150875       18.941319
  H           14.365617        2.656836       18.747330
  H           14.837541        1.261589       19.111692
  O            0.517114        9.090632       17.659004
  H            0.382032        9.977660       17.317450
  H            0.539360        9.203170       18.612671
  O           18.787705       20.820227        0.963837
  H           18.658917       21.491720        0.289867
  H           18.564615       19.995656        0.524570
  O            6.885766       11.466386        5.671717
  H            7.388970       11.503578        6.488496
  H            7.259235       10.720586        5.195330
  O           18.135000       20.937535       16.805446
  H           17.536209       21.671271       16.647950
  H           17.709827       20.427574       17.499572
  O           10.852705       15.382287        1.458189
  H           11.220126       16.179131        1.847761
  H           11.441806       15.181011        0.726691
  O           22.699435       12.603312        8.110990
  H           22.220617       12.008095        8.692518
  H           22.999993       12.042829        7.391153
  O           21.110740       20.294935       16.665555
  H           20.281506       20.056645       17.086640
  H           21.750368       20.296015       17.382156
  O            0.813940       13.078812       21.822999
  H            1.412283       12.388330       21.528133
  H            0.079944       13.038308       21.204735
  O            8.644562       13.502030       13.726364
  H            8.294726       13.938165       12.945898
  H            7.904589       13.478797       14.338363
  O            0.481810       11.961277       16.088614
  H            0.328433       12.907124       16.148403
  H            1.329433       11.884863       15.643264
  O           14.330671        5.687317        0.378949
  H           14.651584        6.543613        0.671348
  H           15.102948        5.259966        0.000000
  O           17.210157       10.441838       19.282088
  H           16.667937       11.133512       18.895684
  H           16.580202        9.855004       19.708028
  O           12.487465        8.832839       16.344434
  H           12.210221        8.863629       17.263081
  H           11.952709        9.503034       15.911403
  O            6.780358       10.436618        2.591957
  H            6.566487        9.687977        3.153669
  H            5.947962       10.905503        2.492426
  O           14.661910       11.445269       20.155325
  H           14.296170       11.978950       20.864652
  H           14.616092       12.012977       19.381858
  O            6.936140       14.513012        9.484092
  H            6.142518       13.993140        9.337050
  H            7.011482       14.567915       10.440100
  O            9.045955       19.366776       11.716275
  H            8.339863       19.595073       12.325405
  H            9.084272       20.108338       11.106964
  O           22.154802        1.052461       10.288068
  H           22.588898        1.629474        9.655342
  H           22.637411        1.190663       11.106988
  O           12.910595       19.942274        3.695857
  H           12.636218       20.833110        3.465959
  H           12.400854       19.731233        4.482157
  O            7.231671        6.807452       11.216311
  H            6.345774        7.043378       11.501357
  H            7.424962        7.422882       10.504605
  O           17.563659       16.623314        2.437258
  H           18.030830       17.461014        2.395615
  H           17.485342       16.440446        3.376975
  O           10.492977       19.141393        3.289024
  H            9.980882       19.950956        3.225063
  H           10.981677       19.102507        2.463008
  O            3.919211       21.245433       15.454158
  H            3.574372       21.050340       14.579659
  H            3.171256       21.618219       15.927693
  O            0.136939       22.136653        7.720995
  H            0.001097       21.803293        8.611019
  H            0.545864       22.996437        7.848247
  O           12.798935       10.660840       21.792437
  H           12.604826       10.338733       22.675780
  H           12.093268       11.285248       21.605919
  O            6.462728       19.444562       20.198054
  H            6.738293       18.613129       19.804980
  H            5.506238       19.444542       20.109903
  O           20.710953       14.946212       14.604300
  H           19.811591       14.610266       14.600874
  H           20.931605       15.046370       13.674826
  O            6.652018        1.560371       16.053389
  H            5.806259        1.148805       16.245825
  H            6.453300        2.205339       15.369891
  O           10.275521        7.119518       12.219732
  H            9.828087        7.938254       11.993458
  H            9.677561        6.682108       12.831090
  O            5.738667        4.754491       10.968453
  H            5.925836        4.915324       11.896260
  H            5.074128        5.410093       10.742145
  O           14.350564       16.649279        5.360105
  H           14.016499       15.848943        4.948294
  H           15.099201       16.353211        5.884059
  O            2.787356        4.786925       20.717927
  H            3.051049        5.700894       20.588113
  H            2.001207        4.686210       20.175279
  O           22.082791       12.380700       18.423649
  H           22.119809       12.900301       19.230103
  H           21.807901       13.006778       17.749035
  O            7.845794        5.145023        3.176512
  H            7.733024        5.740289        3.921270
  H            7.378322        5.574114        2.455406
  O            4.218899       17.642939       20.966339
  H            4.183066       16.995742       21.674561
  H            4.946694       17.349920       20.412176
  O            6.099196       13.820055       21.247476
  H            5.733348       14.340080       21.966819
  H            6.968191       13.557250       21.561201
  O           21.744353       16.764244        5.397623
  H           21.221263       16.098533        4.944931
  H           21.381755       16.788383        6.286770
  O           21.004155       16.312650        0.116816
  H           20.054575       16.206209        0.023580
  H           21.208489       15.901349        0.960451
  O           17.408754        7.877095        4.461194
  H           18.211348        8.395873        4.369335
  H           17.640568        7.014606        4.107618
  O            9.674252        6.939908        9.156921
  H            9.491762        6.452300        9.963556
  H            8.863820        6.868055        8.646354
  O            9.831592       14.209577       20.614824
  H            9.848833       14.916667       19.965630
  H           10.725708       13.858629       20.608929
  O           14.137192       13.096487       15.980495
  H           13.465989       12.481887       15.674751
  H           14.649166       12.592595       16.618161
  O            5.669374       18.400187        9.163975
  H            4.992640       19.026562        9.431201
  H            6.000083       18.747154        8.331577
  O            2.236756       19.037209       21.404506
  H            1.749197       19.855811       21.522410
  H            3.015023       19.141425       21.957753
  O           14.620084       20.519425       14.681976
  H           13.694919       20.651074       14.902122
  H           14.618962       20.355407       13.735541
  O           15.533554       12.508596       10.764771
  H           15.798321       11.662964       11.134271
  H           16.324645       13.050695       10.819042
  O           10.999896       12.597536        8.490566
  H           11.878402       12.303816        8.238215
  H           11.048077       12.701639        9.444234
  O            7.288435       23.000000        7.010315
  H            7.973698       22.895544        6.346064
  H            7.565972       22.428900        7.731051
  O            8.811580       10.597049        0.489498
  H            8.205021       11.302229        0.727262
  H            9.542875       11.046731        0.058644
  O           21.384678       13.711795        3.191868
  H           20.461119       13.468901        3.290697
  H           21.391993       14.325902        2.453315
  O           15.327579        1.868440        0.721623
  H           15.280693        1.236941        0.000004
  H           14.806133        2.616009        0.418511
  O           16.289008        8.582505        0.059703
  H           17.141839        9.019358        0.000001
  H           16.503996        7.649779        0.139984
  O            5.724699       17.646142       11.639288
  H            5.697148       16.701753       11.468712
  H            4.832457       17.948431       11.451761
  O            5.280991        1.606019       18.335496
  H            5.239063        2.284688       19.013269
  H            4.414871        1.629321       17.920847
  O           16.851750        4.020114       18.970379
  H           17.593973        3.423521       18.848281
  H           16.465686        3.752061       19.808081
  O            9.849566       20.733295        6.149043
  H            9.479024       20.093214        5.536898
  H           10.476913       21.233125        5.620604
  O           12.766604        1.005703       16.729382
  H           13.479499        1.005761       17.372426
  H           12.166082        1.688413       17.039097
  O           15.217140       11.983630       14.075648
  H           15.302625       12.688608       13.429564
  H           15.159401       11.182773       13.548450
  O           21.226549        7.575687       17.739323
  H           20.583411        8.277320       17.865059
  H           21.049040        6.958691       18.453780
  O           14.193892       21.922570        0.694382
  H           14.519528       21.878148        1.596443
  H           14.037524       21.006372        0.451950
  O            0.543216        6.055232       17.800664
  H            0.000307        5.286275       17.611771
  H            1.372090        5.689351       18.119634
  O            7.086932        8.111253        6.182309
  H            7.294341        7.499610        5.471958
  H            6.674361        8.858062        5.741059
  O           15.331200        7.262056       10.033255
  H           16.041158        7.845917       10.310366
  H           15.623619        6.916517        9.186062
  O            8.430857        4.603920       19.189187
  H            8.317296        3.652208       19.133742
  H            7.632952        4.914281       19.624693
  O            8.379964       22.999355        2.860372
  H            8.511882       22.149613        3.287293
  H            8.037602       22.778557        1.990500
  O           16.532465       16.777085       11.921510
  H           17.068763       17.365036       12.458560
  H           17.169814       16.212446       11.476975
  O           21.847442       18.999026       12.187130
  H           22.729891       19.346437       12.336514
  H           21.989098       18.074687       11.967646
  O           15.662648       17.601121        2.928209
  H           14.888339       18.137167        2.741594
  H           15.466566       17.184284        3.771085
  O           19.222595       22.942282       17.264922
  H           20.107217       22.931840       17.637829
  H           18.642413       22.992477       18.028801
  O           10.251944       17.225660        4.811884
  H           10.489948       16.325254        5.045009
  H            9.625446       17.127493        4.090423
  O           19.306411        5.147046        3.602443
  H           19.778280        5.819121        3.105069
  H           18.420574        5.153586        3.231103
  O           17.744343        9.466656        2.249554
  H           18.576287        9.723929        2.653787
  H           17.863999        8.539998        2.026779
  O           19.221849       15.826320       12.524288
  H           18.715948       15.020488       12.652442
  H           19.601437       15.732551       11.646927
  O           21.412725       11.899165       14.273385
  H           22.343172       11.698936       14.147285
  H           21.410913       12.699263       14.804876
  O            0.000000       10.280211       10.189287
  H            0.888835       10.416959       10.525438
  H            0.072648        9.500120        9.633568
  O           21.888781        5.410845        6.082261
  H           21.744411        6.343337        6.259294
  H           22.647985        5.394577        5.494054
  O           14.866579       20.199202       20.987946
  H           14.209570       20.852580       20.736628
  H           14.439821       19.685189       21.678098
  O           10.784361       17.252619       17.917476
  H           10.757277       18.158728       17.601315
  H           10.241161       17.260155       18.709637
  O            1.191363        4.878432        6.979391
  H            1.743405        5.520771        6.527311
  H            0.577737        5.410426        7.492311
  O           11.008928        0.050357       14.647449
  H           11.756377        0.539979       14.296286
  H           10.246725        0.595973       14.437707
  O           12.339729       14.418336        6.054596
  H           11.552516       13.874919        6.136562
  H           12.872633       13.968011        5.394396
  O           22.074549       22.277659       16.483260
  H           22.897731       22.093135       16.024951
  H           21.498726       22.637213       15.803708
  O            9.092968        4.350467        4.957255
  H            9.829641        4.139875        5.535779
  H            9.078016        3.632547        4.319282
  O           16.162718       18.506873        9.071419
  H           17.008628       18.960511        9.090779
  H           16.229960       17.908828        8.322778
  O            3.996602       14.030600       20.634073
  H            3.927471       14.965012       20.843407
  H            3.421434       13.913404       19.873751
  O            8.908699       16.389546       16.869458
  H            8.542361       17.241009       17.119524
  H            9.481686       16.586156       16.124024
  O           12.686703        9.549044       13.835939
  H           13.199941       10.197819       13.348699
  H           13.345270        9.006586       14.277154
  O           14.677516       11.070792        8.984600
  H           14.452592       10.143473        9.090496
  H           15.569085       11.060590        8.627330
  O           22.659039       10.027724       22.277895
  H           22.999963        9.537663       21.526007
  H           22.805396       10.948874       22.048322
  O           10.663772        4.840747       14.684134
  H           11.355645        5.067919       14.058492
  H            9.943654        4.518026       14.136481
  O            2.835585       19.075842       16.363839
  H            2.719387       18.283699       16.893681
  H            3.511855       19.575920       16.827761
  O           20.579520        0.570036       13.893894
  H           19.642243        0.473718       14.078175
  H           20.615931        1.189482       13.160680
  O            9.739851       16.380507       13.827622
  H            9.458317       15.537338       14.190293
  H           10.665344       16.449504       14.075299
  O           11.806112       12.747321        1.875035
  H           10.988123       13.201354        2.090611
  H           12.431686       13.454346        1.697794
  O            2.406368       21.082052       10.360500
  H            2.944393       21.855807       10.543685
  H            1.691674       21.413299        9.810836
  O            1.355295        3.028247       22.017506
  H            1.700926        2.135963       22.095570
  H            0.820579        3.007877       21.219819
  O           21.014714       17.521738       15.338118
  H           20.162396       17.804691       14.998682
  H           21.062833       17.910038       16.215358
  O           19.483198       21.590203        6.185266
  H           20.412305       21.734254        6.379521
  H           19.026586       22.270939        6.686011
  O           22.098302       20.922100       13.745631
  H           21.231125       21.137311       13.394328
  H           21.916815       20.344750       14.491534
  O            3.436763       14.686036       10.497188
  H            2.555533       14.572271       10.860805
  H            3.672237       15.589940       10.721133
  O            2.186425       19.842378       12.292777
  H            3.010977       19.914020       12.779301
  H            2.359117       19.170336       11.628564
  O            4.291858        3.412061       22.165516
  H            4.965283        4.050788       22.410977
  H            4.425846        3.274069       21.224427
  O            4.127024        3.108083        1.783558
  H            3.387550        3.082606        1.171795
  H            3.721875        3.028116        2.650796
  O           21.740685        4.287465        2.813853
  H           21.762565        4.937710        3.519847
  H           20.930322        3.795334        2.968001
  O           21.015792       20.933074        0.016413
  H           21.062154       21.185062        0.941658
  H           20.518653       20.111191        0.017758
  O           20.972814       18.149582        2.153350
  H           21.697897       17.538253        2.004165
  H           20.394391       18.022526        1.397093
  O           11.671413       19.916572       19.522257
  H           11.341735       19.098343       19.901120
  H           11.152526       20.603030       19.949075
  O           11.670394       18.415926       12.111722
  H           11.212382       17.580708       12.231554
  H           11.564797       18.613903       11.177753
  O            6.168751        8.245040       18.405714
  H            5.510068        8.352139       17.715503
  H            6.347653        7.301416       18.420214
  O           11.796977       14.168381       10.915955
  H           11.127799       14.718768       10.502434
  H           11.388566       13.869229       11.732258
  O           12.836198        7.065733       18.752165
  H           12.784548        6.987446       19.707637
  H           11.939260        6.900818       18.450590
  O            3.616818        6.133308       13.581925
  H            3.056370        6.889073       13.772828
  H            3.642474        6.091767       12.622624
  O           18.320428        5.747686       11.614931
  H           17.642235        5.577422       12.272799
  H           17.967192        6.470286       11.089845
  O           18.950491       18.729945       12.052487
  H           19.560017       19.229162       11.503866
  H           19.517391       18.237374       12.651353
  O            3.332743       12.887127       12.042494
  H            2.520335       12.497490       11.710983
  H            3.665269       12.244120       12.673850
  O           20.170361        7.373499        0.279721
  H           20.636032        8.165100        0.000000
  H           19.601565        7.671375        0.994132
  O            3.722141        6.561531        1.651383
  H            2.958804        7.076843        1.922484
  H            3.712025        6.607068        0.691974
  O           18.164582       13.445230        7.480571
  H           18.812429       13.021216        6.912918
  H           18.647639       13.643976        8.286671
  O           21.686539        2.993360        8.032240
  H           20.850105        2.567200        8.233463
  H           21.438068        3.811732        7.595008
  O           11.258969        5.327955        8.193327
  H           11.493267        5.298736        9.123905
  H           12.062254        5.065276        7.736845
  O            6.791215        2.617957        8.957921
  H            6.190343        1.926728        8.670030
  H            6.431772        3.421593        8.573719
  O           11.536887       16.786104       20.467596
  H           11.381275       16.795870       21.414916
  H           12.142105       16.052468       20.332938
  O            7.647369       18.669822        0.115584
  H            6.821580       18.893103        0.551408
  H            7.832061       17.771330        0.400616
  O           21.191097        9.735549        2.683135
  H           20.978610        9.241222        1.888015
  H           21.902858        9.236120        3.091312
  O            1.530104       21.225992       17.651106
  H            2.251561       20.818355       18.135932
  H            1.122378       20.498702       17.174187
  O           20.369696        4.472147       16.646125
  H           19.569920        4.732192       16.183027
  H           20.129268        4.507371       17.575424
  O           21.529215        2.633587        5.367228
  H           21.246015        3.519092        5.127637
  H           20.895374        2.352190        6.031836
  O           17.670918        7.684208        8.841444
  H           17.799011        6.735369        8.912304
  H           18.177943        8.048426        9.571452
  O           17.078321       19.602810        4.604648
  H           17.842663       19.571465        5.184755
  H           17.064306       18.740404        4.181918
  O           16.979142       17.223149       15.173155
  H           16.413929       17.286723       15.946600
  H           16.419924       16.825068       14.501255
  O            5.671398       19.412021       13.586423
  H            5.502877       20.027664       14.303577
  H            5.585235       18.545172       13.991134
  O           15.535195        2.546380        8.493615
  H           14.643498        2.325989        8.772953
  H           16.100872        2.022942        9.066908
  O           10.413007       20.316718       14.141982
  H           10.775228       19.460223       13.903370
  H           10.435345       20.821083       13.324817
  O           16.420248       19.611384        2.189419
  H           16.819462       19.076683        1.499167
  H           15.643802       19.995509        1.774424
  O            1.236511        5.910357       21.859079
  H            0.684072        5.136697       21.993188
  H            1.938546        5.817435       22.508043
  O           11.834459        9.980159        7.101214
  H           12.637962       10.229112        7.563956
  H           12.128590        9.761850        6.213256
  O            4.666861        4.106329       13.573782
  H            4.992275        3.224482       13.769176
  H            5.194345        4.684051       14.131133
  O           12.779685       22.456075       21.492739
  H           12.483603       21.718401       22.031159
  H           12.409097       22.281060       20.624017
  O            0.954816       10.504778        3.496225
  H            0.300972       11.174657        3.709475
  H            1.489997       10.905063        2.806301
  O            9.137398        6.067962        0.053381
  H           10.093624        6.000831        0.000000
  H            8.983034        6.819071        0.631869
  O           14.368503       14.260226       20.580995
  H           15.196487       14.144064       21.052878
  H           13.875827       14.888497       21.115025
  O           12.236008       21.802551        1.556902
  H           11.615969       21.085203        1.707528
  H           12.106308       22.390854        2.305046
  O           22.388684        7.701695       15.148011
  H           22.999609        7.028867       14.838498
  H           22.645607        7.855340       16.060714
  O           13.641703       10.130947        3.815605
  H           14.311139        9.593535        4.245453
  H           13.903577       10.143991        2.891542
  O           10.765209        8.827778       19.239511
  H           10.772918        9.713454       18.869047
  H            9.941586        8.782354       19.731674
  O           16.034654       11.418030        1.225255
  H           16.503417       11.272842        2.050426
  H           15.730876       10.544246        0.966676
  O           11.631182       12.378886       14.344339
  H           11.096539       11.621266       14.593123
  H           11.123665       12.812338       13.653551
  O           17.470979       14.829629       16.866073
  H           17.630344       15.769445       16.980412
  H           17.986346       14.592990       16.090804
  O           14.327226        8.331871       21.326764
  H           13.399658        8.570536       21.392956
  H           14.591760        8.642071       20.457029
  O            7.312280        3.151068       21.025579
  H            6.660860        2.472422       21.217455
  H            7.170167        3.816475       21.703576
  O            6.222335       10.351870        0.084776
  H            5.296703       10.098171        0.108615
  H            6.695430        9.520150        0.000720
  O           14.319553       17.039523       20.541856
  H           15.218110       17.375916       20.575910
  H           13.772791       17.796866       20.765744
  O            9.917684        7.670161        3.521269
  H            9.369434        7.053429        3.030567
  H           10.067086        7.236870        4.365414
  O           18.768300        2.675994       14.483067
  H           18.386656        2.679482       15.364010
  H           18.083991        3.054440       13.925266
  O           22.248892        7.491719       11.345301
  H           21.296939        7.606661       11.393256
  H           22.602281        8.376735       11.465734
  O           21.869583        8.698874        5.621881
  H           22.079367        9.635717        5.628163
  H           22.561731        8.303135        5.086191
  O            6.094690       12.660289       11.619125
  H            5.956704       11.803045       12.028781
  H            5.362153       12.751540       11.004548
  O            9.776620       18.571320        0.007789
  H           10.331550       17.787885        0.005007
  H           10.286813       19.223160        0.495077
  O           14.676563        8.971855       11.618091
  H           14.955822        8.878760       12.531914
  H           13.987408        8.311386       11.510911
  O           20.573954       12.593919       12.350373
  H           19.756634       12.783183       11.883584
  H           21.114533       13.375611       12.211184
  O           20.589194       11.977082        5.605081
  H           21.179070       11.550422        6.230967
  H           20.945231       11.742996        4.744219
  O           19.768447       13.063091       21.894522
  H           20.300092       12.376789       21.484561
  H           20.381462       13.527966       22.469627
