(written by ASE)

1268 atoms
102 atom types

0.0                      23  xlo xhi
0.0                      23  ylo yhi
0.0                      23  zlo zhi

Masses

1      1.0079999997406976 # H
2      4.0026019989703538 # He
3      6.9399999982147245 # Li
4      9.0121830976816675 # Be
5      10.809999997219188 # B
6      12.010999996910238 # C
7      14.006999996396779 # N
8      15.998999995884349 # O
9      18.998403158112769 # F
10      20.179699994808885 # Ne
11      22.989769274086012 # Na
12      24.304999993747675 # Mg
13      26.981538493059151 # Al
14      28.084999992775295 # Si
15      30.973761990032177 # P
16      32.059999991752747 # S
17      35.449999990880691 # Cl
18      39.947999989723606 # Ar
19      39.098299989942184 # K
20      40.077999989690163 # Ca
21      44.955907988435349 # Sc
22      47.866999987686484 # Ti
23      50.941499986895586 # V
24      51.996099986624294 # Cr
25      54.938043985867495 # Mn
26      55.844999985634189 # Fe
27      58.933193984839768 # Co
28      58.693399984901454 # Ni
29      63.545999983653154 # Cu
30      65.379999983181364 # Zn
31      69.722999982064152 # Ga
32      72.629999981316345 # Ge
33      74.921594980726837 # As
34       78.97099997968516 # Se
35      79.903999979445146 # Br
36      83.797999978443443 # Kr
37      85.467799978013886 # Rb
38      87.619999977460253 # Sr
39      88.905839977129475 # Y
40       91.22399997653315 # Zr
41      92.906369976100365 # Nb
42      95.949999975317411 # Mo
43      97.907209974813938 # Tc
44      101.06999997400031 # Ru
45      102.90549997352815 # Rh
46      106.41999997262405 # Pd
47      107.86819997225152 # Ag
48      112.41399997108213 # Cd
49      114.81799997046372 # In
50      118.70999996946252 # Sn
51      121.75999996867793 # Sb
52      127.59999996717562 # Te
53      126.90446996735454 # I
54      131.29299996622564 # Xe
55      132.90545192581081 # Cs
56       137.3269999646734 # Ba
57      138.90546996426735 # La
58      140.11599996395597 # Ce
59      140.90765996375231 # Pr
60      144.24199996289454 # Nd
61      144.91275996272199 # Pm
62      150.35999996132077 # Sm
63      151.96399996090813 # Eu
64      157.24999995954832 # Gd
65      158.92534995911737 # Tb
66       162.4999999581978 # Dy
67      164.93032995757261 # Ho
68      167.25899995697355 # Er
69      168.93421995654265 # Tm
70      173.05399995548285 # Yb
71      174.96679995499079 # Lu
72      178.48999995408445 # Hf
73      180.94787995345217 # Ta
74      183.83999995270821 # W
75       186.2069999520993 # Re
76       190.2299999510644 # Os
77      192.21699995055329 # Ir
78      195.08399994981576 # Pt
79      196.96656894933145 # Au
80      200.59199994839886 # Hg
81      204.37999994742441 # Tl
82      207.19999994669897 # Pb
83      208.98039994624096 # Bi
84      208.98242994624044 # Po
85        209.987149945982 # At
86      222.01757994288724 # Rn
87      223.01973994262946 # Fr
88      226.02540994185622 # Ra
89      227.02774994159839 # Ac
90      232.03769994030961 # Th
91      231.03587994056733 # Pa
92      238.02890993876841 # U
93      237.04816993902071 # Np
94      244.06420993721588 # Pu
95      243.06137993747384 # Am
96      247.07034993644254 # Cm
97      247.07030993644256 # Bk
98      251.07958993541121 # Cf
99      252.08299993515308 # Es
100      257.09510993386374 # Fm
101      258.09842993360564 # Md
102      259.10099993334774 # No

Atoms # atomic

     1   7      5.1550510000000003               16.313869      3.8999869999999999
     2   6      4.4403059999999996      15.493377000000001      4.8717100000000002
     3   6      2.9961220000000002      15.224349999999999      4.4802879999999998
     4   7      2.1901649999999999      16.444075999999999      4.3519370000000004
     5   6                1.793239               16.969369      5.6538959999999996
     6   6      1.3895980000000001               18.434293      5.6056860000000004
     7   7      2.4668950000000001               19.323252      5.1563679999999996
     8   6      3.4586229999999998      19.545674000000002      6.2011799999999999
     9   6      4.7750260000000004               20.085846      5.6663819999999996
    10   7      5.4286490000000001      19.182372999999998      4.7132589999999999
    11   6      6.1000319999999997      18.078734000000001                5.391006
    12   6      6.3726700000000003      16.896609999999999      4.4757049999999996
    13   6      5.5069590000000002               15.558596      2.6857289999999998
    14   6      6.0688110000000002      16.488672999999999      1.5940080000000001
    15   8      5.5697559999999999               17.674453      1.6189640000000001
    16   8      6.8943630000000002                16.04325                0.819689
    17   6                1.028886      16.169893999999999      3.4878550000000001
    18   6                1.468531      15.839289000000001                2.048889
    19   8                2.534125      16.459544000000001      1.6827970000000001
    20   8     0.79931099999999999      15.058522999999999                1.399578
    21   6                1.885918               20.583402      4.6626349999999999
    22   6                1.011131      20.347549999999998      3.4161250000000001
    23   8                1.403637               19.357557      2.6927889999999999
    24   8    0.067423999999999998      21.087879999999998      3.2192769999999999
    25   6      6.3485740000000002      19.952960999999998      3.8614410000000001
    26   6      5.5846369999999999      20.971623000000001      2.9935939999999999
    27   8      4.4116470000000003      20.572970000000002      2.6468690000000001
    28   8                6.130433               22.021131      2.7107269999999999
    29  57      3.5612520000000001      18.345473999999999      2.7128670000000001
    30   1                4.946707      14.527079000000001      5.0227209999999998
    31   1      4.4694969999999996               16.003518      5.8367709999999997
    32   1      2.9717859999999998      14.708843999999999      3.5217450000000001
    33   1      2.5516960000000002               14.536932      5.2147810000000003
    34   1     0.95553699999999997      16.391348000000001      6.0741379999999996
    35   1      2.6260949999999998      16.836048999999999      6.3470250000000004
    36   1      1.0200020000000001               18.734109      6.5974250000000003
    37   1     0.55768300000000004               18.552809      4.9136749999999996
    38   1      3.0814140000000001      20.243082999999999      6.9652250000000002
    39   1      3.6328260000000001      18.598299999999998      6.7161150000000003
    40   1      4.6000740000000002      21.034144000000001      5.1610129999999996
    41   1      5.4369540000000001               20.306542      6.5163830000000003
    42   1      7.0551019999999998      18.405270999999999      5.8304669999999996
    43   1      5.4771320000000001      17.762429999999998      6.2302039999999996
    44   1      7.0051009999999998      17.219556000000001      3.6503169999999998
    45   1      6.9449019999999999               16.139526      5.0315810000000001
    46   1      6.2236209999999996               14.757655      2.8988800000000001
    47   1      4.5997029999999999      15.124518999999999      2.2613509999999999
    48   1      7.1160290000000002      20.466170000000002      4.4511599999999998
    49   1                0.412603               15.355948      3.8846699999999998
    50   1     0.42308000000000001      17.074583000000001                3.412223
    51   1      6.8333930000000001      19.273261000000002      3.1579600000000001
    52   1                1.302003      21.090796000000001      5.4378080000000004
    53   1      2.6939030000000002      21.239111999999999      4.3317730000000001
    54   8      17.003533999999998               21.482961      3.4420679999999999
    55   1               16.123448      21.834976999999999                3.594576
    56   1      17.523240000000001      22.246400000000001                3.178042
    57   8      11.384225000000001      19.420159999999999                6.191865
    58   1      11.411206999999999      18.503032999999999      5.9092440000000002
    59   1               12.181277      19.531625999999999      6.7161980000000003
    60   8      8.4368090000000002                11.81157               16.809241
    61   1      8.5649200000000008      12.756907999999999      16.917169000000001
    62   1      7.9251170000000002      11.731121999999999      16.000326999999999
    63   8      9.9162140000000001               10.471442      9.4303310000000007
    64   1      9.4884020000000007      11.051660999999999      8.7962589999999992
    65   1      9.4283929999999998               10.608917                10.24628
    66   8      8.8050700000000006      7.4378630000000001      18.165672000000001
    67   1      8.4778260000000003      6.7619109999999996      18.763774000000002
    68   1      9.5879670000000008      7.0469790000000003               17.769537
    69   8      8.1163539999999994      4.6108549999999999                7.079097
    70   1      8.1630050000000001      3.6635550000000001      7.2279949999999999
    71   1      8.8785050000000005      4.9633399999999996      7.5454889999999999
    72   8      8.7672260000000009               13.301733      10.832845000000001
    73   1      8.4410150000000002               12.445826               11.120481
    74   1      8.7085290000000004               13.269537      9.8746390000000002
    75   8      12.759315000000001      3.4385669999999999               13.594293
    76   1      13.715344999999999      3.4747620000000001               13.514153
    77   1      12.604347000000001      3.2747929999999998               14.527998
    78   8               15.853617      22.351141999999999                12.74023
    79   1      16.507930999999999      21.654191000000001      12.651581999999999
    80   1      16.170577999999999      22.883824000000001      13.474005999999999
    81   8      6.5366330000000001      3.3682270000000001                3.487797
    82   1      5.9444080000000001      3.8861849999999998                2.937602
    83   1      6.0105329999999997      2.6111490000000002      3.7574179999999999
    84   8      6.9747729999999999      19.844339999999999      16.226383999999999
    85   1                6.112355      19.486270000000001      16.449421000000001
    86   1      6.7927059999999999               20.742072      15.937298999999999
    87   8      18.554020999999999      17.878914999999999      18.760297000000001
    88   1               18.794521                18.69577      18.316863999999999
    89   1      17.921389000000001      18.148907999999999      19.430762000000001
    90   8      20.735831000000001      14.659788000000001                7.866841
    91   1               21.559078               14.481702      8.3275749999999995
    92   1               20.744947                14.05559      7.1201790000000003
    93   8               13.500166      3.7233230000000002               10.829298
    94   1      13.920612999999999                2.860344               10.814596
    95   1      14.013901000000001      4.2280430000000004      11.464888999999999
    96   8                2.760961      2.3423630000000002               20.115693
    97   1      3.0446870000000001                1.451398      20.333424000000001
    98   1      2.5906020000000001      2.3141259999999999                 19.1708
    99   8               12.720234               18.627962                15.70532
   100   1      12.362045999999999      17.769027000000001      15.469402000000001
   101   1      13.090263999999999      18.499272999999999      16.582336999999999
   102   8      3.5311110000000001      2.7767219999999999               12.186626
   103   1      2.6746829999999999      2.6178149999999998               12.590366
   104   1      3.3879990000000002      3.5348890000000002               11.614487
   105   8      2.0964079999999998      10.905523000000001      8.1310029999999998
   106   1      2.9067910000000001               11.270489      7.7679549999999997
   107   1      1.8922909999999999      11.474277000000001      8.8776600000000006
   108   8      6.8231979999999997      22.242716999999999               13.122043
   109   1      7.5027169999999996      22.540299000000001               12.512597
   110   1      6.8985789999999998               21.285169      13.114138000000001
   111   8      21.314399000000002     0.68695099999999998      4.2194570000000002
   112   1      21.247534999999999     0.32333400000000001      5.1054810000000002
   113   1      20.446521000000001      1.0618190000000001      4.0494500000000002
   114   8      18.155253999999999      16.730398999999998     0.37431599999999998
   115   1      17.763017999999999      15.921976000000001    0.036188999999999999
   116   1               17.601927      17.430599000000001    0.019081999999999998
   117   8                6.788246               10.663097      17.715724999999999
   118   1      6.4926250000000003      10.300217999999999               16.877481
   119   1      6.0567570000000002      10.501215999999999      18.316856999999999
   120   8      8.5938300000000005                4.803032               16.099574
   121   1      8.9723810000000004      5.6521049999999997               15.859785
   122   1      8.2518429999999992      4.9365769999999998               16.987185
   123   8               16.073248      1.3932960000000001      11.647911000000001
   124   1               15.503446                0.909385               11.045515
   125   1               15.471499      1.9454480000000001      12.153548000000001
   126   8                1.703492      13.352949000000001     0.87514599999999998
   127   1      1.0235890000000001      12.679087000000001     0.94840800000000003
   128   1      2.4689960000000002               12.883246     0.53452299999999997
   129   8      18.618576000000001               10.304008      16.794022999999999
   130   1      18.417601999999999      9.7263310000000001               17.534039
   131   1      19.577563000000001      10.358257999999999      16.787483999999999
   132   8                0.110167      20.793185000000001      19.398237999999999
   133   1   0.0032130000000000001                19.87433      19.141349000000002
   134   1                0.117118      20.773022000000001      20.358543999999998
   135   8      9.6197110000000006      3.3532609999999998      21.790907000000001
   136   1      9.4265840000000001      3.9134340000000001      22.546309999999998
   137   1               10.063132                3.935905      21.169180000000001
   138   8      17.806737999999999      16.645738999999999      6.6753309999999999
   139   1      17.044087000000001      17.163997999999999      6.4079470000000001
   140   1      18.295324000000001               17.226696      7.2639019999999999
   141   8      10.165497999999999                6.070233      20.495899000000001
   142   1      10.738200000000001      6.8388030000000004      20.551010999999999
   143   1      10.474489999999999                 5.59788      19.718692999999998
   144   8      4.7881900000000002      7.8429589999999996      9.6605910000000002
   145   1      5.4917360000000004      7.2270940000000001      9.4427430000000001
   146   1                3.992845      7.4271479999999999      9.3182930000000006
   147   8                7.688409      16.875402999999999               12.494849
   148   1      8.5290479999999995      17.234421999999999      12.201325000000001
   149   1      7.4353999999999996      17.434418000000001      13.233855999999999
   150   8      18.727848000000002      13.611435999999999      4.6365800000000004
   151   1               18.239708      13.502936999999999      3.8170229999999998
   152   1               18.662647      14.549943000000001      4.8304749999999999
   153   8      4.7981850000000001               13.131124      17.162137999999999
   154   1      5.2459889999999998      12.286314000000001      17.075569999999999
   155   1      4.0387779999999998      13.059367999999999      16.578361999999998
   156   8      7.9476240000000002      4.7011700000000003      11.024100000000001
   157   1                7.942869      4.0259549999999997      11.706587000000001
   158   1      8.1996000000000002      4.2310020000000002      10.225293000000001
   159   8      15.423963000000001               20.605352      18.864225000000001
   160   1               15.929639      19.811136000000001               19.051942
   161   1               14.569492               20.279961      18.569873999999999
   162   8      3.2787700000000002               11.345276      17.733059999999998
   163   1      2.5691549999999999               10.836876      17.333435000000001
   164   1      3.8715280000000001      10.682531000000001      18.096447000000001
   165   8      9.8060659999999995      9.5461050000000007      16.468202000000002
   166   1      9.0881319999999999      9.3214079999999999               17.064698
   167   1      9.3974679999999999               10.106767      15.803860999999999
   168   8      22.513539999999999      13.512524000000001      5.6447010000000004
   169   1               22.805505               14.421778      5.5460140000000004
   170   1      22.735814000000001      13.098471999999999      4.8069680000000004
   171   8      16.343561999999999      14.618290999999999      3.8418320000000001
   172   1      15.528237000000001               14.179046      4.0948830000000003
   173   1      16.385311000000002      14.512461999999999      2.8880499999999998
   174   8      8.3573339999999998     0.95539399999999997               10.692959
   175   1      9.2125179999999993     0.62058500000000005               10.413157
   176   1      8.5663049999999998                1.621469      11.352745000000001
   177   8                10.37222      2.9001670000000002                  8.5663
   178   1      9.9906769999999998      3.6911520000000002      8.9542319999999993
   179   1                10.31677      3.0486550000000001      7.6189249999999999
   180   8               10.421462      18.580946999999998      7.7308779999999997
   181   1      9.6260849999999998               18.392388      8.2344120000000007
   182   1      10.765314999999999               19.388199      8.1217120000000005
   183   8               19.158261      22.021989999999999               20.069913
   184   1               18.878138      22.669723000000001      20.720832999999999
   185   1      18.531617000000001               21.300452      20.166571999999999
   186   8                3.276456      11.558348000000001      4.4228889999999996
   187   1      4.0580600000000002      11.629516000000001      3.8699379999999999
   188   1                3.426688      10.767856999999999      4.9474809999999998
   189   8               17.545195      6.1799900000000001      21.399349000000001
   190   1               17.062103      5.6380889999999999      20.771104999999999
   191   1      18.123912000000001      5.5614340000000002      21.852247999999999
   192   8      8.5112199999999998     0.63516600000000001               21.660615
   193   1      9.2668920000000004    0.051492000000000003               21.760659
   194   1      7.8328639999999998     0.24451100000000001      22.217269000000002
   195   8      17.360890999999999               19.633039      14.790471999999999
   196   1               17.201566      20.579505000000001               14.767198
   197   1      17.086148000000001      19.366596999999999      15.671474999999999
   198   8      21.377531999999999      4.5383180000000003                0.180174
   199   1      21.240304999999999      5.4714809999999998   0.0010089999999999999
   200   1      20.716464999999999      4.3230529999999998     0.84296499999999996
   201   8      12.248011999999999               15.374053      8.4812569999999994
   202   1               13.145985               15.034981      8.4612859999999994
   203   1      12.289148000000001      16.122738999999999      9.0816060000000007
   204   8      6.3997650000000004               22.221428     0.51894200000000001
   205   1      6.4960839999999997      21.415555000000001   0.0060899999999999999
   206   1      5.7907299999999999      22.758932000000001   0.0062940000000000001
   207   8      11.426430999999999      20.390450999999999      16.573429999999998
   208   1      11.025256000000001               20.946486               17.245448
   209   1               11.670964               21.001134               15.873493
   210   8      6.1935359999999999      12.447865999999999      3.7412290000000001
   211   1      5.5775889999999997               12.823561      3.1078359999999998
   212   1      5.9562879999999998      12.858154000000001      4.5767049999999996
   213   8      2.6329410000000002               22.999039     0.38969199999999998
   214   1                2.146442      22.206803000000001     0.15009500000000001
   215   1      3.2528679999999999      22.704111999999999                1.061518
   216   8      11.880895000000001      6.8409199999999997      6.2162940000000004
   217   1      10.963521999999999      7.0787230000000001                6.369923
   218   1               12.380087                7.595199      6.5395779999999997
   219   8      15.462516000000001      6.8962969999999997               14.993561
   220   1               14.639797      7.2623110000000004      14.660557000000001
   221   1               15.198515      6.3643429999999999      15.748525000000001
   222   8      9.6947390000000002      21.698440000000002                1.695011
   223   1      9.1560089999999992      20.907302000000001      1.6201989999999999
   224   1      9.8722290000000008      21.952881999999999     0.78594600000000003
   225   8      17.080618999999999      4.2854450000000002      16.460709999999999
   226   1      16.249254000000001      4.5158440000000004               16.881985
   227   1      17.084948000000001                4.795617               15.646863
   228   8      8.9408689999999993      8.9844830000000009                2.020524
   229   1      8.1577070000000003      8.4570640000000008                1.846706
   230   1      8.7287850000000002      9.4692190000000007      2.8222049999999999
   231   8                1.290449      12.462440000000001      18.769473999999999
   232   1      1.5723180000000001      12.900435999999999      17.962979000000001
   233   1      1.4109240000000001               13.124454      19.454941000000002
   234   8      10.973501000000001      10.412394000000001      12.759175000000001
   235   1               10.391225      9.7469549999999998      13.133169000000001
   236   1               10.402974               10.936437               12.191267
   237   8               13.350184      16.067966999999999                1.351559
   238   1               13.319936               16.817377      1.9508859999999999
   239   1               14.271091                15.79495      1.3574790000000001
   240   8      16.212316999999999      22.302911000000002               20.020426
   241   1               16.273114                      23      20.677765999999998
   242   1      16.540945000000001               22.706944               19.213331
   243   8      1.7163459999999999               13.156086      3.3820079999999999
   244   1                2.292278      12.734787000000001                2.739719
   245   1     0.87939699999999998               13.257147      2.9216340000000001
   246   8      4.1318599999999996      4.9745609999999996      6.5304270000000004
   247   1      4.5903549999999997      4.1330780000000003      6.5888590000000002
   248   1                4.386482                5.440893      7.3306420000000001
   249   8      22.999953000000001      1.4382550000000001      14.043539000000001
   250   1               22.895432                1.098784      14.935480999999999
   251   1      22.738931999999998     0.70703199999999999      13.478009999999999
   252   8               20.292451               19.512539      19.926200000000001
   253   1      20.599955000000001      18.634188000000002      19.690263999999999
   254   1               20.740002      19.707636000000001      20.753409999999999
   255   8      10.853217000000001               13.791824               15.840474
   256   1      10.883005000000001      13.074669999999999      16.478069000000001
   257   1      9.9328450000000004      13.830880000000001      15.568383000000001
   258   8      1.8558840000000001      13.838399000000001               14.779244
   259   1      2.1555490000000002      14.692570999999999      15.099112999999999
   260   1                2.504016      13.591945000000001      14.114542999999999
   261   8      17.010840000000002               11.307632               21.891441
   262   1      16.179241999999999      11.778302999999999      21.984383999999999
   263   1      17.561077999999998               11.653831      22.598566000000002
   264   8     0.73678500000000002      16.521322999999999      9.4815629999999995
   265   1   0.0014480000000000001                16.06026      9.8919599999999992
   266   1      1.0401689999999999      17.134281000000001               10.156013
   267   8      15.243012999999999               15.556248               10.485455
   268   1               14.835725               14.721874               10.729709
   269   1               14.810673      15.800979999999999      9.6633659999999999
   270   8      11.871627999999999      5.3618519999999998                3.426574
   271   1               10.986326      5.5282109999999998      3.0944750000000001
   272   1      11.944005000000001      5.9220059999999997      4.2035109999999998
   273   8                5.021452               11.717554      8.1780910000000002
   274   1      5.7750630000000003               12.229711      7.8756159999999999
   275   1      4.7357519999999997      12.164072000000001      8.9791150000000002
   276   8      1.7443120000000001      9.9967009999999998     0.37932199999999999
   277   1      2.0662180000000001      10.865646999999999     0.63038899999999998
   278   1      2.5105840000000001      9.5589969999999997                       0
   279   8               21.616101                 5.25387               14.585421
   280   1                22.24981                5.004429               15.262117
   281   1                21.01268      4.5080730000000004      14.537323000000001
   282   8                 1.66818      7.9363729999999997      9.5749580000000005
   283   1      2.1290520000000002      8.7004509999999993      9.9292289999999994
   284   1                1.938591      7.9007120000000004      8.6539529999999996
   285   8      19.390464999999999      20.044205000000002      3.2086359999999998
   286   1      18.542083999999999                 19.7302      2.8871150000000001
   287   1               19.692511      19.350819999999999      3.8007740000000001
   288   8                3.177476      9.3064269999999993               15.760334
   289   1      2.9341409999999999      8.3778640000000006      15.743501999999999
   290   1      3.8497050000000002      9.3891310000000008               15.079224
   291   8      9.1024150000000006      12.523244999999999      7.2070460000000001
   292   1                 8.95519      13.387268000000001      7.5988550000000004
   293   1      9.7400070000000003               12.684428      6.5069480000000004
   294   8      8.3103390000000008               13.576559      3.6851289999999999
   295   1      8.3237360000000002                12.61829                 3.62798
   296   1      8.9941239999999993               13.786768      4.3261380000000003
   297   8    0.038634000000000002      15.016705999999999      13.034178000000001
   298   1     0.86311599999999999               14.540989               12.909087
   299   1     0.17719399999999999                15.52721               13.835944
   300   8               22.793132      7.0051810000000003     0.41369699999999998
   301   1               22.999972      7.9080560000000002                0.161191
   302   1      22.179911000000001      7.0972860000000004      1.1472629999999999
   303   8               19.418519      6.3648150000000001      7.4675760000000002
   304   1               19.750162      5.6635340000000003      6.9019409999999999
   305   1      18.756015999999999      6.8093589999999997      6.9326819999999998
   306   8      3.2034630000000002      22.318162999999998      7.5459009999999997
   307   1      2.5378609999999999      22.996400000000001      7.6826280000000002
   308   1                3.847248      22.729780000000002      6.9638749999999998
   309   8               14.656749      1.5572980000000001               14.262369
   310   1               15.064527      2.0330189999999999               14.989784
   311   1      13.806101999999999                1.275898      14.608572000000001
   312   8               22.281789      2.2293590000000001                2.211878
   313   1               22.743344      1.8423160000000001      2.9594670000000001
   314   1                 21.6281      1.5693299999999999                1.967552
   315   8      5.7994399999999997               11.411597               14.731164
   316   1                6.343934                10.73452      14.322729000000001
   317   1      4.9864699999999997                11.40448      14.219626999999999
   318   8      2.3449490000000002               10.365186      19.658339000000002
   319   1      2.6254059999999999      11.047586000000001      20.272666000000001
   320   1      2.1184910000000001      9.6184989999999999      20.218533000000001
   321   8      3.8618510000000001      9.6403490000000005      1.7341819999999999
   322   1      4.6166159999999996                9.317876      2.2322440000000001
   323   1      3.8736060000000001               10.590854                1.872179
   324   8      19.381682000000001               20.812953               14.541197
   325   1               19.535245               19.943068               14.917285
   326   1               19.763161      21.419865000000001      15.180550999999999
   327   8      18.936454000000001               11.335274      14.411269000000001
   328   1               19.123939                12.24925               14.637592
   329   1               19.427761      11.185007000000001      13.599678000000001
   330   8      7.9255719999999998      9.2148459999999996               12.996876
   331   1                7.349691      8.9785109999999992               12.265964
   332   1      7.7028179999999997      8.5867749999999994      13.688648000000001
   333   8               21.732913      5.8765289999999997      8.8621809999999996
   334   1      22.282385999999999      6.0184559999999996      9.6365590000000001
   335   1      20.836697000000001                5.852347      9.2069340000000004
   336   8      17.339306000000001      10.838753000000001      12.565898000000001
   337   1      17.419357999999999      11.755617000000001               12.839171
   338   1      17.253495999999998               10.351234      13.389063999999999
   339   8                2.592149               16.255419      12.686947999999999
   340   1      3.4411339999999999      16.696747999999999                12.60835
   341   1      2.3819499999999998               16.307758               13.622747
   342   8               12.772478                5.391883      21.581416000000001
   343   1               12.026707      5.1720699999999997               22.144651
   344   1               13.361594      4.6373499999999996               21.660567
   345   8                14.70391                5.043069               19.189221
   346   1               13.872574      4.6747820000000004      19.497395000000001
   347   1      14.461952999999999                5.569979      18.423411000000002
   348   8      18.692001000000001      22.124417000000001      11.342911000000001
   349   1      18.982483999999999      21.331333000000001      11.799378000000001
   350   1      19.497900000000001      22.497630000000001      10.977012999999999
   351   8               11.514281               10.366949      2.5903260000000001
   352   1      10.623136000000001      10.422969999999999                2.237555
   353   1      11.458066000000001      9.6951300000000007      3.2745340000000001
   354   8      13.476357999999999               17.876068      6.8268630000000003
   355   1               12.857194      17.176103000000001      6.6068449999999999
   356   1                14.11665      17.454744999999999      7.4057890000000004
   357   8                1.363496      16.434526000000002               17.607716
   358   1      1.4330430000000001      15.973565000000001      16.768429000000001
   359   1     0.85676600000000003      17.224803999999999      17.404423999999999
   360   8      19.214334000000001      16.873208000000002      4.6304160000000003
   361   1               19.704525      17.587257000000001      5.0446280000000003
   362   1               19.603071               16.793174      3.7557040000000002
   363   8      16.010031000000001      1.2292829999999999      6.7857029999999998
   364   1      16.669370000000001                1.517898      6.1503310000000004
   365   1      15.175649999999999      1.3097890000000001                6.316694
   366   8                 6.15787      2.3707929999999999                0.945824
   367   1      6.9063109999999996                1.951001      1.3763289999999999
   368   1      5.9658949999999997                1.803598                0.194773
   369   8      4.0870680000000004      8.7681889999999996      21.022359000000002
   370   1      3.8668429999999998      7.9228800000000001      21.420704000000001
   371   1      5.0474040000000002      8.7820110000000007      21.007961000000002
   372   8      10.462719999999999      8.6348680000000009      21.893643999999998
   373   1               10.922304      9.4227129999999999      21.593966000000002
   374   1      9.5364679999999993      8.8889739999999993               21.905037
   375   8      22.374431000000001               15.136566               17.641745
   376   1      22.492388999999999      15.096672999999999      18.593700999999999
   377   1      21.980889999999999      15.998870999999999      17.486184000000002
   378   8      8.3403109999999998      20.148064999999999      21.541170000000001
   379   1                9.179017      20.514534000000001      21.251346000000002
   380   1      8.2436489999999996               20.459256               22.444751
   381   8      1.3727799999999999               22.498656      20.912247000000001
   382   1                1.274403      22.851089999999999               20.024645
   383   1     0.74144600000000005               22.996509      21.437795999999999
   384   8      12.623473000000001               15.554043               15.046609
   385   1      13.538239000000001               15.845139      15.060430999999999
   386   1               12.600107               14.873258               14.369387
   387   8      21.580334000000001      9.8876950000000008      19.882190000000001
   388   1      21.370228000000001      8.9514099999999992      19.913025000000001
   389   1      20.849664000000001               10.280191      19.397721000000001
   390   8      16.681163999999999      20.754118999999999               22.656727
   391   1      16.875454999999999      20.153600999999998               21.933294
   392   1      16.177547000000001                 21.4633               22.249205
   393   8      3.2864149999999999               21.426911      21.193210000000001
   394   1      3.5221420000000001      20.821463000000001               20.486393
   395   1      4.1242450000000002               21.646189                21.60866
   396   8     0.63755799999999996      18.966381999999999      14.927967000000001
   397   1                0.367705      18.387640000000001               14.211055
   398   1   0.0066020000000000002      18.786929000000001               15.629631
   399   8      19.829450999999999     0.60675400000000002      22.827141999999998
   400   1      19.833808999999999                1.433986      22.339911000000001
   401   1      20.739830000000001     0.30278300000000002               22.789012
   402   8      4.4812630000000002      14.257006000000001      13.347619999999999
   403   1      4.4194950000000004               14.708757      14.192505000000001
   404   1      5.3100379999999996               13.773819      13.395630000000001
   405   8                9.240634      16.423705000000002      2.0209320000000002
   406   1      8.9496070000000003      16.270053000000001      1.1190340000000001
   407   1      9.5599290000000003               17.329618      2.0173739999999998
   408   8                1.048068                4.193759      2.2041330000000001
   409   1      1.4141459999999999                3.382822      2.5648170000000001
   410   1     0.88005500000000003      3.9894820000000002                1.280724
   411   8               18.847759               14.815809      1.8708579999999999
   412   1      19.357071000000001               14.109081      1.4672940000000001
   413   1      19.427620000000001               15.580525      1.8306979999999999
   414   8      22.259423000000002               11.226943      1.1648780000000001
   415   1      22.030256000000001               11.685779                1.976467
   416   1                22.84207               10.517816      1.4482569999999999
   417   8                1.723247      13.899637999999999      8.0399340000000006
   418   1                2.048727      13.262510000000001      7.3997339999999996
   419   1      2.3757899999999998               13.884186      8.7446260000000002
   420   8      7.0329290000000002      14.622089000000001      6.6362079999999999
   421   1      7.9202779999999997      14.979851999999999      6.7158490000000004
   422   1      7.0047959999999998               14.248965      5.7515450000000001
   423   8      4.5944659999999997               13.528366      6.7535959999999999
   424   1      4.1586080000000001               12.733067      6.4385519999999996
   425   1      4.2195330000000002      13.676291000000001      7.6254819999999999
   426   8      21.527273999999998      1.4968360000000001      19.917010000000001
   427   1      21.915313000000001     0.66064000000000001               20.185202
   428   1      20.895444999999999                1.258313               19.233971
   429   8                8.179449      20.609421000000001               19.465961
   430   1      7.4617209999999998      21.160022000000001      19.144355999999998
   431   1      8.9747240000000001                21.09864      19.240473999999999
   432   8                0.261376      6.5872229999999998                2.993957
   433   1     0.45558500000000002      7.4928939999999997                 3.24648
   434   1     0.90634499999999996      6.3865860000000003      2.3110210000000002
   435   8                       0      2.9998670000000001      18.805600999999999
   436   1   0.0099710000000000007                3.837872      19.273973999999999
   437   1     0.75219599999999998      3.0504340000000001      18.210381999999999
   438   8      14.877141999999999                2.707592      2.7047850000000002
   439   1      14.123060000000001      3.2552970000000001      2.9352299999999998
   440   1      15.542382999999999      3.3319619999999999                2.404353
   441   8                5.635033      17.781068999999999               17.885275
   442   1      4.8324100000000003               17.895094      17.370961999999999
   443   1      6.2092169999999998      17.259599000000001      17.318684999999999
   444   8      13.916268000000001               10.233395      17.705245999999999
   445   1               13.371686      10.439958000000001      18.468454999999999
   446   1      13.497075000000001               10.702334      16.979286999999999
   447   8                16.21697               14.263173      6.5264040000000003
   448   1               16.376998      13.374999000000001                6.198893
   449   1      16.784417999999999               14.821391      5.9887819999999996
   450   8      13.145471000000001      18.681280999999998     0.43733899999999998
   451   1      12.283512999999999                19.00573     0.16625400000000001
   452   1      13.228184000000001               17.830085  9.9999999999999995e-07
   453   8                 15.4839               14.825488               14.106994
   454   1      15.498601000000001      14.814610999999999      15.066884999999999
   455   1      16.402443999999999               14.705271                13.85309
   456   8      14.438029999999999               20.380865                 8.75535
   457   1      13.946180999999999      19.579695999999998      8.9501290000000004
   458   1                14.45764      20.421275000000001                7.795858
   459   8      1.0285260000000001      9.1902220000000003               14.113265
   460   1      1.7473959999999999      9.7835780000000003      13.883309000000001
   461   1     0.24423400000000001      9.6177499999999991               13.760069
   462   8      11.619975999999999               14.639464      3.6526070000000002
   463   1               12.064987               15.474864      3.8132239999999999
   464   1                10.68988      14.872151000000001                3.594128
   465   8      5.4986649999999999      21.941528000000002      8.8047909999999998
   466   1      4.6476069999999998      22.367225000000001      8.9321020000000004
   467   1      5.5810589999999998      21.853515000000002                7.851845
   468   8      7.3933169999999997                5.801132      14.266090999999999
   469   1                 6.79209      6.1322660000000004               13.594823
   470   1      6.8726000000000003      5.8006390000000003      15.073244000000001
   471   8                5.743112               20.221543               11.234283
   472   1                5.980194               20.856351      10.554182000000001
   473   1      5.2963319999999996               20.745386               11.904073
   474   8     0.56203499999999995                3.796945               12.084552
   475   1     0.92833600000000005                4.625375               11.766349
   476   1                0.169548      4.0198479999999996               12.932437
   477   8      7.2983159999999998      15.915241999999999               15.127886
   478   1                 6.61212               15.655832      14.508558000000001
   479   1      7.0881109999999996      16.826073999999998               15.348886
   480   8      13.642136000000001               17.506732      18.496162000000002
   481   1               12.893516      18.057389000000001      18.737141000000001
   482   1      14.402908999999999                18.08633                18.58522
   483   8     0.66754199999999997               13.452489               11.007266
   484   1     0.99104999999999999      13.014696000000001               10.216441
   485   1  1.9999999999999999e-06      14.063561999999999               10.685364
   486   8                4.821599      15.940030999999999      8.7027920000000005
   487   1      5.4713950000000002               15.950481      9.4094610000000003
   488   1      4.1942630000000003               16.625705      8.9455729999999996
   489   8      13.199897999999999      15.768077999999999               11.834662
   490   1      12.940251999999999      16.206814000000001      11.021140000000001
   491   1               12.391482               15.726746      12.351767000000001
   492   8      18.379470999999999      7.4237330000000004      17.071870000000001
   493   1      17.629705000000001      7.1247179999999997      16.552095999999999
   494   1               19.145529                7.190639      16.541339000000001
   495   8      4.1019069999999997      3.9634010000000002      16.127109999999998
   496   1                4.579142                3.131834               16.176776
   497   1      3.4698799999999999      3.8334589999999999      15.415563000000001
   498   8      4.3535029999999999               16.131508      18.605550999999998
   499   1      4.7027729999999996               15.237771      18.574421000000001
   500   1                3.401516      16.017628999999999      18.547295999999999
   501   8      18.544042999999999      3.9966339999999998      8.7345749999999995
   502   1      18.331928000000001      4.2650449999999998      7.8375320000000004
   503   1               18.744329      3.0600010000000002      8.6621400000000008
   504   8      5.7015570000000002      21.497274999999998      17.692803999999999
   505   1      5.0079669999999998      20.847145999999999      17.826930000000001
   506   1      5.3102090000000004      22.144794000000001      17.101019999999998
   507   8      11.581791000000001                0.941689      5.0951259999999996
   508   1      10.976260999999999     0.59971399999999997      5.7570259999999998
   509   1               11.026282                1.463943      4.5109149999999998
   510   8               19.698808      3.7110150000000002      21.406103000000002
   511   1      18.776209000000001      3.4570940000000001               21.328256
   512   1      19.903763000000001      4.1258860000000004      20.564368999999999
   513   8               15.709927               22.397143      9.4548509999999997
   514   1      16.254822999999998      22.147653999999999      8.7048050000000003
   515   1               15.059049                      23      9.0866629999999997
   516   8      16.077401999999999                4.514246      7.6726099999999997
   517   1               15.167296      4.7886119999999996      7.5378679999999996
   518   1               16.320401      4.0819789999999996      6.8499689999999998
   519   8               15.628492               10.411277      16.161992999999999
   520   1      16.279105999999999               11.043025      15.846842000000001
   521   1      15.448472000000001      9.8543810000000001      15.400347999999999
   522   8      6.8202379999999998               11.571557      9.7824019999999994
   523   1      7.3072809999999997      11.179171999999999      9.0540140000000005
   524   1      6.1878690000000001               10.895282               10.038143
   525   8      4.6755779999999998               11.482535      21.232250000000001
   526   1      4.8409170000000001               12.139301      21.912724999999998
   527   1      5.5210910000000002               11.041891      21.115705999999999
   528   8      8.1770639999999997                2.053207      5.5870240000000004
   529   1      9.0550890000000006      1.6668449999999999      5.5480119999999999
   530   1      7.7440800000000003      1.7423900000000001      4.7879240000000003
   531   8      11.716416000000001      7.3250789999999997     0.67936600000000003
   532   1      11.682733000000001      8.2503349999999998     0.93331699999999995
   533   1      12.394607000000001                7.288799  0.00011400000000000001
   534   8      16.147767999999999      13.985569999999999                0.107421
   535   1               15.877414      14.906002000000001     0.14534900000000001
   536   1               15.673707      13.567818000000001     0.83087999999999995
   537   8      1.8107409999999999      23.002569000000001      5.1385009999999998
   538   1      2.7581150000000001               22.992172      5.2937399999999997
   539   1                1.424955               23.000995      6.0181649999999998
   540   8                2.279522      7.6586699999999999               11.863842
   541   1                1.718229      8.3703070000000004               12.180463
   542   1                3.146604      8.0616749999999993      11.772202999999999
   543   8      5.2314030000000002      8.7832849999999993      13.476718999999999
   544   1      4.7150299999999996      9.4386770000000002               13.001804
   545   1      4.8952349999999996      7.9405869999999998      13.161293000000001
   546   8      11.729639000000001               15.004783      17.970102000000001
   547   1      10.804130000000001               14.750297               17.989974
   548   1      11.841060000000001               15.432471      17.117277000000001
   549   8      1.4658340000000001      4.1337210000000004      9.0488949999999999
   550   1     0.53169599999999995      3.9302350000000001      9.1366720000000008
   551   1      1.8327830000000001      3.3752019999999998      8.5877669999999995
   552   8                9.538672      8.0792210000000004      14.821794000000001
   553   1      8.8320039999999995      7.8653680000000001      15.435480999999999
   554   1      10.330793999999999      7.7325290000000004      15.240111000000001
   555   8      2.7554569999999998      8.1739130000000007      3.8185549999999999
   556   1      2.2484350000000002      8.7710980000000003                3.263557
   557   1      2.8815089999999999      8.6590980000000002      4.6379140000000003
   558   8                7.151249      16.165071000000001      19.377168999999999
   559   1      7.8234539999999999      16.699383000000001               19.806559
   560   1      6.8064920000000004      15.606693999999999      20.078596000000001
   561   8      3.6700810000000001      4.7296940000000003      18.407613999999999
   562   1      2.9697170000000002      4.1737529999999996      18.058119999999999
   563   1      4.1123050000000001                4.176444      19.056453999999999
   564   8      2.2823419999999999      18.376550999999999      9.1943940000000008
   565   1      3.1551719999999999      18.380956999999999      8.7945539999999998
   566   1                2.214626      19.230727999999999      9.6284880000000008
   567   8      22.048870999999998      19.968122999999999               10.178376
   568   1      21.270759000000002      19.607977000000002      9.7464479999999991
   569   1      22.706029000000001               19.271369      10.105446000000001
   570   8      14.096379000000001      12.836525999999999      8.2312320000000003
   571   1               14.653167               13.600375      8.0631640000000004
   572   1               13.594652      13.074986000000001      9.0148449999999993
   573   8      5.7085090000000003      6.6009979999999997      3.8984580000000002
   574   1      5.1431329999999997      7.3747449999999999      3.8402259999999999
   575   1      5.5884309999999999      6.2850799999999998                 4.79758
   576   8      19.023910999999998      9.9811820000000004      22.075154000000001
   577   1               19.840581                10.13612      21.594768999999999
   578   1      19.275698999999999               10.044012      22.999977000000001
   579   8               15.733423      22.926428000000001               16.526909
   580   1               15.508179                22.30274      17.221174000000001
   581   1      14.931874000000001      22.999351000000001               16.002654
   582   8      9.8123860000000001      1.8472390000000001     0.98766200000000004
   583   1      8.9895160000000001                 1.42984     0.72235199999999999
   584   1               10.263994      1.1761159999999999                1.505625
   585   8     0.39979599999999998      18.558509000000001   0.0049370000000000004
   586   1     0.93711900000000004      17.763964999999999    0.046267999999999997
   587   1                0.024253      18.638442999999999     0.88540200000000002
   588   8      5.0476979999999996      7.6363329999999996      15.655906999999999
   589   1      5.9857990000000001      7.8049970000000002      15.540825999999999
   590   1      4.9069789999999998      6.7803620000000002               15.243411
   591   8      22.895455999999999      7.9708610000000002      7.4726790000000003
   592   1      22.034407999999999      7.8157779999999999      7.8679889999999997
   593   1      22.999980000000001                8.925421                7.495768
   594   8               11.521741      2.7717999999999998               10.972256
   595   1      10.621230000000001                2.548546      10.725352000000001
   596   1      11.424811999999999      3.4864700000000002      11.606680000000001
   597   8      3.0598879999999999     0.77647100000000002      11.401134000000001
   598   1                2.196968     0.89969200000000005               10.998751
   599   1                  3.6814     0.94007700000000005      10.687272999999999
   600   8      17.420245000000001                 15.1075               19.964005
   601   1      17.995844999999999               14.379557               20.209989
   602   1      17.984735000000001               15.697295      19.457906000000001
   603   8               18.596612      2.2553190000000001      3.1080909999999999
   604   1      18.953113999999999                2.975406      3.6335489999999999
   605   1      19.256216999999999                2.109102      2.4253149999999999
   606   8      16.603982999999999      7.3193770000000002      19.055381000000001
   607   1      17.159915999999999                6.584047      18.787137999999999
   608   1      17.069718000000002      7.7118289999999998      19.798155999999999
   609   8      19.634350999999999      12.652900000000001      17.745518000000001
   610   1      18.990621999999998      12.868017999999999               17.066502
   611   1      19.115487000000002               12.252324                18.44763
   612   8               16.666442      6.8090320000000002      6.2358719999999996
   613   1      16.442257999999999      5.9992970000000003      5.7713330000000003
   614   1               16.476291                6.615729      7.1573479999999998
   615   8               18.897551               11.942057                 1.32216
   616   1               19.855971               11.885954      1.3190550000000001
   617   1      18.659154000000001               11.898175                2.251614
   618   8      21.159521999999999      4.8417180000000002      12.367506000000001
   619   1      20.258641000000001      4.6507719999999999               12.096071
   620   1      21.527529000000001      5.3439819999999996               11.636108
   621   8      5.2482040000000003      5.6721579999999996      20.696933000000001
   622   1      5.3961940000000004      6.1979040000000003      21.486498999999998
   623   1      5.1519640000000004      6.3196019999999997      19.993942000000001
   624   8               14.124355      12.317023000000001      3.2281049999999998
   625   1      14.834943000000001      12.638115000000001                2.668024
   626   1               13.685884               13.113764      3.5372819999999998
   627   8      12.406292000000001      11.661262000000001      11.558977000000001
   628   1      12.991061999999999      12.224970000000001               11.047115
   629   1      12.391482999999999               10.831453      11.075407999999999
   630   8      16.561620000000001      9.7861460000000005      6.2077220000000004
   631   1      16.742878000000001      9.0651539999999997      6.8152090000000003
   632   1      16.131761999999998      9.3648430000000005      5.4591450000000004
   633   8      3.4691839999999998      8.3266849999999994               18.553822
   634   1      2.5788880000000001      8.4698899999999995      18.224291999999998
   635   1      3.4344459999999999      7.4595229999999999      18.965482000000002
   636   8      18.709129000000001                2.008146               11.526031
   637   1               19.160622      1.6601049999999999      10.753538000000001
   638   1                19.36655      2.5590670000000002                11.95838
   639   8               14.305403      5.1276890000000002      5.1436320000000002
   640   1      14.929665999999999      4.9600929999999996      4.4337499999999999
   641   1               13.631021      4.4527999999999999      5.0323820000000001
   642   8      9.3476529999999993      10.447293999999999      5.6277559999999998
   643   1      10.129193000000001               10.178222      5.1393700000000004
   644   1      9.6397130000000004               10.486991      6.5419590000000003
   645   8      20.886877999999999               22.458067      9.0524539999999991
   646   1      20.199739000000001      21.861809999999998      8.7457910000000005
   647   1      21.285986999999999      21.999535000000002                9.796163
   648   8      2.4937299999999998      17.838453999999999               19.525672
   649   1      1.6309769999999999      18.248881000000001      19.431169000000001
   650   1      2.3653019999999998      17.165856999999999      20.199290999999999
   651   8      21.353307999999998                3.434564               10.192224
   652   1      20.464134999999999      3.7806579999999999      10.085845000000001
   653   1               21.324171      2.9537309999999999               11.023242
   654   8               16.766579                3.748621      4.4767929999999998
   655   1      17.543800999999998      4.0314670000000001      4.9642850000000003
   656   1      16.881084999999999      2.8003939999999998      4.3748339999999999
   657   8      6.0618829999999999      4.7180369999999998      17.031700000000001
   658   1      6.0436319999999997                4.471228      17.959319000000001
   659   1      5.8768690000000001      5.6605930000000004               17.032073
   660   8      11.633374999999999      3.4514230000000001                1.377678
   661   1               12.474195      2.9885139999999999                1.399178
   662   1               11.371456                3.513004      2.2997670000000001
   663   8      8.0286299999999997      9.1104489999999991      8.8538730000000001
   664   1      8.7388239999999993      9.0215350000000001      8.2139950000000006
   665   1      7.2298619999999998      8.9379659999999994      8.3490339999999996
   666   8      7.7234059999999998      13.738573000000001      19.137073999999998
   667   1      7.0839990000000004               13.077776      19.413174000000001
   668   1      7.2957640000000001               14.193904      18.407391000000001
   669   8               15.443975      8.3575940000000006               17.105117
   670   1               15.735954      8.9441389999999998      17.806857000000001
   671   1      14.994115000000001      7.6431740000000001      17.563234999999999
   672   8      14.354404000000001      8.2083829999999995      7.9369899999999998
   673   1      14.421677000000001      8.9065169999999991      7.2813929999999996
   674   1                14.39175      7.3963559999999999      7.4252690000000001
   675   8      8.3356510000000004      22.164870000000001      15.182714000000001
   676   1      7.9096549999999999      22.973849000000001      14.889786000000001
   677   1      8.8479170000000007               21.876583               14.423033
   678   8      17.050515000000001      20.099205999999999      11.188565000000001
   679   1      16.207170000000001               19.667261               11.033911
   680   1      17.148976000000001      20.702269999999999      10.447444000000001
   681   8               19.216217                7.323061               20.443655
   682   1      19.521761000000001      6.4186319999999997               20.341794
   683   1      19.287984999999999      7.6995969999999998      19.562909999999999
   684   8     0.16461600000000001                0.021665      1.0539050000000001
   685   1     0.43188700000000002     0.92440500000000003     0.86588200000000004
   686   1    0.024670000000000001   0.0074320000000000002      2.0040909999999998
   687   8      20.602616999999999      7.2235829999999996      4.5931340000000001
   688   1      19.764772000000001      6.9642559999999998      4.9836349999999996
   689   1      20.360690000000002                7.839531      3.8969149999999999
   690   8      20.274319999999999      19.506689000000001      7.0387060000000004
   691   1      19.432998999999999      19.236408000000001      7.4140100000000002
   692   1                20.82057      18.717967000000002      7.0852979999999999
   693   8      3.1992240000000001                4.875108      3.9654410000000002
   694   1      4.0806969999999998      5.1000899999999998      3.6586609999999999
   695   1                3.027539                5.498672                4.675605
   696   8      9.6346559999999997      21.081652999999999      8.9365360000000003
   697   1      9.0262630000000001      21.761655999999999      9.2351620000000008
   698   1               10.170266      21.517458000000001      8.2688249999999996
   699   8      4.7254009999999997                 15.2723      16.324279000000001
   700   1      4.8843259999999997      16.100951999999999      15.866236000000001
   701   1                3.776621               15.260605      16.473683000000001
   702   8      12.486902000000001      2.9002050000000001      6.8089880000000003
   703   1               11.979787                 3.45011      6.2071870000000002
   704   1      13.297694999999999      2.7085020000000002                6.330965
   705   8                9.714988      19.159846000000002      15.942337999999999
   706   1      9.1219780000000004               19.534941                 16.5976
   707   1      9.1329320000000003      18.847864000000001               15.244828
   708   8      14.894016000000001      14.919695000000001               18.259145
   709   1      15.500723000000001                15.59393                18.57385
   710   1               15.370091               14.483815      17.547806000000001
   711   8      8.3626190000000005      22.844768999999999      18.050363999999998
   712   1                7.421754                      23      17.939001999999999
   713   1      8.7347180000000009      22.999998999999999      17.178533000000002
   714   8      8.0913409999999999      10.110932999999999               19.400337
   715   1      8.1780810000000006      11.040677000000001      19.623446000000001
   716   1      7.9784220000000001      9.6720299999999995      20.247246000000001
   717   8               20.903119      9.8107330000000008               11.599231
   718   1      20.270143999999998               10.530846               11.649279
   719   1      21.020810999999998      9.5329250000000005      12.511158999999999
   720   8      19.799790000000002      16.717722999999999      9.6473429999999993
   721   1      20.708017999999999      16.510211999999999      9.8792589999999993
   722   1      19.702300999999999                16.39068      8.7494669999999992
   723   8      8.1304390000000009      17.697939999999999      9.7311789999999991
   724   1      7.9945880000000002      18.616862999999999      9.4885909999999996
   725   1      7.5122470000000003      17.547408999999998      10.450775999999999
   726   8               12.218263               22.866667      8.9939309999999999
   727   1               11.790956                      23      8.1446039999999993
   728   1               11.516969      22.998380000000001      9.6369559999999996
   729   8                 15.3157               19.569035      5.7170820000000004
   730   1      14.366789000000001               19.638703      5.5888689999999999
   731   1               15.413857               18.933681      6.4307569999999998
   732   8      4.2773110000000001      9.9520470000000003      10.730389000000001
   733   1      3.9744130000000002      9.8933210000000003      9.8212530000000005
   734   1      3.9367510000000001               10.794692      11.041211000000001
   735   8                11.55139      3.8882659999999998      17.284334000000001
   736   1      11.792733999999999      3.5666720000000001      18.156144999999999
   737   1      12.084682000000001      4.6782870000000001      17.165558000000001
   738   8      11.607915999999999     0.80156700000000003      11.947323000000001
   739   1      10.702254999999999     0.56179699999999999      12.157114999999999
   740   1               12.110984                       0               12.111806
   741   8               19.399193      9.2906479999999991      7.2350339999999997
   742   1      19.772746000000001      9.8666269999999994      6.5638920000000001
   743   1      20.044319000000002      8.5853409999999997      7.3298810000000003
   744   8               14.033393                12.11533     0.63210599999999995
   745   1               13.547146               11.559028      1.2451449999999999
   746   1      13.372113000000001               12.408253  9.0000000000000002e-06
   747   8      20.068570999999999      15.219777000000001      16.699977000000001
   748   1      20.118441000000001               14.829908      17.575900000000001
   749   1               19.852131      16.141611999999999               16.861269
   750   8      19.881758000000001      9.1751389999999997               14.831951
   751   1      20.282343999999998      8.3277590000000004               15.039802
   752   1      19.267606000000001      8.9802129999999991      14.119586999999999
   753   8      4.9738009999999999      9.2427919999999997      7.7598159999999998
   754   1      5.1361879999999998      8.3984330000000007                7.332719
   755   1      4.0278340000000004      9.3799150000000004      7.6650280000000004
   756   8      4.4497499999999999      22.693525999999999               19.050006
   757   1      3.5371929999999998      22.562851999999999      19.318125999999999
   758   1      4.9607950000000001      22.195105999999999               19.692698
   759   8      16.486429999999999      4.5354840000000003      10.646808999999999
   760   1               15.743765      5.1013659999999996               10.423314
   761   1      16.645551999999999                4.024718      9.8490369999999992
   762   8      18.148734000000001      5.0028680000000003     0.98464799999999997
   763   1               18.516323      4.1207240000000001                1.076435
   764   1      18.902270000000001      5.5879779999999997      1.0963179999999999
   765   8      7.3581250000000002      7.1959220000000004      21.358689999999999
   766   1      6.9114120000000003      7.5268189999999997               20.575951
   767   1      8.2918939999999992      7.2446099999999998      21.138812000000001
   768   8     0.33778399999999997               17.126251      20.831727999999998
   769   1     0.52382499999999999      16.422205000000002      21.457374999999999
   770   1  4.8999999999999998e-05      16.672340999999999               20.055491
   771   8      15.129720000000001      8.0920799999999993      2.3527469999999999
   772   1      15.720019000000001      8.7374030000000005      2.7487650000000001
   773   1                14.73076      8.5564999999999998      1.6126199999999999
   774   8      21.023489000000001      1.7244440000000001               16.658441
   775   1               20.325602                2.268132      17.031379000000001
   776   1               20.992279      1.9095260000000001      15.716416000000001
   777   8      11.958361999999999      1.5582039999999999      19.967787000000001
   778   1               12.448912      1.0504309999999999      19.317209999999999
   779   1               12.368641      2.4265590000000001               19.951255
   780   8      15.158143000000001      2.1508750000000001               18.941319
   781   1               14.365617      2.6568360000000002      18.747330000000002
   782   1               14.837541      1.2615890000000001      19.111692000000001
   783   8     0.51711399999999996      9.0906319999999994      17.659003999999999
   784   1     0.38203199999999998      9.9776600000000002      17.317450000000001
   785   1     0.53935999999999995      9.2031700000000001      18.612670999999999
   786   8      18.787704999999999      20.820226999999999     0.96383700000000005
   787   1      18.658916999999999      21.491720000000001     0.28986699999999999
   788   1               18.564615               19.995656     0.52456999999999998
   789   8      6.8857660000000003               11.466386      5.6717170000000001
   790   1      7.3889699999999996      11.503577999999999      6.4884959999999996
   791   1      7.2592350000000003      10.720586000000001      5.1953300000000002
   792   8      18.135000000000002               20.937535               16.805446
   793   1      17.536208999999999      21.671271000000001      16.647950000000002
   794   1      17.709827000000001               20.427574      17.499572000000001
   795   8               10.852705               15.382287                1.458189
   796   1               11.220126      16.179131000000002                1.847761
   797   1               11.441806               15.181011     0.72669099999999998
   798   8      22.699435000000001      12.603312000000001      8.1109899999999993
   799   1      22.220617000000001      12.008095000000001      8.6925179999999997
   800   1               22.999993      12.042828999999999      7.3911530000000001
   801   8                21.11074      20.294934999999999      16.665555000000001
   802   1               20.281506               20.056645      17.086639999999999
   803   1      21.750368000000002      20.296015000000001      17.382155999999998
   804   8                 0.81394      13.078811999999999      21.822998999999999
   805   1                1.412283                12.38833               21.528133
   806   1    0.079944000000000001      13.038308000000001      21.204734999999999
   807   8      8.6445620000000005                13.50203               13.726364
   808   1      8.2947260000000007               13.938165               12.945898
   809   1      7.9045889999999996               13.478797      14.338362999999999
   810   8     0.48181000000000002      11.961277000000001               16.088614
   811   1     0.32843299999999997               12.907124      16.148402999999998
   812   1      1.3294330000000001      11.884862999999999               15.643264
   813   8      14.330671000000001      5.6873170000000002     0.37894899999999998
   814   1               14.651584      6.5436129999999997     0.67134799999999994
   815   1               15.102948      5.2599660000000004                       0
   816   8      17.210156999999999      10.441838000000001      19.282088000000002
   817   1      16.667936999999998               11.133512      18.895683999999999
   818   1               16.580202      9.8550039999999992      19.708027999999999
   819   8               12.487465      8.8328389999999999               16.344434
   820   1      12.210221000000001      8.8636289999999995               17.263081
   821   1               11.952709      9.5030339999999995               15.911403
   822   8      6.7803579999999997      10.436617999999999      2.5919569999999998
   823   1      6.5664870000000004      9.6879770000000001      3.1536689999999998
   824   1      5.9479620000000004               10.905503                2.492426
   825   8      14.661910000000001               11.445269      20.155325000000001
   826   1                14.29617      11.978949999999999               20.864652
   827   1               14.616092      12.012976999999999      19.381858000000001
   828   8                 6.93614               14.513012      9.4840920000000004
   829   1      6.1425179999999999                13.99314      9.3370499999999996
   830   1                7.011482      14.567914999999999      10.440099999999999
   831   8      9.0459549999999993      19.366776000000002               11.716275
   832   1      8.3398629999999994      19.595072999999999               12.325405
   833   1      9.0842720000000003               20.108338               11.106964
   834   8               22.154802      1.0524610000000001      10.288068000000001
   835   1               22.588898      1.6294740000000001      9.6553419999999992
   836   1               22.637411                1.190663      11.106987999999999
   837   8      12.910595000000001      19.942274000000001      3.6958570000000002
   838   1               12.636218      20.833110000000001      3.4659589999999998
   839   1      12.400854000000001               19.731233      4.4821569999999999
   840   8      7.2316710000000004      6.8074519999999996      11.216310999999999
   841   1      6.3457739999999996      7.0433779999999997               11.501357
   842   1      7.4249619999999998      7.4228820000000004               10.504605
   843   8      17.563659000000001      16.623314000000001      2.4372579999999999
   844   1      18.030830000000002      17.461013999999999      2.3956149999999998
   845   1      17.485341999999999      16.440446000000001      3.3769749999999998
   846   8               10.492977      19.141393000000001      3.2890239999999999
   847   1      9.9808819999999994      19.950956000000001                3.225063
   848   1      10.981676999999999      19.102506999999999      2.4630079999999999
   849   8      3.9192109999999998      21.245432999999998               15.454158
   850   1      3.5743719999999999      21.050339999999998      14.579658999999999
   851   1      3.1712560000000001               21.618219               15.927693
   852   8     0.13693900000000001      22.136652999999999      7.7209950000000003
   853   1   0.0010970000000000001               21.803293      8.6110190000000006
   854   1     0.54586400000000002               22.996437      7.8482469999999998
   855   8               12.798935                10.66084               21.792437
   856   1      12.604825999999999               10.338733                22.67578
   857   1               12.093268      11.285247999999999               21.605919
   858   8      6.4627280000000003      19.444562000000001      20.198053999999999
   859   1      6.7382929999999996      18.613129000000001                19.80498
   860   1      5.5062379999999997      19.444541999999998      20.109902999999999
   861   8               20.710953      14.946211999999999                 14.6043
   862   1               19.811591      14.610265999999999      14.600873999999999
   863   1      20.931605000000001                15.04637      13.674825999999999
   864   8                6.652018                1.560371      16.053388999999999
   865   1      5.8062589999999998      1.1488050000000001               16.245825
   866   1      6.4532999999999996      2.2053389999999999      15.369891000000001
   867   8      10.275520999999999      7.1195180000000002               12.219732
   868   1                9.828087      7.9382539999999997               11.993458
   869   1      9.6775610000000007      6.6821080000000004                12.83109
   870   8      5.7386670000000004      4.7544909999999998               10.968453
   871   1      5.9258360000000003                4.915324                11.89626
   872   1                5.074128      5.4100929999999998      10.742145000000001
   873   8               14.350564               16.649279      5.3601049999999999
   874   1               14.016499               15.848943      4.9482939999999997
   875   1      15.099201000000001      16.353211000000002      5.8840589999999997
   876   8      2.7873559999999999      4.7869250000000001               20.717927
   877   1      3.0510489999999999      5.7008939999999999               20.588113
   878   1                2.001207                 4.68621               20.175279
   879   8               22.082791      12.380699999999999      18.423649000000001
   880   1               22.119809      12.900301000000001               19.230103
   881   1      21.807901000000001      13.006778000000001      17.749034999999999
   882   8      7.8457939999999997      5.1450230000000001      3.1765119999999998
   883   1      7.7330240000000003      5.7402889999999998      3.9212699999999998
   884   1      7.3783219999999998      5.5741139999999998                2.455406
   885   8      4.2188990000000004      17.642938999999998      20.966339000000001
   886   1      4.1830660000000002               16.995742      21.674561000000001
   887   1      4.9466939999999999      17.349920000000001      20.412175999999999
   888   8      6.0991960000000001               13.820055      21.247475999999999
   889   1      5.7333480000000003                14.34008      21.966819000000001
   890   1                6.968191                13.55725      21.561201000000001
   891   8               21.744353      16.764244000000001      5.3976230000000003
   892   1               21.221263               16.098533      4.9449310000000004
   893   1      21.381754999999998               16.788383      6.2867699999999997
   894   8      21.004155000000001      16.312650000000001                0.116816
   895   1               20.054575      16.206209000000001                 0.02358
   896   1               21.208489               15.901349     0.96045100000000005
   897   8      17.408753999999998      7.8770949999999997      4.4611939999999999
   898   1      18.211348000000001      8.3958729999999999      4.3693350000000004
   899   1      17.640567999999998      7.0146059999999997      4.1076180000000004
   900   8      9.6742519999999992                6.939908      9.1569210000000005
   901   1      9.4917619999999996      6.4523000000000001      9.9635560000000005
   902   1      8.8638200000000005                6.868055      8.6463540000000005
   903   8      9.8315920000000006      14.209576999999999      20.614823999999999
   904   1      9.8488330000000008               14.916667      19.965630000000001
   905   1      10.725707999999999      13.858629000000001               20.608929
   906   8      14.137192000000001               13.096487      15.980494999999999
   907   1               13.465989               12.481887      15.674751000000001
   908   1      14.649165999999999      12.592594999999999      16.618161000000001
   909   8      5.6693740000000004      18.400186999999999      9.1639750000000006
   910   1      4.9926399999999997      19.026561999999998      9.4312009999999997
   911   1      6.0000830000000001      18.747153999999998      8.3315769999999993
   912   8      2.2367560000000002      19.037209000000001      21.404506000000001
   913   1      1.7491969999999999      19.855810999999999      21.522410000000001
   914   1      3.0150229999999998      19.141425000000002               21.957753
   915   8               14.620084      20.519424999999998      14.681976000000001
   916   1      13.694919000000001      20.651074000000001               14.902122
   917   1               14.618962               20.355407               13.735541
   918   8      15.533554000000001      12.508596000000001               10.764771
   919   1               15.798321      11.662964000000001               11.134271
   920   1               16.324645      13.050694999999999               10.819042
   921   8               10.999896               12.597536      8.4905659999999994
   922   1      11.878401999999999      12.303815999999999      8.2382150000000003
   923   1      11.048076999999999               12.701639      9.4442339999999998
   924   8      7.2884349999999998                      23      7.0103150000000003
   925   1      7.9736979999999997      22.895544000000001      6.3460640000000001
   926   1      7.5659720000000004      22.428899999999999      7.7310509999999999
   927   8      8.8115799999999993               10.597049     0.48949799999999999
   928   1      8.2050210000000003      11.302229000000001     0.72726199999999996
   929   1      9.5428750000000004      11.046730999999999    0.058644000000000002
   930   8      21.384678000000001               13.711795      3.1918679999999999
   931   1               20.461119      13.468901000000001      3.2906970000000002
   932   1      21.391992999999999      14.325901999999999      2.4533149999999999
   933   8               15.327579      1.8684400000000001     0.72162300000000001
   934   1      15.280692999999999      1.2369410000000001  3.9999999999999998e-06
   935   1      14.806133000000001                2.616009     0.41851100000000002
   936   8      16.289007999999999      8.5825049999999994    0.059702999999999999
   937   1      17.141839000000001      9.0193580000000004  9.9999999999999995e-07
   938   1      16.503996000000001      7.6497789999999997                0.139984
   939   8      5.7246990000000002      17.646142000000001      11.639288000000001
   940   1      5.6971480000000003               16.701753               11.468712
   941   1      4.8324569999999998      17.948430999999999      11.451760999999999
   942   8      5.2809910000000002      1.6060190000000001      18.335495999999999
   943   1      5.2390629999999998      2.2846880000000001      19.013269000000001
   944   1      4.4148709999999998                1.629321      17.920846999999998
   945   8      16.851749999999999      4.0201140000000004      18.970379000000001
   946   1      17.593972999999998                3.423521               18.848281
   947   1      16.465686000000002      3.7520609999999999      19.808081000000001
   948   8      9.8495659999999994      20.733294999999998      6.1490429999999998
   949   1      9.4790240000000008               20.093214      5.5368979999999999
   950   1               10.476913      21.233125000000001      5.6206040000000002
   951   8      12.766603999999999                1.005703      16.729382000000001
   952   1      13.479499000000001      1.0057609999999999      17.372426000000001
   953   1      12.166081999999999      1.6884129999999999      17.039097000000002
   954   8      15.217140000000001                11.98363      14.075647999999999
   955   1      15.302625000000001               12.688608      13.429563999999999
   956   1      15.159401000000001      11.182772999999999      13.548450000000001
   957   8      21.226548999999999      7.5756870000000003      17.739322999999999
   958   1      20.583411000000002      8.2773199999999996      17.865058999999999
   959   1      21.049040000000002                6.958691      18.453779999999998
   960   8               14.193892                21.92257     0.69438200000000005
   961   1      14.519527999999999      21.878147999999999      1.5964430000000001
   962   1      14.037523999999999      21.006371999999999     0.45195000000000002
   963   8     0.54321600000000003      6.0552320000000002      17.800664000000001
   964   1  0.00030699999999999998      5.2862749999999998      17.611771000000001
   965   1                 1.37209      5.6893510000000003      18.119634000000001
   966   8                7.086932      8.1112529999999996      6.1823090000000001
   967   1      7.2943410000000002      7.4996099999999997      5.4719579999999999
   968   1      6.6743610000000002      8.8580620000000003      5.7410589999999999
   969   8      15.331200000000001      7.2620560000000003               10.033255
   970   1      16.041157999999999                7.845917               10.310366
   971   1               15.623619      6.9165169999999998      9.1860619999999997
   972   8      8.4308569999999996      4.6039199999999996               19.189187
   973   1      8.3172960000000007      3.6522079999999999      19.133742000000002
   974   1      7.6329520000000004      4.9142809999999999      19.624693000000001
   975   8      8.3799639999999993      22.999355000000001      2.8603719999999999
   976   1      8.5118819999999999      22.149612999999999                3.287293
   977   1      8.0376019999999997      22.778556999999999      1.9904999999999999
   978   8      16.532464999999998               16.777085                11.92151
   979   1      17.068763000000001               17.365036                12.45856
   980   1      17.169813999999999               16.212446      11.476974999999999
   981   8      21.847442000000001      18.999026000000001                12.18713
   982   1      22.729890999999999      19.346437000000002      12.336513999999999
   983   1      21.989097999999998      18.074687000000001               11.967646
   984   8      15.662648000000001      17.601120999999999      2.9282089999999998
   985   1               14.888339      18.137167000000002      2.7415940000000001
   986   1               15.466566      17.184284000000002      3.7710849999999998
   987   8      19.222594999999998      22.942281999999999      17.264921999999999
   988   1      20.107216999999999      22.931840000000001               17.637829
   989   1      18.642413000000001      22.992477000000001      18.028801000000001
   990   8               10.251944      17.225660000000001      4.8118840000000001
   991   1               10.489948      16.325254000000001      5.0450090000000003
   992   1      9.6254460000000002      17.127493000000001      4.0904230000000004
   993   8      19.306411000000001      5.1470459999999996      3.6024430000000001
   994   1      19.778279999999999                5.819121      3.1050689999999999
   995   1      18.420573999999998      5.1535859999999998      3.2311030000000001
   996   8      17.744343000000001      9.4666560000000004      2.2495539999999998
   997   1      18.576287000000001                9.723929      2.6537869999999999
   998   1               17.863999      8.5399980000000006      2.0267789999999999
   999   8      19.221848999999999      15.826320000000001               12.524288
  1000   1      18.715948000000001               15.020488      12.652442000000001
  1001   1      19.601437000000001      15.732551000000001               11.646927
  1002   8      21.412724999999998               11.899165      14.273384999999999
  1003   1      22.343171999999999               11.698936               14.147285
  1004   1      21.410913000000001               12.699263               14.804876
  1005   8                       0               10.280211               10.189287
  1006   1     0.88883500000000004               10.416959      10.525437999999999
  1007   1    0.072648000000000004      9.5001200000000008      9.6335680000000004
  1008   8      21.888781000000002      5.4108450000000001      6.0822609999999999
  1009   1      21.744410999999999                6.343337      6.2592939999999997
  1010   1      22.647984999999998                5.394577      5.4940540000000002
  1011   8               14.866579               20.199202      20.987946000000001
  1012   1      14.209569999999999                20.85258               20.736628
  1013   1               14.439821      19.685189000000001      21.678097999999999
  1014   8      10.784361000000001      17.252618999999999      17.917476000000001
  1015   1               10.757277               18.158728               17.601315
  1016   1               10.241161      17.260155000000001      18.709637000000001
  1017   8      1.1913629999999999      4.8784320000000001      6.9793909999999997
  1018   1      1.7434050000000001      5.5207709999999999      6.5273110000000001
  1019   1     0.57773699999999995      5.4104260000000002      7.4923109999999999
  1020   8      11.008927999999999    0.050356999999999999               14.647449
  1021   1      11.756377000000001     0.53997899999999999               14.296286
  1022   1               10.246725     0.59597299999999997               14.437707
  1023   8               12.339729               14.418336      6.0545960000000001
  1024   1      11.552516000000001               13.874919      6.1365619999999996
  1025   1               12.872633      13.968011000000001      5.3943960000000004
  1026   8      22.074549000000001               22.277659      16.483260000000001
  1027   1               22.897731               22.093135      16.024951000000001
  1028   1      21.498726000000001      22.637212999999999               15.803708
  1029   8      9.0929680000000008      4.3504670000000001                4.957255
  1030   1      9.8296410000000005                4.139875      5.5357789999999998
  1031   1      9.0780159999999999      3.6325470000000002      4.3192820000000003
  1032   8      16.162718000000002      18.506872999999999      9.0714190000000006
  1033   1      17.008628000000002               18.960511      9.0907789999999995
  1034   1      16.229959999999998               17.908828      8.3227779999999996
  1035   8      3.9966020000000002                 14.0306      20.634073000000001
  1036   1      3.9274710000000002               14.965012      20.843406999999999
  1037   1      3.4214340000000001               13.913404      19.873750999999999
  1038   8      8.9086990000000004      16.389545999999999      16.869458000000002
  1039   1      8.5423609999999996      17.241008999999998      17.119523999999998
  1040   1      9.4816859999999998      16.586155999999999      16.124023999999999
  1041   8               12.686703      9.5490440000000003               13.835939
  1042   1      13.199941000000001      10.197819000000001               13.348699
  1043   1      13.345269999999999      9.0065860000000004      14.277153999999999
  1044   8      14.677516000000001      11.070792000000001      8.9846000000000004
  1045   1      14.452591999999999               10.143473      9.0904959999999999
  1046   1      15.569084999999999      11.060589999999999      8.6273300000000006
  1047   8               22.659039      10.027723999999999      22.277895000000001
  1048   1      22.999963000000001      9.5376630000000002               21.526007
  1049   1      22.805395999999998               10.948874      22.048321999999999
  1050   8               10.663772      4.8407470000000004               14.684134
  1051   1      11.355645000000001      5.0679189999999998      14.058491999999999
  1052   1      9.9436540000000004      4.5180259999999999               14.136481
  1053   8                2.835585      19.075842000000002      16.363838999999999
  1054   1      2.7193870000000002      18.283698999999999      16.893681000000001
  1055   1      3.5118550000000002                19.57592      16.827760999999999
  1056   8      20.579519999999999     0.57003599999999999               13.893894
  1057   1      19.642243000000001     0.47371799999999997               14.078175
  1058   1               20.615931      1.1894819999999999      13.160679999999999
  1059   8      9.7398509999999998      16.380507000000001               13.827622
  1060   1      9.4583169999999992               15.537338               14.190293
  1061   1      10.665343999999999      16.449504000000001      14.075298999999999
  1062   8      11.806112000000001      12.747320999999999                1.875035
  1063   1               10.988123               13.201354                2.090611
  1064   1      12.431685999999999      13.454345999999999                1.697794
  1065   8      2.4063680000000001      21.082052000000001                 10.3605
  1066   1      2.9443929999999998      21.855806999999999               10.543685
  1067   1      1.6916739999999999      21.413298999999999      9.8108360000000001
  1068   8      1.3552949999999999      3.0282469999999999      22.017506000000001
  1069   1      1.7009259999999999      2.1359629999999998      22.095569999999999
  1070   1     0.82057899999999995      3.0078770000000001      21.219819000000001
  1071   8      21.014714000000001      17.521737999999999               15.338118
  1072   1      20.162396000000001      17.804690999999998      14.998682000000001
  1073   1      21.062833000000001               17.910038      16.215357999999998
  1074   8      19.483198000000002      21.590202999999999      6.1852660000000004
  1075   1               20.412305               21.734254      6.3795210000000004
  1076   1      19.026586000000002      22.270938999999998      6.6860109999999997
  1077   8               22.098302                 20.9221      13.745630999999999
  1078   1      21.231124999999999               21.137311               13.394328
  1079   1               21.916815      20.344750000000001               14.491534
  1080   8                3.436763               14.686036               10.497188
  1081   1      2.5555330000000001      14.572271000000001      10.860804999999999
  1082   1                3.672237                15.58994               10.721133
  1083   8      2.1864249999999998               19.842378      12.292776999999999
  1084   1                3.010977      19.914020000000001               12.779301
  1085   1      2.3591169999999999      19.170335999999999      11.628564000000001
  1086   8      4.2918580000000004                3.412061               22.165516
  1087   1      4.9652830000000003      4.0507879999999998      22.410976999999999
  1088   1      4.4258459999999999      3.2740689999999999      21.224426999999999
  1089   8      4.1270239999999996      3.1080830000000002                1.783558
  1090   1      3.3875500000000001      3.0826060000000002      1.1717949999999999
  1091   1      3.7218749999999998      3.0281159999999998      2.6507960000000002
  1092   8      21.740684999999999      4.2874650000000001      2.8138529999999999
  1093   1      21.762564999999999                 4.93771      3.5198469999999999
  1094   1               20.930322                3.795334      2.9680010000000001
  1095   8      21.015792000000001      20.933074000000001    0.016413000000000001
  1096   1               21.062154      21.185061999999999                0.941658
  1097   1               20.518653      20.111191000000002    0.017757999999999999
  1098   8               20.972814      18.149581999999999      2.1533500000000001
  1099   1      21.697897000000001      17.538253000000001                2.004165
  1100   1      20.394390999999999      18.022525999999999      1.3970929999999999
  1101   8      11.671412999999999      19.916571999999999               19.522257
  1102   1               11.341735               19.098343      19.901119999999999
  1103   1               11.152526                20.60303      19.949075000000001
  1104   8               11.670394      18.415925999999999               12.111722
  1105   1               11.212382      17.580708000000001      12.231553999999999
  1106   1               11.564797      18.613903000000001      11.177752999999999
  1107   8      6.1687510000000003      8.2450399999999995               18.405714
  1108   1      5.5100680000000004      8.3521389999999993      17.715502999999998
  1109   1      6.3476530000000002      7.3014159999999997      18.420214000000001
  1110   8               11.796977               14.168381               10.915955
  1111   1               11.127799      14.718768000000001      10.502433999999999
  1112   1      11.388566000000001      13.869229000000001               11.732258
  1113   8               12.836198      7.0657329999999998      18.752165000000002
  1114   1      12.784547999999999      6.9874460000000003      19.707636999999998
  1115   1      11.939260000000001      6.9008180000000001      18.450589999999998
  1116   8      3.6168179999999999      6.1333080000000004               13.581925
  1117   1      3.0563699999999998      6.8890729999999998      13.772828000000001
  1118   1                3.642474      6.0917669999999999               12.622624
  1119   8               18.320428      5.7476859999999999               11.614931
  1120   1      17.642234999999999      5.5774220000000003      12.272798999999999
  1121   1      17.967192000000001      6.4702859999999998               11.089845
  1122   8               18.950491      18.729945000000001      12.052486999999999
  1123   1      19.560016999999998      19.229161999999999               11.503866
  1124   1               19.517391      18.237373999999999               12.651353
  1125   8      3.3327429999999998               12.887127               12.042494
  1126   1      2.5203350000000002      12.497490000000001      11.710983000000001
  1127   1      3.6652689999999999      12.244120000000001                12.67385
  1128   8               20.170361      7.3734989999999998                0.279721
  1129   1               20.636032      8.1651000000000007                       0
  1130   1      19.601565000000001      7.6713750000000003     0.99413200000000002
  1131   8      3.7221410000000001      6.5615309999999996                1.651383
  1132   1      2.9588040000000002      7.0768430000000002      1.9224840000000001
  1133   1      3.7120250000000001      6.6070679999999999     0.69197399999999998
  1134   8      18.164581999999999                13.44523      7.4805710000000003
  1135   1      18.812429000000002      13.021216000000001      6.9129180000000003
  1136   1      18.647639000000002               13.643976      8.2866710000000001
  1137   8               21.686539                 2.99336      8.0322399999999998
  1138   1      20.850104999999999      2.5672000000000001      8.2334630000000004
  1139   1      21.438068000000001      3.8117320000000001                7.595008
  1140   8               11.258969      5.3279550000000002                8.193327
  1141   1      11.493266999999999      5.2987359999999999      9.1239050000000006
  1142   1      12.062253999999999      5.0652759999999999      7.7368449999999998
  1143   8      6.7912150000000002      2.6179570000000001      8.9579210000000007
  1144   1      6.1903430000000004                1.926728      8.6700300000000006
  1145   1      6.4317719999999996      3.4215930000000001      8.5737190000000005
  1146   8               11.536887      16.786104000000002               20.467596
  1147   1               11.381275      16.795870000000001      21.414916000000002
  1148   1      12.142105000000001      16.052468000000001      20.332937999999999
  1149   8      7.6473690000000003               18.669822     0.11558400000000001
  1150   1                 6.82158               18.893103     0.55140800000000001
  1151   1      7.8320610000000004      17.771329999999999     0.40061600000000003
  1152   8      21.191096999999999      9.7355490000000007                2.683135
  1153   1                20.97861      9.2412220000000005                1.888015
  1154   1      21.902857999999998      9.2361199999999997      3.0913119999999998
  1155   8      1.5301039999999999      21.225992000000002      17.651105999999999
  1156   1      2.2515610000000001               20.818355               18.135932
  1157   1      1.1223780000000001      20.498702000000002               17.174187
  1158   8      20.369696000000001      4.4721469999999997      16.646125000000001
  1159   1                19.56992      4.7321920000000004      16.183026999999999
  1160   1               20.129268                4.507371      17.575424000000002
  1161   8      21.529215000000001      2.6335869999999999      5.3672279999999999
  1162   1               21.246015      3.5190920000000001                5.127637
  1163   1               20.895374      2.3521899999999998      6.0318360000000002
  1164   8               17.670918      7.6842079999999999      8.8414439999999992
  1165   1               17.799011      6.7353690000000004      8.9123040000000007
  1166   1      18.177942999999999      8.0484259999999992      9.5714520000000007
  1167   8      17.078320999999999      19.602810000000002      4.6046480000000001
  1168   1      17.842663000000002               19.571465                5.184755
  1169   1      17.064305999999998      18.740404000000002      4.1819179999999996
  1170   8               16.979142      17.223148999999999               15.173155
  1171   1               16.413929      17.286722999999999                 15.9466
  1172   1      16.419924000000002      16.825068000000002               14.501255
  1173   8      5.6713979999999999      19.412020999999999               13.586423
  1174   1      5.5028769999999998      20.027664000000001      14.303577000000001
  1175   1      5.5852349999999999      18.545172000000001      13.991134000000001
  1176   8               15.535195      2.5463800000000001      8.4936150000000001
  1177   1      14.643497999999999      2.3259889999999999      8.7729529999999993
  1178   1      16.100871999999999                2.022942      9.0669079999999997
  1179   8               10.413007      20.316718000000002               14.141982
  1180   1               10.775228      19.460222999999999      13.903370000000001
  1181   1               10.435345      20.821083000000002      13.324816999999999
  1182   8      16.420248000000001      19.611384000000001                2.189419
  1183   1      16.819462000000001      19.076682999999999      1.4991669999999999
  1184   1      15.643802000000001      19.995508999999998                1.774424
  1185   8      1.2365109999999999      5.9103570000000003      21.859079000000001
  1186   1     0.68407200000000001      5.1366969999999998               21.993188
  1187   1      1.9385460000000001      5.8174349999999997      22.508043000000001
  1188   8      11.834459000000001      9.9801590000000004      7.1012139999999997
  1189   1               12.637962      10.229112000000001      7.5639560000000001
  1190   1      12.128590000000001      9.7618500000000008      6.2132560000000003
  1191   8      4.6668609999999999      4.1063289999999997               13.573782
  1192   1      4.9922750000000002      3.2244820000000001               13.769176
  1193   1      5.1943450000000002      4.6840510000000002               14.131133
  1194   8      12.779685000000001      22.456074999999998               21.492739
  1195   1               12.483603               21.718401      22.031158999999999
  1196   1      12.409096999999999                22.28106      20.624016999999998
  1197   8                0.954816               10.504778      3.4962249999999999
  1198   1     0.30097200000000002               11.174657      3.7094749999999999
  1199   1                1.489997               10.905063      2.8063009999999999
  1200   8      9.1373979999999992      6.0679619999999996    0.053380999999999998
  1201   1               10.093624      6.0008309999999998                       0
  1202   1                8.983034      6.8190710000000001     0.63186900000000001
  1203   8               14.368503      14.260225999999999      20.580995000000001
  1204   1      15.196486999999999               14.144064               21.052878
  1205   1      13.875826999999999      14.888496999999999      21.115024999999999
  1206   8               12.236008      21.802551000000001                1.556902
  1207   1               11.615969               21.085203      1.7075279999999999
  1208   1               12.106308      22.390854000000001      2.3050459999999999
  1209   8      22.388684000000001                7.701695               15.148011
  1210   1               22.999609                7.028867               14.838498
  1211   1      22.645606999999998                 7.85534      16.060714000000001
  1212   8               13.641703      10.130947000000001      3.8156050000000001
  1213   1      14.311139000000001      9.5935349999999993      4.2454530000000004
  1214   1               13.903577               10.143991      2.8915419999999998
  1215   8               10.765209      8.8277780000000003               19.239511
  1216   1      10.772918000000001      9.7134540000000005      18.869046999999998
  1217   1      9.9415859999999991      8.7823539999999998      19.731674000000002
  1218   8               16.034654                11.41803                1.225255
  1219   1      16.503416999999999      11.272842000000001      2.0504259999999999
  1220   1               15.730876      10.544245999999999     0.96667599999999998
  1221   8      11.631182000000001               12.378886               14.344339
  1222   1               11.096539               11.621266               14.593123
  1223   1      11.123665000000001               12.812338               13.653551
  1224   8               17.470979      14.829629000000001               16.866073
  1225   1      17.630344000000001      15.769444999999999      16.980412000000001
  1226   1      17.986346000000001                14.59299      16.090803999999999
  1227   8               14.327226      8.3318709999999996      21.326764000000001
  1228   1      13.399658000000001      8.5705360000000006      21.392956000000002
  1229   1      14.591760000000001      8.6420709999999996      20.457028999999999
  1230   8      7.3122800000000003                3.151068               21.025579
  1231   1      6.6608599999999996      2.4724219999999999      21.217455000000001
  1232   1      7.1701670000000002      3.8164750000000001      21.703576000000002
  1233   8      6.2223350000000002                10.35187    0.084776000000000004
  1234   1      5.2967029999999999      10.098171000000001                0.108615
  1235   1                 6.69543      9.5201499999999992  0.00072000000000000005
  1236   8      14.319553000000001      17.039522999999999      20.541855999999999
  1237   1      15.218109999999999               17.375916                20.57591
  1238   1               13.772791      17.796866000000001      20.765744000000002
  1239   8      9.9176839999999995      7.6701610000000002      3.5212690000000002
  1240   1                9.369434      7.0534290000000004                3.030567
  1241   1               10.067086      7.2368699999999997      4.3654140000000003
  1242   8                 18.7683      2.6759940000000002               14.483067
  1243   1      18.386655999999999      2.6794820000000001                15.36401
  1244   1      18.083991000000001                 3.05444      13.925266000000001
  1245   8      22.248892000000001      7.4917189999999998      11.345300999999999
  1246   1      21.296938999999998      7.6066609999999999      11.393255999999999
  1247   1      22.602281000000001                8.376735      11.465733999999999
  1248   8      21.869582999999999                8.698874      5.6218810000000001
  1249   1      22.079367000000001      9.6357169999999996      5.6281629999999998
  1250   1      22.561731000000002      8.3031349999999993      5.0861910000000004
  1251   8      6.0946899999999999      12.660289000000001               11.619125
  1252   1      5.9567040000000002      11.803044999999999               12.028781
  1253   1      5.3621530000000002                12.75154               11.004548
  1254   8      9.7766199999999994                18.57132   0.0077889999999999999
  1255   1                10.33155      17.787884999999999   0.0050070000000000002
  1256   1               10.286813                19.22316     0.49507699999999999
  1257   8               14.676563      8.9718549999999997               11.618091
  1258   1               14.955822      8.8787599999999998               12.531914
  1259   1               13.987408      8.3113860000000006               11.510911
  1260   8      20.573954000000001               12.593919      12.350372999999999
  1261   1      19.756633999999998      12.783182999999999      11.883584000000001
  1262   1      21.114533000000002      13.375610999999999      12.211183999999999
  1263   8      20.589193999999999      11.977081999999999      5.6050810000000002
  1264   1      21.179069999999999      11.550421999999999      6.2309669999999997
  1265   1               20.945231               11.742996      4.7442190000000002
  1266   8      19.768446999999998               13.063091      21.894521999999998
  1267   1      20.300091999999999               12.376789      21.484560999999999
  1268   1      20.381461999999999      13.527965999999999      22.469626999999999
